26
TCD-H2 1J-9J; verbatim B3LYP/6-31G(d,p) triplet geometry from SI (angstrom)
C                0.               0.               0.
C                0.               0.       1.54268604
C      1.4904360765               0.     1.9108554452
C      2.1090442052    -1.0019229597     0.9165112124
C       1.253316995    -0.8601085914    -0.3913465946
C      -1.224816177    -0.6694438174    -0.6714001208
C     -1.5281041777    -0.0536737985     -2.055792596
C     -2.7500714558    -0.5946336131    -2.7162693871
C      0.6656531968    -2.1347415515    -0.9151254683
C     -0.8247577852    -2.1653342421    -0.7828672546
H      0.1134265223     1.0337653806    -0.3492979767
H     -0.5539442637     0.8450321015     1.9653580336
H     -0.4728538273     -0.917737977     1.9184579443
H      1.9100083464     1.0011141477     1.7466937483
H      1.6804449538    -0.2632176191     2.9568763107
H      3.1738397011    -0.8215842863     0.7391000766
H       2.017446802    -2.0213040667     1.3088946533
H      1.8589012319    -0.3578180186    -1.1603572904
H      1.2638710932    -2.9903723018    -1.2138255377
H     -3.6388645142     -0.816237907    -2.1321041303
H     -1.6304177383      1.039828968    -1.9215674567
H     -0.6576204749    -0.1832137807    -2.7138608486
H     -2.1197687183    -0.5486980625    -0.0464677086
H     -1.3296297778     -2.669370862    -1.6169438308
H     -1.1353394187    -2.7133057264     0.1255480907
H     -2.8414639972    -0.6249814945    -3.7967183515
