26
TCD-H2 1J-10J; verbatim B3LYP/6-31G(d,p) triplet geometry from SI (angstrom)
C     -0.0003126367     -0.000012167    -0.0002237726
C     -0.0002592761     0.0001938574     1.5516256578
C      1.4913499596    -0.0021788596     2.0043987369
C      2.3264422764    -0.1488719686     0.7162005621
C      1.4266674188     0.4779549514     -0.388676654
C     -0.3799758788    -1.3653419045    -0.6509969595
C     -0.1958335094    -1.2688521225     -2.179440941
C       1.267026865    -0.9716823162    -2.5585514907
C       1.822968866     0.1927772028    -1.8007991253
C      0.3119953426    -2.5644526124    -0.0847547618
H     -0.7357016965     0.7207321139    -0.3781588079
H     -0.5101964594     0.8922925449     1.9289632472
H     -0.5523719928    -0.8565438247     1.9516088573
H      1.7327076686     0.9435554054      2.502041972
H      1.7064244315    -0.7982285337     2.7243866436
H      3.3046368959      0.338803013     0.7808177704
H      2.4983447471    -1.2057560708     0.4861987208
H      1.4618905365     1.5677603705    -0.2294648293
H      2.6796226364     0.7224396409    -2.2120295818
H      1.8703309489    -1.8785455949    -2.3663929731
H      1.3494740536    -0.7960523205    -3.6390449023
H     -0.5273607273    -2.1987954671    -2.6569546713
H     -0.8380581632    -0.4668411452    -2.5646617409
H     -1.4634271443    -1.4884209982    -0.4553347752
H      0.3960540961    -2.7149882849     0.9861920642
H      0.5644948508    -3.4067694672    -0.7215460654
