26
TCD-H2 1J-2J; verbatim B3LYP/6-31G(d,p) triplet geometry from SI (angstrom)
C     -0.0106083663     0.0250354637    -0.0144766193
C      0.0398078434     0.1335822653     1.5324539254
C      1.5218834295    -0.0814524665     1.8901280335
C       1.998302707    -1.1509667307      0.879500959
C      1.1227295231    -0.9175444886    -0.3136476695
C     -1.3777850252    -0.3909388667    -0.5843018885
C     -2.5321723419     0.5839556572    -0.2567801118
C     -3.6396702196     0.2371063352    -1.2771035636
C     -2.8746668166    -0.2697022137    -2.4619955874
C     -1.4322971597    -0.4985883378    -2.1313030303
H      0.2172514965     1.0225823587     -0.441864156
H     -0.3584062331     1.0811541233     1.9082092869
H     -0.5674222452    -0.6717692017     1.9676553241
H      2.0803165666      0.848948004     1.7299680318
H      1.6727901484    -0.3763516363     2.9332540745
H      3.0713991162    -1.0786199845     0.6542010113
H      1.8501249946    -2.1646320907     1.2929159098
H      1.3008137678    -1.3571657021    -1.2894257174
H     -3.3124752905    -0.4528776568    -3.4374584622
H     -4.3113110884    -0.5396708343    -0.8698291091
H     -4.2874649207     1.0938417535    -1.5098021465
H     -2.8675669158     0.5133144535     0.7824780385
H     -2.1903931882     1.6148136719    -0.4210778355
H     -1.6327356656    -1.3769773043    -0.1688511575
H     -1.0475062297    -1.4583108424    -2.5025303838
H     -0.7866108412     0.2765173602    -2.5856331698
