26
TCD-H2 3J-4J; verbatim B3LYP/6-31G(d,p) triplet geometry from SI (angstrom)
C      0.0042882069     0.0330494846    -0.0002314222
C      0.0053255717      0.050994574     1.5390582193
C      1.3732537862     -0.002720768        2.1319807
C     -2.6126361651     0.0322065527      0.242059741
C      -1.447636127    -0.0115839904    -0.6850940698
C       0.635082529     1.3019656538    -0.6336664892
C      0.9886374268     0.9975264938    -2.1073773692
C     -0.4133776429      0.921691361    -2.7952297893
C     -1.3915719844      1.220610793    -1.6352871682
C     -0.5843871577     2.2334157764    -0.7974774214
H      0.5692642546    -0.8549113615    -0.3125400984
H     -0.5300486165     0.9346718078     1.9137416489
H     -0.5925595176      -0.80554597     1.8988682053
H      1.5485569023     0.3050363253     3.1576377896
H       2.184759285    -0.5054352685     1.6140678308
H     -3.0560435395     0.9757120187     0.5458671711
H     -2.9926850454    -0.8694933186     0.7111120385
H      -1.515491331    -0.9382473378    -1.2706915603
H     -2.3821381026     1.5441407118    -1.9669258609
H     -0.5081366893     1.6761756208    -3.5832852802
H     -0.6085566281    -0.0521173228    -3.2564217405
H      1.5945744681     1.8029969994    -2.5359873359
H      1.5627649235     0.0708959474    -2.2105810663
H      1.4710074479     1.6964755234    -0.0488240841
H     -0.3527072556     3.1573198722    -1.3390127476
H     -1.0642108879     2.4994844377     0.1499229987
