26
TCD-H2 9J-8J; verbatim B3LYP/6-31G(d,p) triplet geometry from SI (angstrom)
C      0.2940520169    -0.8025432618     0.4258299255
C      1.6134003422    -1.3151988196     -0.195285093
C      2.6135785521    -0.1660261235     0.0311842291
C      1.7672979242      1.098185574    -0.2084695404
C      0.4000116317     0.7641086661     0.4274440998
C     -1.0250179146     -1.154429659    -0.3185534241
C     -1.6666852528    -2.4237277668     0.1189383194
C     -1.3629058047     2.6178574222     0.1402254841
C     -0.8816847643     1.2842123436    -0.3117425513
C     -1.8837591712     0.1266140841    -0.1145281779
H      0.2137510015    -1.1617485434     1.4591469668
H      1.9474065441    -2.2660106892     0.2318127973
H      1.4809186183    -1.4772739012    -1.2733137795
H      2.9739943533    -0.1827731465     1.0681577959
H      3.4940285954     -0.225750436    -0.6178081046
H      2.2224987458      2.004849114     0.2026461918
H      1.6499002503     1.2590106232    -1.2887337572
H      0.3772405307     1.1318872185     1.4596336229
H     -0.6373169203     1.3384424201    -1.3829643912
H     -1.9230000742     2.7121059275     1.0667242021
H     -1.0228522864     3.5325359729    -0.3339819545
H     -1.7838996793    -2.6386728933     1.1777978984
H     -2.1393891296    -3.0992795269    -0.5855048749
H     -0.8055588206    -1.2205122013     -1.394123192
H     -2.2819327884     0.1464627733     0.9093165974
H     -2.7374624902     0.1777691391    -0.7978723496
