26
TCD-H2 2J-3J; verbatim B3LYP/6-31G(d,p) triplet geometry from SI (angstrom)
C                0.               0.               0.
C                0.               0.       1.54614973
C      1.4098396857               0.     2.1593217355
C      1.4151075702     0.0916214619     3.6472303236
C      0.6056409215    -1.2311610874    -0.6395260684
C     -1.4258107058    -0.0296712002    -0.6268591003
C     -1.3054546728     0.3207600602    -2.1329056018
C      -0.642589722    -0.9531011528    -2.7524763159
C     -0.4419615232    -1.8743537834    -1.5037744111
C      -1.723371443    -1.5452089986    -0.6989835664
H      0.5328726992      0.912854558    -0.3161899952
H     -0.5407760754     0.8910470551     1.8949915465
H     -0.5534675063    -0.8689583159     1.9211211272
H      1.9525396651    -0.8993032188     1.8377475044
H      1.9775965868     0.8463777151     1.7258128752
H      2.2656295107    -0.2517269762     4.2267662912
H      1.6715208083     -1.412788008    -0.7356888003
H     -0.2676536694    -2.9239311779    -1.7550960076
H     -1.3048857576    -1.4360476782    -3.4808383076
H      0.3021362149    -0.7381229735    -3.2601775052
H     -2.2949028409     0.4987235217     -2.566662206
H     -0.7123281187     1.2264385395    -2.2963446194
H     -2.1549939611     0.5816644139    -0.0871648063
H     -2.6460335414    -1.7740234749    -1.2437807862
H     -1.7575608957    -2.0377754838     0.2771247541
H      0.6413287737     0.6456444613     4.1705059624
