26
TCD-H2 2J-6J; verbatim B3LYP/6-31G(d,p) triplet geometry from SI (angstrom)
C      -0.169773155    -1.5697510303    -0.3776304177
C     -1.5949426333    -1.4437369529     0.0597053194
C     -2.3362149493    -0.1729235557     -0.438594418
C     -1.8642373551     1.1746713451     0.1758635585
C     -0.5155789874     1.6672401033    -0.2508613322
C      1.0233135798     -1.156784161     0.4368270472
C      2.1852046874    -0.6603748538    -0.4536141879
C      1.8313746603     0.8123049651    -0.7802273281
C      0.8157236655     1.2777000831     0.3312920212
C      0.7761408667     0.0860443146     1.3201365059
H      0.0175864015    -1.9787945735    -1.3694456835
H     -2.1599771155    -2.3114873908    -0.3088127216
H     -1.6673840487    -1.4782716095     1.1557659597
H     -2.2612026836    -0.1168699727    -1.5315922955
H     -3.4020143153    -0.2925345832    -0.2020827995
H     -2.6101938186     1.9315370377    -0.0991101759
H     -1.9204941538     1.0838154737     1.2706664811
H      1.2349008536     2.1605636454     0.8413902074
H      2.7245075227     1.4447872479     -0.801841362
H      1.3630841492     0.8887271986     -1.766464563
H      3.1221291821     -0.709407194     0.1140526056
H      2.3203817828    -1.2718465513    -1.3519416485
H      1.3554082581    -2.0056498685     1.0617764778
H      1.6016748378     0.1768002129     2.0361488234
H      -0.143074357     0.0364973765     1.9085129354
H     -0.4813798745     2.3557202932    -1.0943070092
