10
para-Benzyne; verbatim SI BP86/def2-TZVP optimized geometry (angstrom)
C           -0.7396          -1.1953           0.0000
C            0.7396          -1.1953           0.0000
C            1.3620           0.0000           0.0000
C            0.7396           1.1953           0.0000
C           -0.7396           1.1953           0.0000
C           -1.3620           0.0000           0.0000
H            1.1999          -2.1824           0.0000
H           -1.1999           2.1824           0.0000
H            1.1999           2.1824           0.0000
H           -1.1999          -2.1824           0.0000
