18
Octatetraene; verbatim SI BP86/def2-TZVP optimized geometry (angstrom)
C         0.0016688       -4.3180621        0.0000000
C         0.5522560       -3.0861741        0.0000000
C        -0.1954923       -1.8546886        0.0000000
C         0.3688508       -0.6142572        0.0000000
C        -0.3688508        0.6142572        0.0000000
C         0.1954923        1.8546886        0.0000000
H         0.6154330       -5.2181582        0.0000000
H        -1.0816601       -4.4561529        0.0000000
H         1.6438706       -2.9929353        0.0000000
H        -1.2884808       -1.9364427        0.0000000
H         1.4624410       -0.5377657        0.0000000
H        -1.4624410        0.5377657        0.0000000
H         1.2884808        1.9364427        0.0000000
C        -0.5522560        3.0861741        0.0000000
C        -0.0016688        4.3180621        0.0000000
H        -1.6438706        2.9929353        0.0000000
H         1.0816601        4.4561529        0.0000000
H        -0.6154330        5.2181582        0.0000000
