18
Naphtalene; verbatim SI BP86/def2-TZVP optimized geometry (angstrom)
C         1.2448579       -1.4037708        0.0000000
C         2.4362122       -0.7081347        0.0000000
C         2.4362122        0.7081347        0.0000000
C         1.2448579        1.4037708        0.0000000
C        -2.4362122        0.7081347        0.0000000
C        -2.4362122       -0.7081347        0.0000000
C        -1.2448579       -1.4037708        0.0000000
C         0.0000000       -0.7187985        0.0000000
C         0.0000000        0.7187985        0.0000000
C        -1.2448579        1.4037708        0.0000000
H         3.3844126       -1.2479238        0.0000000
H         3.3844126        1.2479238        0.0000000
H         1.2428352        2.4959602        0.0000000
H        -3.3844126        1.2479238        0.0000000
H        -3.3844126       -1.2479238        0.0000000
H        -1.2428352       -2.4959602        0.0000000
H        -1.2428352        2.4959602        0.0000000
H         1.2428352       -2.4959602        0.0000000
