14
Hexatriene; verbatim SI BP86/def2-TZVP optimized geometry (angstrom)
C         0.1355129       -3.0805483        0.0000000
C         0.5987822       -1.8147480        0.0000000
C        -0.2357876       -0.6369322        0.0000000
C         0.2357876        0.6369322        0.0000000
C        -0.5987822        1.8147480        0.0000000
C        -0.1355129        3.0805483        0.0000000
H         0.8103716       -3.9359225        0.0000000
H        -0.9356305       -3.2934223        0.0000000
H         1.6810419       -1.6448746        0.0000000
H        -1.3201401       -0.7978330        0.0000000
H         1.3201401        0.7978330        0.0000000
H        -1.6810419        1.6448746        0.0000000
H         0.9356305        3.2934223        0.0000000
H        -0.8103716        3.9359225        0.0000000
