14
Benzyl radical; verbatim SI BP86/def2-TZVP optimized geometry (angstrom)
C         0.0000000        0.0000000       -0.9239991
C        -1.2194133        0.0000000       -0.1787713
C        -1.2130861        0.0000000        1.2077226
C         0.0000000        0.0000000        1.9145870
C         1.2130861        0.0000000        1.2077226
C         1.2194133        0.0000000       -0.1787713
H        -2.1662300        0.0000000       -0.7227915
H        -2.1585579        0.0000000        1.7528538
H         0.0000000        0.0000000        3.0050230
H         2.1585579        0.0000000        1.7528538
H         2.1662300        0.0000000       -0.7227915
C         0.0000000        0.0000000       -2.3297274
H        -0.9331677        0.0000000       -2.8919553
H         0.9331677        0.0000000       -2.8919553
