12
Phenoxy radical; verbatim SI BP86/def2-TZVP optimized geometry (angstrom)
C         0.0000000        0.0000000        1.4356773
C         0.0000000        1.1982730        0.7196707
C         0.0000000        1.2255672       -0.6704162
C         0.0000000        0.0000000       -1.3953518
C         0.0000000       -1.2255672       -0.6704162
C         0.0000000       -1.1982730        0.7196707
H         0.0000000        2.1535226        1.2499455
H         0.0000000        2.1577314       -1.2318258
O         0.0000000        0.0000000       -2.6994274
H         0.0000000       -2.1577314       -1.2318258
H         0.0000000       -2.1535226        1.2499455
H         0.0000000        0.0000000        2.5243536
