49
[(W5O18Co)2(mu2-O)]6-; verbatim source B3LYP/PCM triplet geometry used for CASSCF single point (angstrom)
O         -3.645591         0.056530         0.056720
O          3.647881         0.011495        -0.065562
W         -3.752075         0.660569         2.355454
W          3.497502        -0.535608         2.233072
W         -4.248558         2.278126        -0.555990
W          4.249056         2.255776         0.541497
W         -3.629551        -0.571206        -2.236919
W          3.828687         0.613583        -2.346930
W         -3.139575        -2.190132         0.674689
W          3.255634        -2.305477        -0.665213
Co        -1.756207         0.501423        -0.013242
Co         1.751564         0.493934        -0.083454
W         -6.066115        -0.519001         0.147665
W          6.061200        -0.572112        -0.036828
O         -4.278982         2.286584         1.400521
O          4.129668         1.293975         2.246955
O         -4.181451         1.305489        -2.256928
O          4.393929         2.211379        -1.414864
O         -3.295054        -2.245560        -1.276108
O          3.337193        -1.338182        -2.319258
O         -3.401815        -1.261539         2.383129
O          3.086593        -2.231303         1.235414
O         -2.395407         2.274628        -0.510103
O          2.412183         2.263411         0.414113
O         -1.497122        -1.345866         0.502809
O          1.455579        -1.289593        -0.599970
O         -5.126966        -2.138283         0.608266
O          5.133142        -2.286059        -0.530775
O         -5.996560         1.338849        -0.352416
O          6.008482         1.258899         0.413509
O         -1.886611        -0.034583        -1.869758
O          2.055031         0.954905        -1.928097
O         -1.985009         0.960018         1.857014
O          1.789733         0.023780         1.780188
O         -5.609594         0.083075         1.919600
O          5.365886        -0.978578         1.707053
O         -5.509449        -0.881816        -1.662424
O          5.618888        -0.097035        -1.846600
O         -3.836316         1.111858         4.046670
O          3.408161        -0.995843         3.913470
O         -3.623778        -1.036346        -3.926415
O          3.982991         0.996882        -4.041868
O         -7.765734        -0.928674         0.209482
O          7.745754        -1.010330        -0.020010
O         -4.704243         3.910391        -1.005418
O          4.710631         3.879701         0.982154
O         -2.772391        -3.841782         1.134343
O          2.792601        -3.926164        -1.107009
O          0.000185         1.096137        -0.091629
