10
ortho-Benzyne; verbatim SI BP86/def2-TZVP optimized geometry (angstrom)
C         0.0000000       -0.6270891        1.5494751
C         0.0000000       -1.4649676        0.4484090
C         0.0000000       -0.7023349       -0.7452475
C         0.0000000        0.7023349       -0.7452475
C         0.0000000        1.4649676        0.4484090
C         0.0000000        0.6270891        1.5494751
H         0.0000000       -2.5541671        0.4479276
H         0.0000000       -1.2323683       -1.7005642
H         0.0000000        1.2323683       -1.7005642
H         0.0000000        2.5541671        0.4479276
