24
Anthracene; verbatim SI BP86/def2-TZVP optimized geometry (angstrom)
C         0.0000000       -1.4058090        0.0000000
C         0.0000000        1.4058090        0.0000000
C        -1.2255809        0.7242328        0.0000000
C        -1.2255809       -0.7242328        0.0000000
C         3.6646296       -0.7121817        0.0000000
C         3.6646296        0.7121817        0.0000000
C         2.4799446        1.4076748        0.0000000
C         1.2255809        0.7242328        0.0000000
C         1.2255809       -0.7242328        0.0000000
C         2.4799446       -1.4076748        0.0000000
C        -2.4799446        1.4076748        0.0000000
C        -2.4799446       -1.4076748        0.0000000
H         4.6142693       -1.2493056        0.0000000
H         4.6142693        1.2493056        0.0000000
H         2.4785997        2.4997410        0.0000000
C        -3.6646296        0.7121817        0.0000000
C        -3.6646296       -0.7121817        0.0000000
H        -4.6142693        1.2493056        0.0000000
H        -4.6142693       -1.2493056        0.0000000
H         0.0000000        2.4990382        0.0000000
H        -2.4785997        2.4997410        0.0000000
H        -2.4785997       -2.4997410        0.0000000
H         2.4785997       -2.4997410        0.0000000
H         0.0000000       -2.4990382        0.0000000
