22
Decapentaene; verbatim SI BP86/def2-TZVP optimized geometry (angstrom)
C         0.0635070       -5.5535645        0.0000000
C         0.6176270       -4.3224686        0.0000000
C        -0.1256166       -3.0898485        0.0000000
C         0.4435813       -1.8494423        0.0000000
C        -0.2868198       -0.6208510        0.0000000
C         0.2868198        0.6208510        0.0000000
H         0.6749175       -6.4552428        0.0000000
H        -1.0201542       -5.6887827        0.0000000
H         1.7095703       -4.2328239        0.0000000
H        -1.2188619       -3.1674439        0.0000000
H         1.5376349       -1.7783145        0.0000000
H        -1.3807442       -0.6903780        0.0000000
H         1.3807442        0.6903780        0.0000000
C        -0.4435813        1.8494423        0.0000000
C         0.1256166        3.0898485        0.0000000
H        -1.5376349        1.7783145        0.0000000
H         1.2188619        3.1674439        0.0000000
C        -0.6176270        4.3224686        0.0000000
C        -0.0635070        5.5535645        0.0000000
H        -1.7095703        4.2328239        0.0000000
H        -0.6749175        6.4552428        0.0000000
H         1.0201542        5.6887827        0.0000000
