10
meta-Benzyne; verbatim SI BP86/def2-TZVP optimized geometry (angstrom)
C        -0.9468497        0.0000000       -0.8612392
C        -1.1671556        0.0000000        0.4947533
C         0.0000000        0.0000000        1.2805678
C         1.1671556        0.0000000        0.4947533
C         0.9468497        0.0000000       -0.8612392
C         0.0000000        0.0000000       -1.8352553
H        -2.1719898        0.0000000        0.9180954
H         0.0000000        0.0000000        2.3756663
H         2.1719898        0.0000000        0.9180954
H         0.0000000        0.0000000       -2.9241978
