14
Nitrobenzene; verbatim SI BP86/def2-TZVP optimized geometry (angstrom)
C          0.000000         0.000000        -0.852556
C         -1.221367         0.000000        -0.178862
C         -1.213275         0.000000         1.215830
C          0.000000         0.000000         1.911992
C          1.213275         0.000000         1.215830
C          1.221367         0.000000        -0.178862
H         -2.147330         0.000000        -0.751109
H         -2.158027         0.000000         1.760326
H          0.000000         0.000000         3.002758
H          2.158027         0.000000         1.760326
H          2.147330         0.000000        -0.751109
N          0.000000         0.000000        -2.337208
O          1.093915         0.000000        -2.908677
O         -1.093915         0.000000        -2.908677
