18
Azulene; verbatim SI BP86/def2-TZVP optimized geometry (angstrom)
C        -1.2674753        0.0000000        1.8601325
C         0.0000000        0.0000000        2.4534517
C         1.2674753        0.0000000        1.8601325
C         1.5965059        0.0000000        0.4992658
C         0.7505693        0.0000000       -0.6075746
C        -0.7505693        0.0000000       -0.6075746
H         0.0000000        0.0000000        3.5473377
H         2.1130010        0.0000000        2.5519423
H         2.6671561        0.0000000        0.2690441
C         1.1514800        0.0000000       -1.9576560
H         2.1823491        0.0000000       -2.3046149
C         0.0000000        0.0000000       -2.7664189
H         0.0000000        0.0000000       -3.8554489
C        -1.1514800        0.0000000       -1.9576560
C        -1.5965059        0.0000000        0.4992658
H        -2.1130010        0.0000000        2.5519423
H        -2.6671561        0.0000000        0.2690441
H        -2.1823491        0.0000000       -2.3046149
