21
VERBATIM publisher-SI Cartesian coordinates (angstrom); Transition State for Addition of Fumaronitrile to Bicyclo[2.1.0]pentane; b310676d.doc
C         2.507260       -1.057772        0.918572
C         0.607474       -0.546512       -0.019903
C         2.938813       -0.765232       -0.513774
C         1.606931       -0.340978       -1.169393
C         1.319570       -0.220083        1.271136
H         3.353670       -1.644581       -0.991324
H         1.360787       -0.951300       -2.030174
H         1.621125        0.695862       -1.492504
H         3.696877        0.012789       -0.553405
H         0.089263       -1.494301       -0.023978
H         2.580945       -2.060869        1.303662
H         0.797324       -0.547283        2.160393
H         1.556177        0.836265        1.354257
C        -2.187245        0.338679        0.373832
C        -1.101530        0.704440       -0.422640
C        -2.976424       -0.806007        0.055981
C        -0.512299        2.007472       -0.195331
N        -3.610926       -1.730909       -0.195926
N        -0.019831        3.025422       -0.007711
H        -2.375341        0.814483        1.316964
H        -1.087893        0.382036       -1.447832
