13
VERBATIM publisher-SI Cartesian coordinates (angstrom); Cyclopentane-1,3-diyl (Singlet State); b310676d.doc
C         0.000000        1.188607        0.401606
C         0.000000       -1.188607        0.401606
C         0.000000        0.000000        1.332777
C        -0.223636        0.752422       -1.021682
C         0.223636       -0.752422       -1.021682
H        -0.232435        2.189513        0.742563
H         0.232435       -2.189513        0.742563
H         0.889807        0.006259        2.012820
H        -0.889807       -0.006259        2.012820
H         0.328014        1.355427       -1.746359
H        -0.328014       -1.355427       -1.746359
H        -1.286427        0.824479       -1.286900
H         1.286427       -0.824479       -1.286900
