9
VERBATIM publisher-SI Cartesian coordinates (angstrom); Trimethylene H Migration Transition State; b310676d.doc
C         1.248128        0.223484       -0.022652
C        -0.036348       -0.454565       -0.004192
C        -1.273800        0.217813       -0.034801
H         0.520245       -0.371590        1.127868
H         2.146168       -0.327686       -0.309948
H         1.294002        1.314969       -0.047381
H        -0.049534       -1.503168       -0.362198
H        -2.208740       -0.339972        0.030295
H        -1.330020        1.307054       -0.068767
