13
VERBATIM publisher-SI Cartesian coordinates (angstrom); Transition State for Ring Closure of Cyclopentane-1,3-diyl; b310676d.doc
C         0.375972       -1.180832       -0.164885
C         0.449935        1.161978       -0.003051
C        -1.033362       -0.756284        0.160929
C        -1.012453        0.799717       -0.076348
C         1.338744       -0.054224        0.146247
H        -1.268957       -0.973346        1.208633
H        -1.621318        1.351510        0.646601
H        -1.785297       -1.256706       -0.450184
H        -1.421397        1.022122       -1.067482
H         0.581665       -1.894866       -0.952183
H         0.817731        2.101206       -0.397033
H         2.215755       -0.033549       -0.543559
H         1.768798       -0.138501        1.177855
