21
VERBATIM publisher-SI Cartesian coordinates (angstrom); Fumaronitrile + Bicyclo[2.1.0]pentane; b310676d.doc
C         2.707321       -1.363878        0.794455
C         1.320891       -1.258099        0.113867
C         3.367344       -0.759647       -0.443420
C         1.973883       -0.653814       -1.129173
C         1.660368       -0.434792        1.316638
H         4.020578       -1.454441       -0.957839
H         1.900267       -1.293926       -2.000658
H         1.642023        0.344527       -1.401668
H         3.905242        0.169909       -0.282849
H         0.501678       -1.956031        0.112535
H         3.117977       -2.152955        1.399156
H         1.190167       -0.743008        2.236097
H         1.789389        0.633978        1.227094
C        -2.465654        0.531731        0.364206
C        -1.731545        1.168643       -0.566995
C        -3.180469       -0.679118        0.059931
C        -1.006596        2.372859       -0.260812
N        -3.753189       -1.646403       -0.165871
N        -0.421639        3.332403       -0.033610
H        -2.543038        0.895055        1.371610
H        -1.649995        0.802087       -1.572957
