9
VERBATIM publisher-SI Cartesian coordinates (angstrom); Trimethylene (Singlet State); b310676d.doc
C         0.000000        1.262356       -0.292604
C         0.000000        0.000000        0.517743
C         0.000000       -1.262356       -0.292604
H        -0.614892        1.324649       -1.182225
H         0.279223        2.196614        0.178173
H         0.885857        0.005332        1.206449
H        -0.885857       -0.005332        1.206449
H         0.614892       -1.324649       -1.182225
H        -0.279223       -2.196614        0.178173
