13
VERBATIM publisher-SI Cartesian coordinates (angstrom); Transition State for Disrotatory Ring Opening of Cyclopentane-1,3-diyl; b310676d.doc
C         0.132494        0.969556        1.031660
C         0.132494        0.969556       -1.031660
C         0.132494       -0.471991        1.168906
C         0.132494       -0.471991       -1.168906
C        -0.561227       -1.147147        0.000000
H        -0.828750        1.465476        1.122154
H        -0.828750        1.465476       -1.122154
H         0.939356        1.529482        1.497030
H         0.939356        1.529482       -1.497030
H         1.037547       -0.950222        1.533270
H         1.037547       -0.950222       -1.533270
H        -1.656589       -0.923855        0.000000
H        -0.452224       -2.253511        0.000000
