13
VERBATIM publisher-SI Cartesian coordinates (angstrom); Transition State for H Migration in Cyclopentane-1,3-diyl; b310676d.doc
C         0.575334       -1.134498        0.100779
C         1.241519        0.189212       -0.025855
C         0.283520        1.229267       -0.204354
C        -1.075729        0.655984        0.139134
C        -0.895262       -0.887552       -0.129578
H         1.185814       -0.125074        1.162026
H         1.082277       -2.064251       -0.117995
H         2.309052        0.279844       -0.293734
H         0.522266        2.275479       -0.062542
H        -1.305247        0.826178        1.201014
H        -1.896371        1.081888       -0.439713
H        -1.571014       -1.505792        0.462195
H        -1.103070       -1.082748       -1.192006
