13
VERBATIM publisher-SI Cartesian coordinates (angstrom); Transition State for Conrotatory Ring Opening of Cyclopentane-1,3-diyl; b310676d.doc
C         0.000000        0.000000        1.304553
C         0.000000        1.201928        0.368639
C         0.000000       -1.201928        0.368639
C        -0.424069        0.881900       -0.965523
C         0.424069       -0.881900       -0.965523
H         0.887363        0.018269        1.985739
H        -0.887363       -0.018269        1.985739
H         0.692388        2.015942        0.543176
H        -0.692388       -2.015942        0.543176
H        -0.121827        1.556528       -1.765079
H        -1.441634        0.526429       -1.096191
H         0.121827       -1.556528       -1.765079
H         1.441634       -0.526429       -1.096191
