9
VERBATIM publisher-SI Cartesian coordinates (angstrom); Trimethylene Conrotatory Ring-Closure Transition State; b310676d.doc
C         0.000000        1.253294       -0.294043
C         0.000000        0.000000        0.531997
C         0.000000       -1.253294       -0.294043
H        -0.700238        1.351124       -1.113868
H         0.455577        2.158584        0.085123
H         0.873584        0.001866        1.197012
H        -0.873584       -0.001866        1.197012
H         0.700238       -1.351124       -1.113868
H        -0.455577       -2.158584        0.085123
