31
VERBATIM publisher-SI Cartesian coordinates (angstrom); isolated 2-HEAQ first-ESIPT transition state; CASSCF(12,10)/6-31G** gas phase; c5cp03442f1.pdf
C     -1.629980446    -1.004815503    -0.126599117
H     -1.752496547    -2.066856562    -0.237674837
C     -0.318683665    -0.497375875    -0.029511303
C      0.848275104    -1.407129788    -0.075458914
O      0.712395023    -2.599207218    -0.161977110
C      2.197359895    -0.780324734    -0.025624693
C      3.333758089    -1.609698215    -0.066351100
H      3.184276486    -2.670490876    -0.126448335
C      4.598566047    -1.065849384    -0.032101470
H      5.465405706    -1.700157044    -0.063879985
C      4.754153869     0.334837873     0.043157813
H      5.741991360     0.759889904     0.069603258
C      3.666740317     1.151478750     0.083595296
H      3.790791508     2.217195586     0.142343570
C      2.361082203     0.599444415     0.051500751
C      1.189765434     1.420596989     0.093663205
O      1.296909285     2.758869636     0.102847421
C     -0.125077278     0.882956900     0.079074620
C     -1.246977109     1.746614927     0.124814325
H     -1.096688140     2.800518886     0.245643942
C     -2.493096067     1.230660108     0.028769883
H     -3.349633655     1.874882195     0.041781355
C     -2.703673686    -0.159702417    -0.114026336
C     -4.141009880    -0.622122708    -0.263747695
C     -4.800023509    -0.980237749     1.070678311
H     -5.819256583    -1.309306812     0.906294675
H     -4.244473722    -1.771537927     1.560135685
H     -4.813579490    -0.119302960     1.730315215
H     -4.188439307    -1.488663260    -0.918976952
O     -4.912639481     0.359688086    -0.887699084
H     -2.638292081     3.883023255    -0.825508830
