46
VERBATIM publisher-SI Cartesian coordinates (angstrom); 2-HEAQ·5H2O first-ESIPT path point 17; CASSCF(12,10)/6-31G*; c5cp03442f1.pdf
C      0.931638497     1.140581954     0.235444553
H      1.038830477     2.146071195    -0.129059692
C     -0.379612878     0.593139533     0.306211748
C     -1.520048064     1.407691303    -0.073014591
O     -1.417507256     2.587538796    -0.410641485
C     -2.829184952     0.741757741    -0.055912408
C     -3.986183185     1.494829355    -0.407554729
H     -3.853926376     2.528952477    -0.665929414
C     -5.221027980     0.905696625    -0.411992457
H     -6.097908411     1.473345367    -0.675137103
C     -5.352205749    -0.469639496    -0.066521837
H     -6.329069438    -0.924528159    -0.070465686
C     -4.257228883    -1.198327733     0.264667185
H     -4.329572647    -2.237225855     0.528635654
C     -2.963954618    -0.600013984     0.277431230
C     -1.807494383    -1.418147423     0.628403587
O     -1.914950978    -2.654004591     0.828329673
C     -0.540532848    -0.749059905     0.692389657
C      0.612979997    -1.475496732     1.127521933
H      0.466261425    -2.469598692     1.510737534
C      1.853406484    -0.911540710     1.089564356
H      2.700287111    -1.469133571     1.452070415
C      2.033114273     0.427876767     0.598296519
C      3.415546486     0.979271509     0.345006523
C      4.454531806     0.777607229     1.442928301
H      5.414504834     1.171463912     1.120703627
H      4.153195197     1.314573798     2.336890124
H      4.585222489    -0.269364028     1.698108403
O      2.919771826     4.234353509    -0.705348351
H      2.028196756     4.553838558    -0.554728292
H      3.028081285     4.262427071    -1.648553636
O      0.157316014     4.926027433    -0.356566894
H     -0.356588926     4.117035849    -0.426459083
H     -0.084993112     5.294847116     0.484679701
O      2.125843791    -4.057650753    -0.866444215
H      1.137140291    -3.830963830    -0.894556756
H      2.298346208    -4.777128491    -1.469726715
O      3.981507576    -2.518076387    -0.952507300
H      2.883014481    -3.312420307    -0.879467933
H      4.705295913    -2.777954466    -0.389358986
O     -0.383655810    -3.805951277    -1.023586664
H     -0.780275373    -3.369978123    -1.770861114
H     -0.899964656    -3.485508772    -0.252391185
H      3.362340037     2.026653252     0.083021573
O      3.826491504     0.251789175    -0.820652184
H      3.910584971    -1.554967677    -0.886029499
