31
VERBATIM publisher-SI Cartesian coordinates (angstrom); isolated 2-HEAQ first-ESIPT transition state; CASSCF(12,10)/6-31G**/PCM water; c5cp03442f1.pdf
C     -1.625972050    -1.002122129    -0.091958700
H     -1.753966898    -2.060359340    -0.225279437
C     -0.314794929    -0.493771610     0.016299908
C      0.848422866    -1.401128685    -0.045131322
O      0.705740418    -2.602123318    -0.098627961
C      2.196127960    -0.783913752    -0.016647446
C      3.334526671    -1.613343092    -0.070072333
H      3.194188357    -2.675673468    -0.118474501
C      4.599842799    -1.068892354    -0.064339129
H      5.466158196    -1.702867230    -0.105871208
C      4.756193858     0.333375570    -0.004778298
H      5.743587359     0.758625313    -0.000221998
C      3.668256039     1.150112674     0.048371879
H      3.795425280     2.216060691     0.096506225
C      2.362159232     0.596846853     0.045732686
C      1.193181564     1.418462431     0.108365908
O      1.309664150     2.754503289     0.086464818
C     -0.121230356     0.886000579     0.132274728
C     -1.249144122     1.738849791     0.197701192
H     -1.115516505     2.796850666     0.310456194
C     -2.496090723     1.219438492     0.111917940
H     -3.347607991     1.871711662     0.140522262
C     -2.703921765    -0.166892465    -0.066755488
C     -4.131616725    -0.641028693    -0.268301397
C     -4.901049044    -0.844021853     1.036002993
H     -5.829610413    -1.371602362     0.850866745
H     -4.296802208    -1.422849919     1.722503680
H     -5.127820863     0.109705244     1.500200176
H     -4.142709005    -1.569310476    -0.833137862
O     -4.843638176     0.281270883    -1.045094094
H     -2.448804148     3.612671880    -1.292111102
