46
VERBATIM publisher-SI Cartesian coordinates (angstrom); 2-HEAQ·5H2O second-ESIPT triplet path point 7; CASSCF(12,10)/6-31G*; c5cp03442f1.pdf
C      0.784088687    -1.250118596    -0.682561841
H      0.842224502    -2.315148337    -0.578040238
C     -0.458329171    -0.643144290    -0.475716915
C     -1.613964585    -1.489755259    -0.127968518
O     -1.498570754    -2.677424230     0.118611834
C     -2.919525272    -0.827179051    -0.089851799
C     -4.081268150    -1.604181346     0.071344140
H     -3.977287133    -2.668732393     0.146098075
C     -5.320222594    -0.999720569     0.126988254
H     -6.209365469    -1.592546299     0.239083150
C     -5.412708753     0.403427851     0.044976849
H     -6.377013479     0.874695310     0.095078237
C     -4.279586775     1.175179822    -0.093809944
H     -4.343382972     2.242531709    -0.151939831
C     -3.005973069     0.565677329    -0.177135459
C     -1.830649523     1.363066765    -0.335877929
O     -1.989561589     2.682015552    -0.302387801
C     -0.568522414     0.749390387    -0.570630444
C      0.585401723     1.506611920    -0.913276523
H      0.518695936     2.561763800    -1.087057993
C      1.790757496     0.901482802    -1.069028834
H      2.656612536     1.493390135    -1.301607781
C      1.910746781    -0.497694055    -0.958022857
C      3.248009721    -1.165067154    -0.785413821
C      3.535910831    -2.477860213    -1.488199483
H      4.439367819    -2.894495077    -1.056300539
H      2.729666481    -3.180505235    -1.329375843
H      3.685701314    -2.353098416    -2.553387411
O      2.813860302    -2.087935766     1.817499082
H      2.030990907    -2.638547641     1.765199976
H      2.601075918    -1.349664663     2.367753435
O      0.612412295    -3.675043510     1.656309893
H     -0.144529272    -3.342696014     1.172373494
H      0.774519898    -4.547626996     1.327655636
O      2.615072550     3.748234153     0.444007156
H      0.888245111     3.905453306     0.828624568
H      3.175249076     4.498730018     0.577794361
O      4.192402289     1.577414338     1.077049865
H      3.125112861     2.970970847     0.684493592
H      5.097508760     1.803832170     1.234736440
O     -0.043785080     3.988501770     1.047264869
H     -0.127526520     3.698862021     1.945015554
H     -1.229981153     3.157753217     0.055668548
H      3.136526992    -1.373528382     0.271086782
O      4.336454131    -0.325010944    -0.842345922
H      4.216325080     0.941897942     0.364086849
