46
VERBATIM publisher-SI Cartesian coordinates (angstrom); 2-HEAQ·5H2O second-ESIPT triplet path point 4; CASSCF(12,10)/6-31G*; c5cp03442f1.pdf
C      0.785247850    -1.244753919    -0.693070132
H      0.849779264    -2.306212327    -0.578128298
C     -0.458804120    -0.638020733    -0.481283796
C     -1.610987047    -1.484879113    -0.132720794
O     -1.489025831    -2.672670350     0.103263450
C     -2.920229818    -0.827950094    -0.088155690
C     -4.077963534    -1.610103078     0.072603918
H     -3.970669428    -2.675011277     0.144525897
C     -5.319199429    -1.008589167     0.130084441
H     -6.206362071    -1.604573318     0.240807855
C     -5.417194642     0.394922749     0.050813281
H     -6.381393585     0.866310513     0.100386858
C     -4.287418154     1.171126747    -0.087530980
H     -4.352028426     2.238663402    -0.144753721
C     -3.013392589     0.564548647    -0.173495664
C     -1.841291733     1.362727324    -0.334536634
O     -1.997822231     2.682581316    -0.309822677
C     -0.576350728     0.749681958    -0.575504315
C      0.574254673     1.504534783    -0.924123958
H      0.504375413     2.563019601    -1.069072412
C      1.780452193     0.900204326    -1.089391268
H      2.643280841     1.500499955    -1.306152053
C      1.913849437    -0.499110455    -0.965260208
C      3.258943665    -1.166731957    -0.790045175
C      3.538537963    -2.476577566    -1.504203608
H      4.442406677    -2.892312940    -1.073854084
H      2.736200905    -3.184234691    -1.344239961
H      3.683973884    -2.341304627    -2.568413648
O      2.832711632    -2.109017749     1.884183650
H      2.038780206    -2.638328647     1.793227452
H      2.591981620    -1.347350333     2.390569123
O      0.609669887    -3.689063336     1.656629442
H     -0.145506034    -3.356864513     1.170832011
H      0.777393754    -4.559101067     1.323630481
O      2.613965464     3.760553320     0.443981884
H      0.878108456     3.914197368     0.840644347
H      3.175207293     4.509204938     0.584843505
O      4.201674093     1.592469092     1.097246629
H      3.119749215     2.984615232     0.695466564
H      5.109791916     1.810563791     1.251865294
O     -0.053724185     3.989350819     1.061856022
H     -0.132671356     3.699997514     1.960171947
H     -1.241191905     3.152342718     0.060547010
H      3.233203844    -1.388417599     0.269208991
O      4.340026850    -0.311914680    -0.887510459
H      4.215060129     0.969806163     0.374186753
