46
VERBATIM publisher-SI Cartesian coordinates (angstrom); 2-HEAQ·5H2O S0 minimum; CASSCF(12,10)/6-31G**; c5cp03442f1.pdf
C      0.691514488     1.272153325     0.099180076
H      0.645099399     2.324346612    -0.107845739
C     -0.493504583     0.523823655     0.107065928
C     -1.791601111     1.203687071    -0.150090012
O     -1.854219020     2.367743089    -0.439202486
C     -3.038358087     0.391138903    -0.017989105
C     -4.263006573     1.018311444    -0.125489304
H     -4.292659300     2.076426198    -0.300284767
C     -5.440378426     0.284729515    -0.008588672
H     -6.389473857     0.782876464    -0.086519756
C     -5.385529840    -1.089223206     0.205602854
H     -6.293096339    -1.658317496     0.294006080
C     -4.152512485    -1.730482197     0.301487950
H     -4.091434730    -2.789984814     0.458255904
C     -2.976812593    -0.992075524     0.197049682
C     -1.664312778    -1.689546812     0.290782534
O     -1.609372226    -2.892242020     0.312398782
C     -0.444979192    -0.848413230     0.358406352
C      0.787831606    -1.447357012     0.637341523
H      0.832096822    -2.496697489     0.851180097
C      1.933707295    -0.698400434     0.641408933
H      2.868267978    -1.180904562     0.851689620
C      1.907224027     0.676110636     0.352507266
C      3.204173688     1.475400136     0.273127914
C      4.017295600     1.414341347     1.564664675
H      4.892620965     2.045408855     1.461314199
H      3.435210946     1.767439539     2.409824153
H      4.355754046     0.404599981     1.776041156
O      2.085172704     4.843070829    -0.272490839
H      1.150182420     5.007518226    -0.346842961
H      2.455824129     5.103981481    -1.101549760
O     -0.765489345     5.075249437    -0.634666538
H     -1.140035700     4.201889617    -0.634263040
H     -1.304710003     5.592759725    -0.056200229
O      3.192102758    -4.126084240    -0.324103544
H      2.281795343    -4.236505159    -0.591573798
H      3.503577968    -4.995751615    -0.124537123
O      4.863483513    -1.779205631    -0.453245941
H      4.308775050    -2.556318932    -0.455160989
H      5.754190325    -2.093538123    -0.470663699
O      0.444729264    -4.551057758    -1.001000447
H      0.131206396    -4.547273278    -1.892945714
H     -0.219865511    -4.101221503    -0.489090271
H      2.942098756     2.506834916     0.087653405
O      3.963533933     1.074364867    -0.834706380
H      4.270535712     0.162536974    -0.715159197
