31
VERBATIM publisher-SI Cartesian coordinates (angstrom); isolated 2-HEAQ TRCT2 minimum; CASSCF(12,10)/6-31G** gas phase; c5cp03442f1.pdf
C      1.554951976    -0.939299153    -0.137893582
H      1.692075782    -2.005612900    -0.153519979
C      0.308356293    -0.458560168    -0.116223506
C     -0.844268100    -1.392154162    -0.120139433
O     -0.698954551    -2.579626369    -0.211619626
C     -2.203802707    -0.781862264    -0.036405087
C     -3.319220828    -1.636649810    -0.026971512
H     -3.152228850    -2.695348226    -0.080403775
C     -4.582844890    -1.117946921     0.048433041
H     -5.435448770    -1.773419760     0.055484626
C     -4.772644269     0.271608002     0.116413086
H     -5.769552076     0.670877311     0.175360183
C     -3.696806263     1.116289728     0.107996746
H     -3.822018173     2.180785730     0.159493518
C     -2.393242490     0.598781314     0.032161435
C     -1.249788485     1.560317193     0.023669328
O     -1.429295208     2.753145362     0.074623332
C      0.082452849     0.998346735    -0.072946941
C      1.259373615     1.886757832    -0.109171067
H      1.080074049     2.943595375    -0.109010990
C      2.509776824     1.370907600    -0.139938563
H      3.354257384     2.034037285    -0.172225103
C      2.737148185    -0.076418839    -0.151924517
C      4.109728239    -0.684045326     0.030747980
C      5.196958183    -0.044633533    -0.826622568
H      6.128417808    -0.578584883    -0.680028088
H      4.936888981    -0.081016220    -1.879551576
H      5.365518684     0.993894158    -0.557971418
H      4.045546178    -1.731943006    -0.234867949
O      4.475315353    -0.697628809     1.394308575
H      4.623175531     0.206984287     1.691633289
