46
VERBATIM publisher-SI Cartesian coordinates (angstrom); 2-HEAQ·5H2O first-ESIPT path point 23; CASSCF(12,10)/6-31G*; c5cp03442f1.pdf
C      1.055721831     1.064853784     0.233628367
H      1.233532673     2.060832239    -0.118914069
C     -0.283879787     0.601046732     0.285830735
C     -1.370210139     1.494664971    -0.090136865
O     -1.176259920     2.650112763    -0.451109561
C     -2.724280865     0.937353950    -0.038386270
C     -3.825822010     1.774166885    -0.365811327
H     -3.628785306     2.794424060    -0.627579547
C     -5.101637522     1.278868145    -0.348584185
H     -5.933571305     1.912387289    -0.595997169
C     -5.324714144    -0.082334652    -0.005402522
H     -6.327783590    -0.469203586     0.007342370
C     -4.282757542    -0.891205513     0.303066497
H     -4.435172449    -1.919783314     0.563204976
C     -2.950334061    -0.391787922     0.297110094
C     -1.852852822    -1.285602534     0.614408347
O     -2.047231288    -2.527462896     0.777481497
C     -0.538085763    -0.721879510     0.667306291
C      0.561867629    -1.527523671     1.095011670
H      0.357724910    -2.507372946     1.481314332
C      1.839852418    -1.045357085     1.056774872
H      2.648821956    -1.671067318     1.386717173
C      2.104657577     0.273534743     0.577557549
C      3.520509233     0.768017860     0.365082718
C      4.456276058     0.632776173     1.562584172
H      5.448902413     0.986145373     1.307148293
H      4.079155585     1.243653945     2.372725330
H      4.534688644    -0.390635451     1.907724597
O      3.227381169     4.090188026    -0.748964675
H      2.342798251     4.427769042    -0.604482860
H      3.374225839     4.170111835    -1.679838193
O      0.531743526     4.841155070    -0.434531952
H     -0.024288929     4.064354778    -0.524267739
H      0.237172936     5.270466253     0.355173184
O      1.404970967    -4.279643228    -0.739146262
H      0.320642680    -3.915336485    -0.849364511
H      1.569286906    -5.002841225    -1.336533056
O      3.719746891    -2.839483990    -1.159662836
H      2.130109907    -3.623811712    -0.835027152
H      4.518361361    -3.206695815    -0.806931825
O     -0.847403576    -3.781236043    -1.015878610
H     -1.064654332    -3.213176284    -1.746693833
H     -1.333490879    -3.389834616    -0.213777687
H      3.485957123     1.802581195     0.060706339
O      4.058537887    -0.005247959    -0.693905015
H      3.788619839    -1.887575305    -1.037150540
