46
VERBATIM publisher-SI Cartesian coordinates (angstrom); 2-HEAQ·5H2O first-ESIPT triplet intermediate; CASSCF(12,10)/6-31G**; c5cp03442f1.pdf
C      1.018802997     1.096753023     0.220216528
H      1.191286337     2.110280376    -0.084708215
C     -0.312549336     0.614906339     0.243699307
C     -1.421467549     1.508979269    -0.122142236
O     -1.244003091     2.662939945    -0.467604205
C     -2.781349551     0.948914991    -0.060122871
C     -3.884847398     1.789853752    -0.351492761
H     -3.689933124     2.815155939    -0.599651810
C     -5.160495410     1.291869194    -0.315292018
H     -6.001301019     1.925586800    -0.532985801
C     -5.373427344    -0.073992524     0.009402837
H     -6.377742367    -0.458829399     0.037641942
C     -4.326668337    -0.890678908     0.283293045
H     -4.474292083    -1.923451761     0.531838206
C     -2.995758186    -0.385648257     0.255880119
C     -1.883299807    -1.250681948     0.537561761
O     -2.104573882    -2.532876221     0.764834975
C     -0.561642961    -0.712220718     0.591065560
C      0.533003507    -1.530261973     0.986817672
H      0.343383480    -2.536446326     1.302956357
C      1.806723610    -1.033694944     0.977568648
H      2.620341901    -1.672021367     1.268574224
C      2.069663202     0.303821399     0.567246244
C      3.491529058     0.812495017     0.467621983
C      4.304482787     0.721725217     1.760099993
H      5.313691329     1.078778544     1.590157170
H      3.843928445     1.345271016     2.517064256
H      4.354268407    -0.293249867     2.136223778
O      3.291470461     4.021942713    -0.818266230
H      2.398061188     4.331135180    -0.686608137
H      3.438728381     4.064395524    -1.748489241
O      0.603048821     4.758533419    -0.509920919
H      0.000808954     4.022436155    -0.594995384
H      0.345189406     5.205746833     0.279514598
O      1.648269622    -4.223919964    -0.793058401
H     -0.033024127    -4.122767061    -0.838907450
H      2.043513559    -5.037471870    -1.062103184
O      4.037466001    -2.726915231    -1.235567095
H      2.319350534    -3.552467252    -0.892795591
H      4.846551482    -3.091410011    -0.915609538
O     -0.999697401    -4.045556973    -0.871410580
H     -1.234315104    -3.841258026    -1.763440689
H     -1.648266573    -3.158347277     0.101368479
H      3.502581739     1.837439709     0.121392906
O      4.227258692     0.019282226    -0.494785890
H      4.087079792    -1.788778733    -1.068752990
