46
VERBATIM publisher-SI Cartesian coordinates (angstrom); 2-HEAQ·5H2O second-ESIPT S0 path point 20; CASSCF(12,10)/6-31G*; c5cp03442f1.pdf
C      0.793107085    -1.259166188    -0.654785296
H      0.820248274    -2.331008298    -0.606150578
C     -0.460681482    -0.676309707    -0.443267471
C     -1.576986964    -1.509301273    -0.090839806
O     -1.440671392    -2.721032976     0.205268635
C     -2.882848166    -0.851762642    -0.070565960
C     -4.073073983    -1.620766269     0.085778050
H     -3.980752752    -2.686534678     0.161770195
C     -5.306955644    -1.017859198     0.119606152
H     -6.202894320    -1.604584817     0.224493979
C     -5.401249261     0.393723381     0.023005090
H     -6.366482851     0.870576168     0.056377775
C     -4.269277143     1.154855081    -0.115113185
H     -4.331662855     2.222465403    -0.191046388
C     -2.979993964     0.541289868    -0.181293532
C     -1.812787092     1.350874061    -0.372535934
O     -2.005986160     2.698093576    -0.422456162
C     -0.608336233     0.760573532    -0.564676412
C      0.592000854     1.512651743    -0.905909476
H      0.506086733     2.559926730    -1.111417895
C      1.798447818     0.917095891    -1.009375312
H      2.654158857     1.496754750    -1.294066597
C      1.953563708    -0.527117647    -0.865397407
C      3.293551043    -1.081572520    -1.050147694
C      3.525402529    -2.516385438    -1.471065915
H      4.422058436    -2.890168465    -0.990954462
H      2.695897078    -3.182320477    -1.278071882
H      3.699663958    -2.501610137    -2.540506062
O      2.682539395    -2.020956405     1.746820063
H      1.868171625    -2.682632572     1.730576322
H      2.585480360    -1.348641340     2.424094624
O      0.689250239    -3.552564023     1.643420469
H     -0.134711049    -3.238911941     1.190208842
H      0.768970834    -4.477830210     1.438022447
O      2.624137563     3.771338286     0.427459361
H      0.853187547     3.928520190     0.818592108
H      3.189849601     4.515390814     0.572520729
O      4.198521573     1.526893342     1.154753924
H      3.108626126     2.990105795     0.693419622
H      5.096716809     1.806848289     1.268614981
O     -0.066472358     4.045434082     1.062097390
H     -0.148826653     3.708750349     1.942663303
H     -1.305619770     3.166469857     0.031598344
H      2.692856325    -1.539607407     0.894586692
O      4.293365773    -0.393907267    -0.868963823
H      4.208201675     0.966717006     0.376979773
