46
VERBATIM publisher-SI Cartesian coordinates (angstrom); 2-HEAQ·5H2O second-ESIPT S0 path point 35; CASSCF(12,10)/6-31G*; c5cp03442f1.pdf
C      0.815571040    -1.254698223    -0.678445223
H      0.836585473    -2.325073951    -0.660586798
C     -0.462673698    -0.660945972    -0.427188856
C     -1.533486658    -1.477748085    -0.038130990
O     -1.303267159    -2.742365587     0.332140721
C     -2.833368357    -0.871340025    -0.050847195
C     -4.053441904    -1.629738924     0.091509772
H     -3.972838092    -2.695837794     0.162324639
C     -5.281044236    -1.024899235     0.097452934
H     -6.181911277    -1.608547222     0.184195127
C     -5.384917211     0.397594565    -0.003601542
H     -6.352463729     0.870375832     0.022692879
C     -4.259576192     1.152575920    -0.140514070
H     -4.317769031     2.220443766    -0.222927977
C     -2.954518811     0.538325977    -0.202361024
C     -1.823857311     1.348928863    -0.408280952
O     -2.000752634     2.694085318    -0.505593810
C     -0.597706777     0.752557952    -0.582509336
C      0.591283994     1.512168112    -0.911700099
H      0.505120878     2.565307864    -1.081669751
C      1.798935349     0.916939287    -1.034155836
H      2.661237328     1.500510686    -1.285279350
C      1.930454379    -0.523974408    -0.932284628
C      3.288301715    -1.107336171    -1.110324080
C      3.497899198    -2.552658914    -1.499418740
H      4.380572332    -2.925305586    -0.995535671
H      2.656937445    -3.195101574    -1.283440284
H      3.677449330    -2.585220593    -2.568053649
O      2.633605676    -1.999571013     1.800179889
H      1.429883918    -2.940818337     1.718607295
H      2.551199882    -1.402317381     2.531970984
O      0.610099441    -3.479458689     1.667225407
H     -0.387347700    -3.029646374     0.968508208
H      0.790937432    -4.389726971     1.479931888
O      2.643778209     3.788624972     0.460677132
H      0.821492999     3.971829310     0.852761829
H      3.228087848     4.518772595     0.607837055
O      4.212979833     1.502951712     1.201863780
H      3.109464555     3.001719098     0.742767665
H      5.117324691     1.747800639     1.345104230
O     -0.098437504     4.054789740     1.107368128
H     -0.152985392     3.711134081     1.988127042
H     -1.357916934     3.175593640     0.017058134
H      2.528348273    -1.467173028     1.019369999
O      4.274360293    -0.414903761    -0.936310254
H      4.222533340     0.953555511     0.420627784
