46
VERBATIM publisher-SI Cartesian coordinates (angstrom); 2-HEAQ·5H2O first-ESIPT path point 10; CASSCF(12,10)/6-31G*; c5cp03442f1.pdf
C      0.896829302     1.143391610     0.275403866
H      1.017067465     2.124225816    -0.133019998
C     -0.408433437     0.593671028     0.333966650
C     -1.545821742     1.386138830    -0.085272771
O     -1.450772904     2.559296818    -0.437972262
C     -2.849694714     0.713384125    -0.075901688
C     -4.007967079     1.455209410    -0.435761105
H     -3.892428100     2.488463686    -0.689766870
C     -5.236853893     0.853008404    -0.457490280
H     -6.110292693     1.415404930    -0.728417754
C     -5.354736486    -0.522368717    -0.124062287
H     -6.320045590    -0.993179224    -0.142439451
C     -4.257221713    -1.240180462     0.213975177
H     -4.327928699    -2.278587386     0.466027870
C     -2.975728891    -0.628316813     0.251014513
C     -1.813938910    -1.430113761     0.615357982
O     -1.892634250    -2.670644988     0.751161829
C     -0.563781134    -0.743159854     0.734123645
C      0.576641797    -1.445345022     1.234470613
H      0.436572394    -2.426479076     1.639258490
C      1.812685861    -0.869862038     1.217268966
H      2.646626686    -1.412660325     1.621077436
C      1.990946128     0.439150116     0.661727196
C      3.372367443     0.962893314     0.338389981
C      4.477993577     0.691689969     1.343263137
H      5.427213925     1.067826787     0.980223398
H      4.240429559     1.216153952     2.258269710
H      4.591697612    -0.358751056     1.576483108
O      2.837602257     4.094248799    -0.608275992
H      1.942709553     4.407225238    -0.465430239
H      2.954817933     4.094449024    -1.545467776
O      0.161483549     4.789477408    -0.287646237
H     -0.376787173     4.001863813    -0.401660781
H     -0.031344250     5.104523808     0.581738510
O      2.318819668    -3.861318273    -0.773882594
H      1.289199865    -3.726208695    -0.819788853
H      2.509081501    -4.655544610    -1.254968093
O      4.046809853    -2.214504677    -1.134660794
H      3.173902336    -2.927576529    -0.979087334
H      4.785822026    -2.493869518    -0.608455214
O     -0.243159980    -3.830656854    -0.954052191
H     -0.608203119    -3.455608294    -1.742383552
H     -0.803775669    -3.486362446    -0.225602655
H      3.343409816     2.013159327     0.104099160
O      3.666871267     0.291293817    -0.898717523
H      3.872382199    -1.131146369    -0.981164545
