46
VERBATIM publisher-SI Cartesian coordinates (angstrom); 2-HEAQ·5H2O second-ESIPT S0 path point 32; CASSCF(12,10)/6-31G*; c5cp03442f1.pdf
C      0.812674673    -1.256268250    -0.673629017
H      0.833432598    -2.327519406    -0.654456428
C     -0.461728929    -0.664327145    -0.427918769
C     -1.542059975    -1.486037651    -0.046739576
O     -1.333960916    -2.733302813     0.307174462
C     -2.840920034    -0.865178158    -0.053279789
C     -4.054506186    -1.626677216     0.093271629
H     -3.970878786    -2.692779218     0.166676357
C     -5.283240317    -1.022993345     0.102283920
H     -6.183370325    -1.606981403     0.191450516
C     -5.384507892     0.397712550    -0.000121791
H     -6.351520788     0.871585918     0.025839524
C     -4.258302086     1.153858804    -0.137886107
H     -4.316620362     2.221384622    -0.221493261
C     -2.955906731     0.540140447    -0.199207005
C     -1.819326315     1.349305225    -0.406244133
O     -1.998185924     2.696260527    -0.505024307
C     -0.597516607     0.752950422    -0.579517844
C      0.594234014     1.510081217    -0.910508153
H      0.508399190     2.562467082    -1.085957426
C      1.801470912     0.913996728    -1.029570404
H      2.663129528     1.496874514    -1.285513278
C      1.935588325    -0.527813395    -0.922213247
C      3.290007069    -1.108087206    -1.103145415
C      3.500922732    -2.554103378    -1.492519697
H      4.384554443    -2.926592677    -0.989879502
H      2.660255561    -3.197742798    -1.277519796
H      3.680252683    -2.586402097    -2.561221753
O      2.614907172    -2.008613652     1.798539857
H      1.460519290    -2.909395792     1.722038914
H      2.549771776    -1.405158317     2.528442636
O      0.621057173    -3.467771232     1.659945044
H     -0.280210261    -3.079798841     1.047464893
H      0.787445523    -4.387781874     1.487246081
O      2.646401579     3.787487627     0.454372668
H      0.825989678     3.969521754     0.846637698
H      3.229787036     4.518317048     0.601023327
O      4.215459648     1.501204575     1.200435293
H      3.112020338     3.000839367     0.736741929
H      5.118937671     1.751903789     1.338875184
O     -0.093095433     4.057160761     1.102120854
H     -0.149492572     3.712594975     1.982256995
H     -1.353750589     3.175861604     0.015818964
H      2.531665347    -1.476331392     1.011043163
O      4.279217537    -0.417245598    -0.932659799
H      4.223980454     0.954333687     0.416925070
