46
VERBATIM publisher-SI Cartesian coordinates (angstrom); 2-HEAQ·5H2O second-ESIPT S0 path point 8; CASSCF(12,10)/6-31G*; c5cp03442f1.pdf
C      0.761430725    -1.267775262    -0.655677017
H      0.826501948    -2.333595493    -0.561743388
C     -0.444351752    -0.678135734    -0.471323792
C     -1.610825780    -1.512272122    -0.120495546
O     -1.506058295    -2.695199066     0.156984434
C     -2.929754326    -0.834057424    -0.094802724
C     -4.093379028    -1.596215858     0.063804314
H     -3.993203589    -2.663972603     0.144895650
C     -5.327074592    -0.987034634     0.113024991
H     -6.220896982    -1.577652569     0.225458595
C     -5.419788669     0.408693962     0.026875082
H     -6.383701485     0.889093546     0.076173890
C     -4.275399830     1.183602810    -0.112958291
H     -4.341814961     2.253947353    -0.170965528
C     -3.010471436     0.569968327    -0.185459646
C     -1.788867794     1.370384159    -0.345597501
O     -1.977357253     2.698240809    -0.290155935
C     -0.598299318     0.777587433    -0.564907964
C      0.609202285     1.517066102    -0.911668560
H      0.525184346     2.566301051    -1.108267523
C      1.813327118     0.913742421    -1.033137096
H      2.681806246     1.481707272    -1.298840760
C      1.977868550    -0.525996632    -0.885101634
C      3.296957632    -1.083260199    -0.900516953
C      3.534332956    -2.491495152    -1.449935481
H      4.440733588    -2.911724262    -1.030828222
H      2.713674385    -3.185944019    -1.305446009
H      3.687737969    -2.383192546    -2.522007608
O      2.779915507    -2.038317848     1.700228112
H      2.005627918    -2.660522441     1.720067756
H      2.595357787    -1.347250684     2.339316619
O      0.608828299    -3.646177198     1.664746349
H     -0.154097882    -3.314196369     1.171460213
H      0.759429361    -4.525506148     1.340466531
O      2.613152647     3.720824888     0.450935438
H      0.902111084     3.887137116     0.812248638
H      3.164042642     4.478493830     0.577503975
O      4.169871880     1.551662610     1.072697821
H      3.132100376     2.944711532     0.686578138
H      5.071906222     1.795348633     1.227235088
O     -0.030608328     3.982832895     1.026990469
H     -0.129723884     3.692946354     1.922481472
H     -1.208975774     3.169104043     0.056308455
H      2.927000112    -1.536033344     0.659411109
O      4.320431570    -0.350167244    -0.800292523
H      4.204351741     0.902387685     0.348686521
