46
VERBATIM publisher-SI Cartesian coordinates (angstrom); 2-HEAQ·5H2O SRCT1-TRCT2 crossing; CASSCF(12,10)/6-31G*; c5cp03442f1.pdf
C      0.726367811     1.326292846     0.062270203
H      0.646020432     2.374465683    -0.169165848
C     -0.494626941     0.522304040     0.140025807
C     -1.827468660     1.158932254    -0.040860637
O     -1.902392327     2.382041395    -0.178039330
C     -2.973411311     0.301054131    -0.031285218
C     -4.266860306     0.870411208    -0.204553123
H     -4.339931799     1.932756231    -0.331030787
C     -5.372473449     0.089276287    -0.213957399
H     -6.342355914     0.533381806    -0.346024661
C     -5.258485405    -1.323695644    -0.051617941
H     -6.143983504    -1.933382031    -0.060945605
C     -4.029393450    -1.899438279     0.115618859
H     -3.920497720    -2.959184429     0.240862152
C     -2.852603262    -1.094526054     0.133696536
C     -1.578469036    -1.709459667     0.309680432
O     -1.401412462    -2.932172946     0.401684547
C     -0.405272102    -0.820800401     0.361752799
C      0.884438220    -1.368953338     0.628774054
H      0.960530734    -2.411221964     0.864790779
C      2.052890860    -0.564506355     0.576916953
H      3.008401141    -1.009448566     0.757976314
C      1.980851019     0.781191151     0.244573724
C      3.256488405     1.582347292     0.042452212
C      4.117290235     1.654358610     1.299373060
H      4.994860528     2.253159313     1.089088372
H      3.573457518     2.114836973     2.117067694
H      4.448018634     0.669850210     1.612659110
O      1.553928558     4.817190161    -0.452940363
H      0.638769434     5.041553610    -0.262119113
H      1.777234245     5.269084000    -1.252511202
O     -1.113417952     4.995114491    -0.070004705
H     -1.375598116     4.074563924    -0.151085358
H     -1.688028470     5.404935404     0.557961655
O      3.180110395    -3.943863695    -0.177013792
H      2.263419726    -4.139910425    -0.413801042
H      3.534022737    -4.695270486     0.275096575
O      4.758360177    -1.713464909    -0.483012048
H      4.163263292    -2.468386982    -0.426737444
H      5.652978720    -2.009554540    -0.412844605
O      0.574867196    -4.548449729    -0.629636787
H      0.228227941    -4.808295994    -1.470373285
H     -0.123115197    -4.078182454    -0.160787699
H      2.979380521     2.578372801    -0.251650447
O      3.976914942     1.076854746    -1.055543932
H      4.293681226     0.171153163    -0.887536177
