31
VERBATIM publisher-SI Cartesian coordinates (angstrom); isolated 2-HEAQ first-ESIPT intermediate; CASSCF(12,10)/6-31G** gas phase; c5cp03442f1.pdf
C     -1.672607044    -0.895463792    -0.179474366
H     -1.800270950    -1.959129224    -0.242712867
C     -0.367678254    -0.406429257    -0.109440113
C      0.754619531    -1.374299552    -0.120218149
O      0.553904781    -2.557548491    -0.193667842
C      2.123201202    -0.821205873    -0.042313979
C      3.217117908    -1.703730181    -0.046751692
H      3.021474010    -2.755931480    -0.109983848
C      4.503343126    -1.218043480     0.029189415
H      5.339766168    -1.891622474     0.025962170
C      4.713230200     0.172448505     0.111233323
H      5.715208589     0.557299331     0.171107881
C      3.662508301     1.037681601     0.116600871
H      3.829030660     2.094144275     0.179407968
C      2.335582284     0.549848992     0.039530290
C      1.214898829     1.450553586     0.042640739
O      1.524042982     2.759498267     0.122464834
C     -0.130695541     0.980343172    -0.028994831
C     -1.260527735     1.838272824    -0.026534034
H     -1.149534236     2.905662727     0.029471000
C     -2.523079901     1.334803604    -0.091009457
H     -3.355712594     2.013522205    -0.085641288
C     -2.754789182    -0.052994325    -0.170745406
C     -4.169293939    -0.607024599    -0.178675917
C     -4.693219680    -0.901794223     1.224080038
H     -5.707083337    -1.282083024     1.167515107
H     -4.070335433    -1.638535226     1.715780002
H     -4.696570992     0.002326664     1.822813477
H     -4.181575317    -1.514231697    -0.776140588
O     -5.003191916     0.280285917    -0.855646946
H      0.741896062     3.312890402     0.102520235
