31
VERBATIM publisher-SI Cartesian coordinates (angstrom); isolated 2-HEAQ TRCT2 minimum; CASSCF(12,10)/6-31G**/PCM water; c5cp03442f1.pdf
C      1.554791704    -0.935121282    -0.152741112
H      1.699169355    -1.999497214    -0.183919579
C      0.305522793    -0.454256291    -0.144281569
C     -0.842288892    -1.385105590    -0.181677150
O     -0.694048485    -2.581172836    -0.193030257
C     -2.199801704    -0.780921054    -0.060445724
C     -3.314627844    -1.637163572    -0.024757430
H     -3.154667352    -2.696308100    -0.081902811
C     -4.578598047    -1.123243519     0.079912486
H     -5.428458074    -1.780758840     0.107083232
C     -4.770329368     0.265676028     0.151531366
H     -5.766263451     0.661907275     0.232978193
C     -3.695251725     1.112455924     0.118158082
H     -3.829748230     2.175167085     0.172269354
C     -2.390725426     0.600505924     0.012130967
C     -1.249870782     1.562034580    -0.018470730
O     -1.433267699     2.758273195     0.066983189
C      0.081005421     1.001896720    -0.090484595
C      1.261073587     1.887179216    -0.092957502
H      1.091550253     2.945011453    -0.078996042
C      2.511772177     1.371406059    -0.109845007
H      3.357723653     2.032634336    -0.113172100
C      2.734694014    -0.075008351    -0.135009503
C      4.105225941    -0.689684779     0.034545275
C      5.185022574    -0.039040028    -0.820754315
H      6.115227377    -0.580682266    -0.694020735
H      4.910242097    -0.061917269    -1.869709027
H      5.358532169     0.994086101    -0.536676469
H      4.033837020    -1.733337934    -0.244299087
O      4.476670544    -0.707438956     1.401158213
H      4.632333731     0.196744264     1.700354649
