46
VERBATIM publisher-SI Cartesian coordinates (angstrom); 2-HEAQ·5H2O first-ESIPT path point 7; CASSCF(12,10)/6-31G*; c5cp03442f1.pdf
C      0.911193443     1.107571348     0.243439478
H      1.036810306     2.097103159    -0.147396930
C     -0.402777942     0.579885082     0.313153743
C     -1.524453634     1.395341778    -0.100855618
O     -1.414147467     2.567270276    -0.446657323
C     -2.841885814     0.738582524    -0.094631066
C     -3.987026482     1.499354090    -0.466054528
H     -3.849990953     2.528041848    -0.731712205
C     -5.225665562     0.919871680    -0.478876978
H     -6.091432710     1.492581944    -0.755900595
C     -5.368720630    -0.450755136    -0.125218421
H     -6.344735201    -0.901154945    -0.136005960
C     -4.284413465    -1.183440347     0.221724155
H     -4.370367704    -2.217540747     0.489325319
C     -2.990302226    -0.592826614     0.245988486
C     -1.840704801    -1.420375529     0.623905046
O     -1.957189768    -2.643460788     0.821014988
C     -0.576880689    -0.757060467     0.714483485
C      0.562450496    -1.485905870     1.191671091
H      0.407879813    -2.470040883     1.585765263
C      1.807078746    -0.935463761     1.166779286
H      2.636224278    -1.496931210     1.554518035
C      1.999119107     0.390204762     0.637167815
C      3.371266728     0.925838921     0.354487965
C      4.495827994     0.578020261     1.314220202
H      5.439110624     0.970874773     0.954115550
H      4.281005357     1.045042478     2.266863760
H      4.600022396    -0.486605676     1.475944654
O      2.916268757     4.130908956    -0.451833822
H      2.017247264     4.446371681    -0.357750030
H      3.119167009     4.223276501    -1.370404199
O      0.196238630     4.829881864    -0.290838523
H     -0.333799190     4.039067360    -0.404286650
H     -0.065200758     5.195103200     0.540950824
O      2.329605322    -3.863847766    -0.839150856
H      1.353194614    -3.796087916    -0.825272272
H      2.536793561    -4.664991635    -1.300697183
O      4.026655397    -2.131985391    -1.119489674
H      3.225080703    -2.827113673    -1.016022879
H      4.767040192    -2.451189214    -0.619257118
O     -0.315002972    -3.985107442    -0.868470350
H     -0.754347603    -3.750445130    -1.673040753
H     -0.849824339    -3.588740109    -0.164624100
H      3.361393286     1.983251547     0.155847649
O      3.645933157     0.307564128    -0.944924804
H      3.827208941    -0.912720368    -0.966462160
