46
VERBATIM publisher-SI Cartesian coordinates (angstrom); 2-HEAQ·5H2O first-ESIPT path point 26; CASSCF(12,10)/6-31G*; c5cp03442f1.pdf
C      1.114966642     1.035238485     0.241949589
H      1.324960262     2.043064652    -0.072461812
C     -0.249664542     0.621269024     0.272487070
C     -1.303136251     1.565921598    -0.094395690
O     -1.074312092     2.716054566    -0.451203207
C     -2.685084150     1.055975079    -0.034628945
C     -3.760426767     1.951748339    -0.326593851
H     -3.510599468     2.969793702    -0.566721570
C     -5.051098878     1.508737588    -0.298731641
H     -5.872048205     2.173148856    -0.516313700
C     -5.328859825     0.140692021     0.019761287
H     -6.354953243    -0.191401845     0.039001166
C     -4.318571740    -0.717177188     0.291995171
H     -4.497171379    -1.749719303     0.533249030
C     -2.957595585    -0.266578833     0.267855937
C     -1.887908206    -1.208526577     0.542916871
O     -2.137682386    -2.458534130     0.715059002
C     -0.557080951    -0.699570296     0.612372496
C      0.517010708    -1.571332049     0.995216529
H      0.268444121    -2.567572484     1.320931677
C      1.808269464    -1.141230116     0.990199199
H      2.596631623    -1.812575405     1.285545023
C      2.135523703     0.199891247     0.577701279
C      3.560495739     0.647149178     0.415488490
C      4.496173234     0.469476932     1.617246383
H      5.500578054     0.774104113     1.334327493
H      4.169895698     1.098911484     2.441246883
H      4.524475412    -0.561928526     1.954156821
O      3.439541176     3.902699732    -0.780357459
H      2.555252078     4.254503165    -0.629671940
H      3.564979606     3.948647891    -1.722529515
O      0.820418023     4.718519973    -0.440459660
H      0.191854947     3.995869494    -0.549966607
H      0.561564315     5.144597444     0.370752945
O      1.169245448    -4.205274859    -0.762400829
H     -0.201105345    -4.015975351    -0.807780143
H      1.424259171    -5.010438099    -1.198968916
O      3.632863389    -2.848737818    -1.221758733
H      1.894185687    -3.530857590    -0.858565893
H      4.415109598    -3.264504228    -0.872619597
O     -1.210073970    -3.914761338    -0.842929155
H     -1.396921890    -3.485315755    -1.678807885
H     -1.655020531    -3.280213130    -0.048663013
H      3.600271611     1.679545674     0.095426095
O      4.101654815    -0.190777898    -0.630852000
H      3.764047006    -1.915297171    -1.077391316
