46
VERBATIM publisher-SI Cartesian coordinates (angstrom); 2-HEAQ·5H2O first-ESIPT path point 4; CASSCF(12,10)/6-31G*; c5cp03442f1.pdf
C      0.763560605     1.201340985     0.225141308
H      0.844702544     2.215740740    -0.121102074
C     -0.458352276     0.626276723     0.317233298
C     -1.670949862     1.357773892    -0.052961034
O     -1.687309715     2.536854967    -0.333193491
C     -2.940817792     0.573703329    -0.090983760
C     -4.136903063     1.256237647    -0.421361490
H     -4.087211996     2.308123917    -0.626576153
C     -5.326732426     0.573046609    -0.476130943
H     -6.236849084     1.089285390    -0.725029876
C     -5.357151281    -0.815376165    -0.206737200
H     -6.292775975    -1.344999982    -0.250239043
C     -4.208805249    -1.478382732     0.106079724
H     -4.209302882    -2.531462090     0.313216810
C     -2.980089862    -0.781377591     0.167951226
C     -1.753334663    -1.546587287     0.517915622
O     -1.784578304    -2.759951856     0.666917076
C     -0.542483977    -0.793344955     0.691671299
C      0.672130689    -1.460402379     1.186424632
H      0.573399147    -2.453817103     1.578480038
C      1.867379790    -0.837235181     1.118166974
H      2.753211498    -1.338503347     1.457364844
C      1.987795856     0.520599743     0.570613320
C      3.324861836     1.090939804     0.138015306
C      4.440511196     0.890581206     1.162688476
H      5.345485410     1.350046433     0.779635153
H      4.196352846     1.357954495     2.112879092
H      4.656754632    -0.158272702     1.348684262
O      2.487087672     4.356183034    -0.443101035
H      1.586608089     4.638204551    -0.280606106
H      2.625122346     4.460616624    -1.375075289
O     -0.253954858     4.942971826    -0.080311963
H     -0.723075662     4.120472485    -0.223768873
H     -0.472236434     5.219917972     0.799870483
O      2.770462803    -3.883716208    -0.416778564
H      1.815609957    -3.908574420    -0.557288663
H      3.103116365    -4.713053524    -0.736089760
O      4.366105044    -1.812618682    -1.066910437
H      3.709650866    -2.574101901    -0.839455990
H      5.175350960    -1.993090666    -0.603765354
O      0.101992520    -4.171974470    -0.822756696
H     -0.221408103    -3.971861945    -1.691898153
H     -0.512758803    -3.762022543    -0.210620982
H      3.201957007     2.158350171     0.000150667
O      3.640767181     0.549023317    -1.109317426
H      3.960001786    -0.489889943    -1.027505258
