46
VERBATIM publisher-SI Cartesian coordinates (angstrom); 2-HEAQ·5H2O first-ESIPT path point 32; CASSCF(12,10)/6-31G*; c5cp03442f1.pdf
C      1.097498877     1.052211136     0.234844229
H      1.304519557     2.060162015    -0.075613097
C     -0.259657848     0.624745157     0.257138825
C     -1.325268925     1.557154761    -0.121071357
O     -1.104519344     2.709127726    -0.469378031
C     -2.704582628     1.044494166    -0.050589784
C     -3.783474728     1.931212854    -0.335986612
H     -3.542848651     2.949504798    -0.581241781
C     -5.073637241     1.480529975    -0.298241898
H     -5.897804903     2.140633930    -0.511926607
C     -5.340523209     0.115316837     0.024117516
H     -6.363361552    -0.223478059     0.052307474
C     -4.323595410    -0.738849367     0.292293542
H     -4.498540990    -1.770198151     0.538096653
C     -2.968488915    -0.281768768     0.257899901
C     -1.891298739    -1.202983599     0.528895866
O     -2.144899893    -2.466161506     0.727331184
C     -0.558307483    -0.696778929     0.597691637
C      0.516593253    -1.561356042     0.980281534
H      0.279389683    -2.560052108     1.299010166
C      1.805650571    -1.118145950     0.979150264
H      2.600708240    -1.781808331     1.270284911
C      2.120358848     0.221110045     0.577307999
C      3.550592039     0.667368744     0.446859206
C      4.436332590     0.488156324     1.682316415
H      5.452785463     0.787319473     1.443382758
H      4.075019493     1.120997606     2.487559100
H      4.446287716    -0.542670533     2.025369854
O      3.442364591     3.900599020    -0.780275357
H      2.552155592     4.240604579    -0.635971811
H      3.574420504     3.946498696    -1.720495712
O      0.811347063     4.703156624    -0.450976406
H      0.176237066     3.987690335    -0.565168541
H      0.553790897     5.128976734     0.359762199
O      1.270047194    -4.161746056    -0.759617880
H     -0.238841152    -4.045682420    -0.791454671
H      1.606952245    -4.998952164    -1.063311614
O      3.705195056    -2.824093531    -1.293703233
H      1.945406510    -3.520006530    -0.879172504
H      4.500491961    -3.245583967    -0.987646252
O     -1.210912753    -3.958905341    -0.812642959
H     -1.423666810    -3.662089013    -1.695773260
H     -1.704138970    -3.202954130     0.025873149
H      3.595057596     1.697632418     0.117013109
O      4.154031731    -0.166800762    -0.574388682
H      3.835605021    -1.882458590    -1.119116318
