46
VERBATIM publisher-SI Cartesian coordinates (angstrom); 2-HEAQ·5H2O TRCT2-S0 crossing; CASSCF(12,10)/6-31G*; c5cp03442f1.pdf
C      0.779091624    -1.262397953    -0.668912603
H      0.830880482    -2.329688662    -0.575489715
C     -0.460097362    -0.657417783    -0.475958909
C     -1.617836622    -1.499201925    -0.128420411
O     -1.510704164    -2.684077385     0.131251584
C     -2.929422511    -0.828563887    -0.089926482
C     -4.083595059    -1.594238661     0.068372977
H     -3.984577561    -2.659020191     0.145601972
C     -5.324091091    -0.986106759     0.122577005
H     -6.212838036    -1.579649006     0.235278287
C     -5.413475690     0.408209810     0.039087104
H     -6.376612786     0.883547668     0.089107869
C     -4.271284106     1.181287157    -0.100894387
H     -4.339033690     2.249001869    -0.158555091
C     -3.006477746     0.569737664    -0.178644375
C     -1.805091950     1.366735075    -0.342716298
O     -1.983138906     2.682513624    -0.297459640
C     -0.576272950     0.762444100    -0.567708216
C      0.602680805     1.510469151    -0.907946867
H      0.530436585     2.561936725    -1.101869151
C      1.802352484     0.905771424    -1.043919368
H      2.667134754     1.488341356    -1.303585385
C      1.926792764    -0.506110884    -0.931087094
C      3.264414342    -1.143664427    -0.808957806
C      3.533563771    -2.483730979    -1.475801289
H      4.436804071    -2.901844968    -1.046395727
H      2.720062406    -3.181550911    -1.319877996
H      3.684014789    -2.365307831    -2.540653893
O      2.798379205    -2.072986641     1.772702651
H      2.024679426    -2.642327883     1.750811149
H      2.604165360    -1.352785936     2.354505249
O      0.608857865    -3.666279176     1.657435950
H     -0.149139405    -3.334851507     1.173337883
H      0.766443658    -4.540889834     1.331710431
O      2.617474332     3.738532127     0.445260935
H      0.896682927     3.899985921     0.821474134
H      3.177303893     4.489820282     0.574325996
O      4.186284323     1.564020915     1.066268534
H      3.130170086     2.960048078     0.679912499
H      5.089747333     1.795089156     1.227428587
O     -0.036195898     3.986724269     1.037689565
H     -0.123224205     3.698779083     1.935651212
H     -1.222944852     3.164003970     0.051515149
H      3.035762621    -1.368085842     0.301484138
O      4.327701254    -0.337481795    -0.817944712
H      4.217313848     0.918394286     0.357785563
