46
VERBATIM publisher-SI Cartesian coordinates (angstrom); 2-HEAQ·5H2O second-ESIPT S0 path point 17; CASSCF(12,10)/6-31G*; c5cp03442f1.pdf
C      0.789336078    -1.259415007    -0.652084523
H      0.819972382    -2.330568096    -0.588858230
C     -0.461550493    -0.678291084    -0.451687481
C     -1.584901789    -1.510701746    -0.101653265
O     -1.457521718    -2.719503331     0.190072570
C     -2.892173714    -0.848825793    -0.077071488
C     -4.079000922    -1.618363519     0.081805312
H     -3.984573163    -2.683660044     0.159877596
C     -5.313747845    -1.015949752     0.121529002
H     -6.208802954    -1.603343214     0.230924374
C     -5.407435343     0.394063683     0.026438903
H     -6.373219384     0.869535208     0.063941074
C     -4.274435986     1.156606790    -0.111604497
H     -4.339526968     2.224468428    -0.184244305
C     -2.986647887     0.543286305    -0.179223238
C     -1.811833293     1.351613734    -0.361834032
O     -2.006072136     2.697363449    -0.385300704
C     -0.610039216     0.762728077    -0.564214715
C      0.592603127     1.513838529    -0.907297042
H      0.508815390     2.560675235    -1.116481983
C      1.798502550     0.917817943    -1.010178588
H      2.654832722     1.495021049    -1.299022771
C      1.956358151    -0.525910158    -0.859861149
C      3.293209242    -1.074743673    -1.027884054
C      3.531811390    -2.503701573    -1.462588945
H      4.433025555    -2.883742957    -0.995413897
H      2.705570665    -3.176899093    -1.280812194
H      3.700591330    -2.461996225    -2.531841145
O      2.725297710    -2.016263910     1.727645076
H      1.923877214    -2.667136670     1.711199920
H      2.602443111    -1.325889910     2.383181767
O      0.687743735    -3.578031890     1.643965077
H     -0.136790638    -3.266111879     1.202924907
H      0.768576719    -4.497364994     1.413810053
O      2.613892935     3.761368734     0.429231877
H      0.863470207     3.913451286     0.811864503
H      3.174792915     4.510152076     0.566671288
O      4.188138586     1.538269626     1.130723699
H      3.108772433     2.981936368     0.682835119
H      5.086298801     1.815667214     1.248886142
O     -0.058199830     4.033180988     1.047459061
H     -0.148477087     3.705623139     1.930582800
H     -1.282580678     3.160895657     0.037443154
H      2.760278210    -1.552356658     0.864209430
O      4.296534106    -0.387978285    -0.840313707
H      4.203821913     0.960084447     0.364917535
