31
VERBATIM publisher-SI Cartesian coordinates (angstrom); isolated 2-HEAQ first-ESIPT intermediate; CASSCF(12,10)/6-31G**/PCM water; c5cp03442f1.pdf
C     -1.671555770    -0.902943131    -0.171630613
H     -1.810479329    -1.964760459    -0.228207851
C     -0.365480652    -0.412950426    -0.107129234
C      0.756696266    -1.373071956    -0.116415231
O      0.560291718    -2.566108282    -0.189650164
C      2.121004915    -0.821335336    -0.040503585
C      3.221121256    -1.701015904    -0.042107742
H      3.038053906    -2.755271500    -0.102248386
C      4.506600005    -1.213494540     0.033509309
H      5.344309049    -1.884642441     0.032869521
C      4.713221760     0.178586071     0.112449938
H      5.713681118     0.565620728     0.172388812
C      3.659217983     1.041151136     0.114436710
H      3.828811533     2.097004854     0.174893262
C      2.331467047     0.552235454     0.037636671
C      1.211793728     1.452314477     0.037336721
O      1.520372836     2.756899424     0.113663082
C     -0.131486258     0.976496313    -0.033320479
C     -1.259739234     1.835116203    -0.033724039
H     -1.147823665     2.900620314     0.019911561
C     -2.522701709     1.329424343    -0.093781851
H     -3.352496795     2.011014556    -0.081547636
C     -2.753680137    -0.059077177    -0.165902068
C     -4.166633918    -0.617365071    -0.163636381
C     -4.708687658    -0.841400594     1.243625401
H     -5.719261451    -1.230368098     1.190424429
H     -4.090489376    -1.552491154     1.776139515
H     -4.721160075     0.091043864     1.797583179
H     -4.174738792    -1.549487268    -0.718774747
O     -4.992989014     0.236023791    -0.898267114
H      0.743243835     3.321178000     0.095540746
