46
VERBATIM publisher-SI Cartesian coordinates (angstrom); 2-HEAQ·5H2O second-ESIPT S0 path point 23; CASSCF(12,10)/6-31G*; c5cp03442f1.pdf
C      0.800226884    -1.259127860    -0.661112112
H      0.823800868    -2.331442260    -0.630394818
C     -0.457044712    -0.672481994    -0.433991296
C     -1.564172853    -1.502649192    -0.073744159
O     -1.414448172    -2.719656199     0.234127836
C     -2.866964858    -0.852575585    -0.061990811
C     -4.062813634    -1.620388706     0.090854912
H     -3.972956077    -2.686573567     0.166557812
C     -5.295048044    -1.017393702     0.113279689
H     -6.192547476    -1.603255487     0.210371164
C     -5.390569882     0.396584081     0.013174867
H     -6.355722720     0.873782167     0.041688630
C     -4.260252486     1.155956923    -0.125225992
H     -4.319868467     2.223291062    -0.206257294
C     -2.968040538     0.542406357    -0.187922671
C     -1.810286698     1.351242336    -0.390465822
O     -1.999390908     2.699600704    -0.473951347
C     -0.601499628     0.758418839    -0.568966108
C      0.596957086     1.510732719    -0.906093085
H      0.510106038     2.560005858    -1.099993302
C      1.803246201     0.914210240    -1.013278518
H      2.661048274     1.495665143    -1.287203068
C      1.951595656    -0.530500494    -0.881721699
C      3.293986794    -1.096064558    -1.078425090
C      3.513866121    -2.539222294    -1.480034511
H      4.403452342    -2.911280415    -0.986372723
H      2.677908120    -3.192548077    -1.273525984
H      3.692428120    -2.555764999    -2.549171509
O      2.607024701    -2.029045504     1.772689332
H      1.747017213    -2.724219432     1.749014825
H      2.555554852    -1.393913068     2.487417561
O      0.669697129    -3.508748967     1.652259295
H     -0.151958810    -3.193063104     1.161312912
H      0.764687716    -4.438758725     1.472452364
O      2.641724880     3.782336801     0.436214990
H      0.840484149     3.953078370     0.831263564
H      3.216842001     4.518766341     0.585070940
O      4.213006006     1.507673042     1.185495211
H      3.113067919     2.997997670     0.714818904
H      5.112850661     1.780264181     1.305593554
O     -0.077719617     4.057190136     1.084160266
H     -0.145555760     3.713048856     1.963281070
H     -1.333106056     3.174478594     0.021571151
H      2.583512403    -1.512328553     0.946593877
O      4.291408384    -0.407621330    -0.909458017
H      4.219423175     0.964057388     0.397584255
