31
VERBATIM publisher-SI Cartesian coordinates (angstrom); isolated 2-HEAQ S0 minimum; CASSCF(12,10)/6-31G** gas phase; c5cp03442f1.pdf
C      1.604452639    -0.908534624    -0.071918893
H      1.732488885    -1.974528436    -0.092918322
C      0.318629609    -0.403564400    -0.046767023
C     -0.831819443    -1.357594501    -0.064778971
O     -0.657252246    -2.539915262    -0.109945462
C     -2.208754965    -0.780061463    -0.029228331
C     -3.309043146    -1.649676667    -0.036700908
H     -3.130499451    -2.707350828    -0.068671282
C     -4.580897359    -1.142836556    -0.004759154
H     -5.425403028    -1.808650646    -0.010634646
C     -4.789743209     0.243392957     0.036135005
H     -5.792756657     0.630487598     0.061090197
C     -3.723611922     1.102780526     0.044706464
H     -3.864258217     2.166297471     0.075615026
C     -2.416329255     0.596065200     0.013752514
C     -1.271028215     1.552653939     0.023153714
O     -1.451155658     2.734857969     0.053892047
C      0.107551918     0.978343427    -0.002941312
C      1.204586683     1.836104833     0.014985599
H      1.039166457     2.895598109     0.053120260
C      2.495366978     1.315093185    -0.018103274
H      3.325787044     1.998061863    -0.006266775
C      2.713768425    -0.065034282    -0.068677970
C      4.113860595    -0.666347607    -0.034707767
C      5.101641756    -0.003386084    -0.988026905
H      6.044469870    -0.536688730    -0.952680421
H      4.730664781    -0.017482092    -2.007552779
H      5.296239328     1.029953248    -0.715830612
H      4.026974924    -1.708406822    -0.314667507
O      4.620666865    -0.701474477     1.279696323
H      4.747267871     0.200576069     1.593516863
