46
VERBATIM publisher-SI Cartesian coordinates (angstrom); 2-HEAQ·5H2O second-ESIPT S0 path point 26; CASSCF(12,10)/6-31G*; c5cp03442f1.pdf
C      0.805424061    -1.258562318    -0.665423145
H      0.827200790    -2.330867452    -0.640062415
C     -0.457216249    -0.670102014    -0.430929975
C     -1.556854908    -1.497770326    -0.064622659
O     -1.394190431    -2.721856936     0.254899051
C     -2.857601701    -0.855213793    -0.058339245
C     -4.058043783    -1.622174526     0.093144366
H     -3.969461681    -2.688270697     0.169157747
C     -5.289337052    -1.019598355     0.109962693
H     -6.187548338    -1.605048212     0.203803681
C     -5.386508870     0.396425595     0.007829457
H     -6.352305664     0.872466315     0.034636997
C     -4.257812963     1.155114240    -0.130741199
H     -4.316921987     2.222284736    -0.213934241
C     -2.962260203     0.541986503    -0.191953183
C     -1.811407744     1.350488317    -0.398293993
O     -1.997248597     2.698918796    -0.492089683
C     -0.598586381     0.756339955    -0.572579758
C      0.598059966     1.509918272    -0.907503453
H      0.511388277     2.560405513    -1.094574384
C      1.804555841     0.913181117    -1.018405246
H      2.663765536     1.495267164    -1.285980933
C      1.947629277    -0.530884867    -0.895649147
C      3.293552683    -1.102222424    -1.088706719
C      3.508730276    -2.547804030    -1.483358819
H      4.395614068    -2.920038499    -0.985415876
H      2.670351834    -3.196463401    -1.272431974
H      3.687917927    -2.573870730    -2.552263672
O      2.582047058    -2.029403243     1.784188708
H      1.641792529    -2.780542958     1.743946001
H      2.546211392    -1.410058694     2.510076772
O      0.663482398    -3.480233431     1.656131650
H     -0.170493602    -3.159607232     1.140235845
H      0.771235708    -4.412582618     1.485967541
O      2.646190003     3.785909282     0.443173579
H      0.834199609     3.962268951     0.836926374
H      3.225533494     4.519468384     0.590657131
O      4.216562019     1.502203074     1.194584778
H      3.113942744     3.000352646     0.724249329
H      5.117632868     1.767518535     1.321534008
O     -0.083939326     4.059279968     1.092273490
H     -0.145850292     3.714046392     1.971517306
H     -1.343357384     3.176041429     0.017501676
H      2.548077996    -1.500284114     0.974963085
O      4.288798032    -0.413285911    -0.922314151
H      4.223531283     0.960533729     0.406130780
