46
VERBATIM publisher-SI Cartesian coordinates (angstrom); 2-HEAQ·5H2O first-ESIPT triplet intermediate; CASSCF(12,10)/6-31G*; c5cp03442f1.pdf
C      1.056484497     1.078441691     0.224537286
H      1.246105178     2.088208711    -0.083267875
C     -0.285913451     0.620023542     0.244952251
C     -1.376287782     1.528214327    -0.137868313
O     -1.179845371     2.684748742    -0.469648376
C     -2.745991457     0.995537465    -0.059438385
C     -3.838203276     1.859453361    -0.336655629
H     -3.622655883     2.881667894    -0.582050777
C     -5.122027214     1.384312851    -0.293813796
H     -5.955645775     2.031219808    -0.502185180
C     -5.359291961     0.018479527     0.025025304
H     -6.372425671    -0.343289220     0.058061881
C     -4.325160938    -0.818575375     0.287725981
H     -4.485237490    -1.851035135     0.532396922
C     -2.983535927    -0.337209520     0.250037734
C     -1.887568336    -1.224460453     0.517791001
O     -2.134112773    -2.503258715     0.736527189
C     -0.557870642    -0.705436041     0.584988616
C      0.527850780    -1.547964206     0.966704179
H      0.317930203    -2.552503527     1.276734074
C      1.808702913    -1.072434010     0.966150220
H      2.616645080    -1.719352440     1.254094210
C      2.092408388     0.266802167     0.570783900
C      3.522440079     0.732239234     0.457851855
C      4.368100381     0.566214317     1.719775586
H      5.386743613     0.882437623     1.524195295
H      3.960209578     1.190437346     2.506548547
H      4.383197961    -0.462759457     2.066363734
O      3.382948003     3.953051943    -0.793394703
H      2.488641776     4.274855952    -0.652246996
H      3.518961310     4.000337507    -1.730462199
O      0.718323671     4.724201855    -0.461690460
H      0.093536639     4.002473446    -0.566435026
H      0.466155703     5.151530777     0.347003196
O      1.470643557    -4.141269971    -0.764571297
H     -0.162305123    -4.055343154    -0.811304358
H      1.870268331    -4.959056967    -1.037934956
O      3.867476970    -2.779643103    -1.263447777
H      2.128180088    -3.514559973    -0.879322785
H      4.665737389    -3.178724316    -0.943451712
O     -1.120149653    -3.983159990    -0.840411525
H     -1.340152284    -3.752150239    -1.735302303
H     -1.703707421    -3.136546116     0.071691642
H      3.558045675     1.761435584     0.123258238
O      4.196144615    -0.076163571    -0.527386965
H      3.965522624    -1.829174786    -1.095478970
