31
VERBATIM publisher-SI Cartesian coordinates (angstrom); isolated 2-HEAQ S0 minimum; CASSCF(12,10)/6-31G**/PCM water; c5cp03442f1.pdf
C      1.602340116    -0.907090383    -0.063621970
H      1.738936766    -1.972117462    -0.093555792
C      0.318986224    -0.404370331    -0.047518550
C     -0.833000054    -1.354113716    -0.075718382
O     -0.660860467    -2.541983906    -0.115826042
C     -2.207608164    -0.779253092    -0.033198478
C     -3.308948116    -1.646812622    -0.040596550
H     -3.140094086    -2.705683068    -0.076562909
C     -4.581776222    -1.139470904    -0.002716248
H     -5.425926437    -1.804627671    -0.009008587
C     -4.788788795     0.246782560     0.043967633
H     -5.790353557     0.635396897     0.073848775
C     -3.719887736     1.104898124     0.052031694
H     -3.867774590     2.166854171     0.087719296
C     -2.413112244     0.598226440     0.013450098
C     -1.264548672     1.548383653     0.021622685
O     -1.442374390     2.735658498     0.061101843
C      0.109110444     0.977256963    -0.009709897
C      1.202893083     1.828009336     0.000874097
H      1.043969233     2.889130156     0.025789432
C      2.496035128     1.310246128    -0.022155476
H      3.325016615     1.994279638    -0.020182596
C      2.711820725    -0.065199597    -0.050711630
C      4.109692425    -0.668261620    -0.036206351
C      5.093908825     0.003473374    -0.985473620
H      6.037180030    -0.530143479    -0.962258534
H      4.715188844    -0.006966491    -2.001779254
H      5.286456344     1.034066807    -0.704915352
H      4.020939917    -1.708166660    -0.321922595
O      4.616190343    -0.706543456     1.284170702
H      4.790115310     0.194702237     1.581341749
