46
VERBATIM publisher-SI Cartesian coordinates (angstrom); 2-HEAQ·5H2O first-ESIPT transition state; CASSCF(12,10)/6-31G*; c5cp03442f1.pdf
C      0.930724074     1.117541010     0.267728768
H      1.060176413     2.105145452    -0.130417589
C     -0.387606666     0.589805415     0.332726253
C     -1.511928183     1.409728175    -0.076033695
O     -1.394207830     2.583883351    -0.419977524
C     -2.828648191     0.756569677    -0.067483284
C     -3.974859459     1.520444751    -0.431371367
H     -3.834945396     2.552610796    -0.687174875
C     -5.213669087     0.940938650    -0.452969568
H     -6.080407090     1.516472498    -0.726075626
C     -5.358524654    -0.434603212    -0.114958393
H     -6.336267254    -0.883936999    -0.133837154
C     -4.274601106    -1.171974431     0.227041435
H     -4.360498617    -2.210133059     0.484242369
C     -2.978747096    -0.581832227     0.262693873
C     -1.832649565    -1.408781578     0.628837317
O     -1.943073336    -2.647664323     0.785898220
C     -0.567324817    -0.745381097     0.730082815
C      0.565702486    -1.471005975     1.219631954
H      0.404777871    -2.451029545     1.626001647
C      1.812639663    -0.924270466     1.189802725
H      2.642277515    -1.485181257     1.581312364
C      2.015619758     0.390444749     0.645987258
C      3.403132771     0.897608177     0.349904630
C      4.488325044     0.611988440     1.379424983
H      5.447022088     0.979793616     1.028789196
H      4.246240502     1.131699512     2.299210106
H      4.586349774    -0.444429439     1.601661097
O      2.959014187     4.107556999    -0.614856644
H      2.069028073     4.437573929    -0.479781309
H      3.091554868     4.135507882    -1.552517041
O      0.241365000     4.845254479    -0.321345851
H     -0.297436022     4.055209071    -0.409746152
H      0.017874788     5.206547642     0.525535176
O      2.158049413    -3.901237457    -0.841728954
H      1.111301814    -3.748194861    -0.872449001
H      2.351767868    -4.677176344    -1.355967185
O      3.947128348    -2.294194267    -1.107176507
H      2.989430491    -3.029869095    -0.969283024
H      4.690228146    -2.596576429    -0.596029957
O     -0.343315401    -3.823913093    -0.969502579
H     -0.739211335    -3.460564240    -1.752293809
H     -0.883286715    -3.476546790    -0.225086857
H      3.386214667     1.950775971     0.117926674
O      3.733131519     0.211732997    -0.879476406
H      3.847562501    -1.242368134    -0.974963344
