46
VERBATIM publisher-SI Cartesian coordinates (angstrom); 2-HEAQ·5H2O S0 minimum; CASSCF(12,10)/6-31G*; c5cp03442f1.pdf
C      0.683402095     1.270527079     0.084227174
H      0.624713460     2.322118274    -0.122266004
C     -0.493982949     0.508752829     0.091610392
C     -1.800765101     1.173245425    -0.166236161
O     -1.886656733     2.335740190    -0.458138380
C     -3.034523018     0.346858782    -0.017240805
C     -4.266641523     0.959527022    -0.115016111
H     -4.311131994     2.016391156    -0.292212790
C     -5.435710554     0.212952320     0.015930449
H     -6.390639793     0.700217919    -0.053244670
C     -5.362182751    -1.159336323     0.232669658
H     -6.261308397    -1.739360648     0.331097420
C     -4.120326416    -1.785337377     0.316835448
H     -4.046368376    -2.843475108     0.474071423
C     -2.954661667    -1.034463473     0.199465528
C     -1.635029644    -1.718013818     0.277693206
O     -1.563885271    -2.919956440     0.308177022
C     -0.427929695    -0.861772241     0.345946420
C      0.811632919    -1.447017936     0.625874654
H      0.867856827    -2.496171502     0.841127804
C      1.948311121    -0.684047559     0.633318003
H      2.887746357    -1.154483710     0.846466038
C      1.905883076     0.689346216     0.344740629
C      3.193257259     1.504462190     0.271990255
C      4.004835223     1.448255825     1.565918381
H      4.872266416     2.090320922     1.466502862
H      3.417179755     1.790862490     2.411086569
H      4.356020561     0.442104560     1.774209224
O      1.958418894     4.994706247    -0.193925040
H      1.018920246     5.113269145    -0.317908724
H      2.353697180     5.199301671    -1.031051894
O     -0.883796058     5.077880496    -0.680050588
H     -1.227475573     4.188893738    -0.669442892
H     -1.473232261     5.591322427    -0.142902303
O      3.253910174    -4.094313359    -0.323930027
H      2.343017118    -4.218453489    -0.592390302
H      3.573679947    -4.963263392    -0.118909493
O      4.892436679    -1.724617394    -0.452893377
H      4.347739921    -2.511984165    -0.452475536
H      5.788557953    -2.033217040    -0.468592710
O      0.512196585    -4.551203842    -1.003475436
H      0.194673325    -4.550028878    -1.897714437
H     -0.160044794    -4.108696143    -0.490796510
H      2.919670981     2.532473305     0.089669966
O      3.959116647     1.117081525    -0.835289883
H      4.277123429     0.205685358    -0.714480072
