46
VERBATIM publisher-SI Cartesian coordinates (angstrom); 2-HEAQ·5H2O SRCT2 minimum / SRCT2-SRCT1 CI; CASSCF(12,10)/6-31G*; c5cp03442f1.pdf
C      0.786395350     1.221689596     0.110896707
H      0.768748093     2.255065034    -0.185481714
C     -0.489633457     0.541071905     0.196766143
C     -1.719193491     1.267466058    -0.076286983
O     -1.736505059     2.461955171    -0.280297034
C     -2.983711874     0.481343148    -0.075133359
C     -4.193312437     1.157362905    -0.338800086
H     -4.162323463     2.212569762    -0.525067114
C     -5.380967802     0.463388937    -0.357608459
H     -6.302618037     0.977805354    -0.558453128
C     -5.390330165    -0.925329709    -0.116456396
H     -6.320740664    -1.463123112    -0.131411207
C     -4.222627248    -1.584469208     0.134709741
H     -4.207136727    -2.640382114     0.320899863
C     -3.002695975    -0.880617052     0.159610199
C     -1.752937807    -1.630078164     0.435698286
O     -1.751608048    -2.836819461     0.585183115
C     -0.531184355    -0.856638597     0.500226996
C      0.733430825    -1.488719220     0.859419074
H      0.752438337    -2.502370555     1.204054881
C      1.977545894    -0.743592795     0.772601736
H      2.882849441    -1.261108756     1.014388558
C      1.984020939     0.610670958     0.354956895
C      3.302245139     1.349394449     0.158297986
C      4.276110748     1.184185752     1.322200740
H      5.155287295     1.788281629     1.130963453
H      3.831893689     1.510763601     2.257399975
H      4.601687198     0.155129097     1.438064659
O      2.239833974     4.659177787    -0.337278060
H      1.326874132     4.918194361    -0.223354987
H      2.434755932     4.817762271    -1.250441881
O     -0.583250559     5.111047056    -0.129102153
H     -0.946518591     4.234966375    -0.231714263
H     -0.905338986     5.425299944     0.704590410
O      2.964460913    -4.097100996    -0.144627214
H      2.033779941    -4.187909754    -0.355946609
H      3.332756298    -4.964618493    -0.243661409
O      4.659562494    -1.921719441    -0.943520320
H      4.051661937    -2.623325075    -0.709840918
H      5.500958638    -2.167775654    -0.585050773
O      0.208564259    -4.516135848    -0.754941377
H     -0.084242423    -4.404502949    -1.649381973
H     -0.420485269    -4.038973447    -0.215756277
H      3.077188637     2.399580874     0.049583243
O      3.886610865     0.956719927    -1.056791345
H      4.138248030     0.018904266    -1.009982998
