46
VERBATIM publisher-SI Cartesian coordinates (angstrom); 2-HEAQ·5H2O first-ESIPT path point 20; CASSCF(12,10)/6-31G*; c5cp03442f1.pdf
C      0.970820262     1.113885115     0.208039361
H      1.099146565     2.108406089    -0.170513108
C     -0.344977422     0.587916231     0.279971901
C     -1.470760431     1.416389570    -0.114932699
O     -1.339793290     2.591164539    -0.449719117
C     -2.793918135     0.790256619    -0.059439121
C     -3.935434796     1.562022165    -0.407187095
H     -3.789590646     2.586293976    -0.686954981
C     -5.184548717     1.001249600    -0.388346474
H     -6.046221499     1.587320970    -0.651591632
C     -5.340039541    -0.361994529    -0.021393990
H     -6.322047996    -0.800167664    -0.006433877
C     -4.258426300    -1.109921255     0.308611784
H     -4.358229886    -2.139779579     0.589276370
C     -2.954817536    -0.543169669     0.300947088
C     -1.814969054    -1.376763682     0.649199904
O     -1.944880725    -2.611546240     0.854032690
C     -0.531420045    -0.740320998     0.691581710
C      0.605395881    -1.478313796     1.141509734
H      0.446040528    -2.457243541     1.551066698
C      1.856730955    -0.933035726     1.092744791
H      2.693427518    -1.499656626     1.458905586
C      2.055986092     0.384827082     0.576078906
C      3.451344549     0.929501118     0.349256493
C      4.419328728     0.776420348     1.515449820
H      5.395477684     1.170650583     1.254560431
H      4.043614421     1.339538910     2.360418625
H      4.540056025    -0.257410024     1.816682805
O      3.006995016     4.267200175    -0.706062280
H      2.114379838     4.582340161    -0.570129737
H      3.156015568     4.350187583    -1.636664293
O      0.223034436     4.940837014    -0.412379381
H     -0.280136438     4.128324528    -0.484598980
H     -0.079821948     5.349797992     0.385232794
O      1.879220025    -4.228535274    -0.869921862
H      0.897185529    -3.893743789    -0.898643893
H      2.023753673    -4.860516834    -1.570179697
O      3.931093637    -2.700658847    -0.994944691
H      2.600924081    -3.544260443    -0.883450336
H      4.684058934    -2.986574521    -0.494204554
O     -0.537158967    -3.762764154    -1.063543293
H     -0.886138588    -3.240613579    -1.774975372
H     -1.026691908    -3.458338452    -0.264465433
H      3.381055353     1.970567824     0.073633935
O      3.959508916     0.203352573    -0.758314109
H      3.907823893    -1.741211027    -0.922707673
