46
VERBATIM publisher-SI Cartesian coordinates (angstrom); 2-HEAQ·5H2O second-ESIPT S0 path point 14; CASSCF(12,10)/6-31G*; c5cp03442f1.pdf
C      0.786490253    -1.261076375    -0.651547450
H      0.820566225    -2.331547000    -0.572020624
C     -0.461125995    -0.679880495    -0.461354755
C     -1.594439992    -1.508284390    -0.112285847
O     -1.479100011    -2.714043666     0.176905503
C     -2.902164554    -0.841392170    -0.085126753
C     -4.085812021    -1.612085455     0.075869588
H     -3.988732475    -2.676903615     0.156566406
C     -5.320824903    -1.009674266     0.120153947
H     -6.215427988    -1.597412402     0.232523302
C     -5.412677214     0.399064729     0.026855577
H     -6.379591471     0.871964560     0.069692715
C     -4.278260197     1.163298856    -0.111287914
H     -4.345026649     2.231537771    -0.179330042
C     -2.991832146     0.549569623    -0.179798739
C     -1.806676354     1.354148451    -0.351447866
O     -2.000154807     2.697748944    -0.344907126
C     -0.607757192     0.765270880    -0.564735182
C      0.598163981     1.514694023    -0.909210309
H      0.515983343     2.561952664    -1.117243941
C      1.802873988     0.916909288    -1.014475644
H      2.662761035     1.490412762    -1.301923636
C      1.960755555    -0.526411035    -0.857757490
C      3.294778665    -1.070044875    -1.002638690
C      3.536855666    -2.494758028    -1.450351356
H      4.441906912    -2.890304464    -1.003261516
H      2.713049623    -3.175482237    -1.285135985
H      3.696813751    -2.419534275    -2.518297255
O      2.760193600    -2.012274278     1.702704995
H      1.972229679    -2.657994228     1.694442956
H      2.613418718    -1.315755043     2.347085179
O      0.666961553    -3.606183146     1.655074111
H     -0.145734150    -3.292403236     1.201738873
H      0.765099204    -4.513111399     1.386079308
O      2.608462068     3.746881893     0.436693320
H      0.876947303     3.900325812     0.808135597
H      3.164591425     4.500171507     0.565956449
O      4.178216671     1.546987440     1.104123350
H      3.113880370     2.969456728     0.678429030
H      5.077184199     1.814313017     1.235271698
O     -0.047977177     4.014938529     1.034634826
H     -0.144111645     3.701684034     1.922166045
H     -1.254164860     3.157664649     0.043014275
H      2.821611663    -1.561151102     0.829491635
O      4.301412670    -0.382403181    -0.812194471
H      4.202543966     0.942802618     0.357176771
