46
VERBATIM publisher-SI Cartesian coordinates (angstrom); 2-HEAQ·5H2O first-ESIPT path point 29; CASSCF(12,10)/6-31G*; c5cp03442f1.pdf
C      1.114027845     1.039019166     0.241077625
H      1.327623547     2.047459247    -0.066454784
C     -0.248683068     0.623975522     0.262647276
C     -1.303441517     1.568573797    -0.110704257
O     -1.072930394     2.719249246    -0.460980296
C     -2.686860556     1.065357783    -0.046169102
C     -3.758935323     1.963707094    -0.331849870
H     -3.507295507     2.981005095    -0.572521374
C     -5.051955462     1.524313894    -0.298953593
H     -5.871229568     2.191539527    -0.512510980
C     -5.332095955     0.158466272     0.018849243
H     -6.358824492    -0.170479390     0.042878534
C     -4.323228007    -0.704281091     0.286569992
H     -4.505563601    -1.735840333     0.528359721
C     -2.962319915    -0.258300216     0.256426499
C     -1.894345006    -1.195596506     0.526968500
O     -2.158068781    -2.451700653     0.715565663
C     -0.558787568    -0.696933136     0.598391135
C      0.511807496    -1.572548548     0.976275381
H      0.264267099    -2.570757273     1.292816427
C      1.804336047    -1.142136179     0.975301737
H      2.593856845    -1.814918761     1.262610529
C      2.131702270     0.199157778     0.576944269
C      3.561721869     0.639781660     0.437369751
C      4.466520729     0.457878130     1.660610003
H      5.480049098     0.753152276     1.402533873
H      4.123720167     1.092601987     2.473380304
H      4.477805624    -0.573284564     2.002579206
O      3.465688909     3.881997482    -0.773582244
H      2.578882547     4.229820216    -0.625003936
H      3.593896412     3.930071690    -1.715066533
O      0.848122426     4.698827800    -0.436937495
H      0.209785521     3.986043117    -0.554594511
H      0.590549020     5.123057765     0.375548937
O      1.193483909    -4.175162075    -0.723083817
H     -0.269598703    -4.042564147    -0.769902969
H      1.506900618    -4.996144344    -1.089130092
O      3.636050391    -2.838160311    -1.308261364
H      1.878994215    -3.521951638    -0.854357462
H      4.435034016    -3.269955664    -1.023923363
O     -1.249477101    -3.960424943    -0.801094957
H     -1.441096485    -3.593365462    -1.664170207
H     -1.715207353    -3.230886878     0.005726489
H      3.609335248     1.671063466     0.111182284
O      4.137312704    -0.200286902    -0.598664344
H      3.779876068    -1.902995652    -1.132196764
