46
VERBATIM publisher-SI Cartesian coordinates (angstrom); 2-HEAQ·5H2O second-ESIPT S0 local minimum; CASSCF(12,10)/6-31G*; c5cp03442f1.pdf
C      0.774721943    -1.265421794    -0.664313957
H      0.838031153    -2.332662088    -0.568082948
C     -0.449335381    -0.668578586    -0.473005943
C     -1.609424852    -1.517391171    -0.122992916
O     -1.498458193    -2.699450328     0.146476105
C     -2.929350733    -0.839371565    -0.099280914
C     -4.083853234    -1.602874680     0.057285098
H     -3.985216712    -2.675110625     0.135257104
C     -5.330991086    -0.991483750     0.109993102
H     -6.225162257    -1.587557354     0.221202111
C     -5.424491520     0.404693658     0.029662096
H     -6.390025683     0.886996819     0.081714100
C     -4.277236011     1.183070002    -0.108690915
H     -4.344130239     2.256765846    -0.161971919
C     -3.014759804     0.570602345    -0.188072921
C     -1.798174069     1.378812487    -0.341538933
O     -1.980111356     2.702099601    -0.272087928
C     -0.593104978     0.777952644    -0.565345948
C      0.608557493     1.515537780    -0.909623977
H      0.520568173     2.572382234    -1.098373993
C      1.806769183     0.920244554    -1.040000985
H      2.683752423     1.490511708    -1.294857008
C      1.965018528    -0.511595060    -0.903983975
C      3.305341525    -1.088058090    -0.859548972
C      3.539196852    -2.482475607    -1.468733021
H      4.447066845    -2.904076492    -1.047018987
H      2.715140719    -3.178777794    -1.321112010
H      3.690442785    -2.366278417    -2.544554104
O      2.791972985    -2.077083240     1.740450229
H      1.999495214    -2.663277131     1.716364224
H      2.592184618    -1.353110269     2.333194271
O      0.606225922    -3.654004195     1.652302222
H     -0.150313469    -3.315530504     1.151153179
H      0.770684691    -4.529610706     1.315937197
O      2.605468184     3.719451641     0.459740129
H      0.905542232     3.883792399     0.821477156
H      3.156359512     4.481399457     0.592005141
O      4.163869549     1.559840256     1.071088175
H      3.132272862     2.938518750     0.697362146
H      5.070525959     1.799844094     1.229476185
O     -0.036649774     3.973775958     1.033633173
H     -0.134511915     3.684146967     1.934200240
H     -1.198048883     3.176271463     0.073057099
H      2.970564698    -1.462623712     0.483140131
O      4.322808693    -0.325305999    -0.806995966
H      4.200466104     0.901416809     0.342740120
