46
VERBATIM publisher-SI Cartesian coordinates (angstrom); 2-HEAQ·5H2O TRCT2 minimum; CASSCF(12,10)/6-31G*; c5cp03442f1.pdf
C      0.694431059     1.271828876     0.197660481
H      0.704266438     2.304790026    -0.097217734
C     -0.481656854     0.615619353     0.270353932
C     -1.740090542     1.297054708    -0.052347341
O     -1.807799501     2.483590742    -0.281098508
C     -2.968658427     0.457994580    -0.093161348
C     -4.196117156     1.082486171    -0.410297263
H     -4.199970915     2.136696592    -0.605659639
C     -5.352289941     0.342215934    -0.466755792
H     -6.286491519     0.816091539    -0.707787694
C     -5.312535712    -1.044978231    -0.210332348
H     -6.219085767    -1.621555378    -0.254425633
C     -4.130834479    -1.653380214     0.093065294
H     -4.081177703    -2.706056646     0.292504711
C     -2.939400762    -0.901108510     0.156236184
C     -1.676695849    -1.610383933     0.494020937
O     -1.665723332    -2.819160181     0.667767728
C     -0.485555924    -0.814608281     0.610969933
C      0.780117921    -1.432189861     1.036916623
H      0.755866691    -2.442780571     1.388892298
C      1.938551034    -0.740030353     0.970134248
H      2.856541436    -1.215486962     1.252151039
C      1.967856124     0.643682384     0.497345159
C      3.261731668     1.340620696     0.123017248
C      4.366373617     1.187553594     1.164801671
H      5.229597455     1.760766243     0.846534169
H      4.045980500     1.559685154     2.133049958
H      4.677637199     0.154815180     1.278453233
O      2.178604128     4.642891384    -0.361830776
H      1.267746337     4.897734558    -0.222542055
H      2.346657799     4.799483938    -1.281046334
O     -0.628593557     5.095015753    -0.078167217
H     -1.005280459     4.225647167    -0.196225838
H     -0.923308469     5.390781924     0.772504606
O      3.036162531    -4.064300913    -0.248791002
H      2.093925608    -4.147042263    -0.405133879
H      3.402548125    -4.914672427    -0.450312503
O      4.566416741    -1.830656249    -1.065316777
H      4.003016377    -2.564930699    -0.818634908
H      5.425242317    -2.032420898    -0.721155548
O      0.267413912    -4.481158946    -0.698786786
H     -0.063781869    -4.383363466    -1.581503751
H     -0.347252619    -4.008978474    -0.139569821
H      3.047602512     2.392874886     0.012167458
O      3.671313467     0.894662464    -1.146021430
H      3.976010652    -0.023413343    -1.086849751
