46
VERBATIM publisher-SI Cartesian coordinates (angstrom); 2-HEAQ·5H2O second-ESIPT S0 path point 3; CASSCF(12,10)/6-31G*; c5cp03442f1.pdf
C      0.765187196    -1.270732484    -0.663654200
H      0.828532866    -2.333871089    -0.570887217
C     -0.451624809    -0.669014814    -0.475642990
C     -1.619797435    -1.505646547    -0.125379074
O     -1.512500372    -2.682271007     0.139127079
C     -2.937121585    -0.830855600    -0.091488431
C     -4.083186312    -1.591127919     0.064519375
H     -3.988525503    -2.657619523     0.143614317
C     -5.328321387    -0.980814293     0.117413116
H     -6.216726801    -1.575717532     0.229857788
C     -5.417097591     0.408200036     0.033589205
H     -6.378679646     0.887883005     0.083312506
C     -4.268797063     1.183604694    -0.106609620
H     -4.338951975     2.251743277    -0.163433626
C     -3.012480245     0.570988692    -0.180602160
C     -1.788719397     1.369638162    -0.345351272
O     -1.979650871     2.683521966    -0.291848198
C     -0.587601762     0.775184857    -0.565640096
C      0.612802018     1.509795064    -0.909542214
H      0.531641209     2.560907724    -1.104805666
C      1.806488412     0.913143043    -1.034244193
H      2.672649813     1.484558781    -1.301462601
C      1.958898138    -0.518548920    -0.904500764
C      3.295940680    -1.104713510    -0.852379027
C      3.531614536    -2.489490079    -1.462354239
H      4.436686218    -2.906238430    -1.040755693
H      2.715233955    -3.184856279    -1.314911942
H      3.684518238    -2.369269215    -2.530330455
O      2.789857070    -2.069555599     1.752948195
H      2.015890533    -2.647719569     1.740472936
H      2.600316686    -1.354267987     2.347040225
O      0.605249278    -3.659566806     1.658104688
H     -0.151291947    -3.328474698     1.171919396
H      0.762186904    -4.535113054     1.332958453
O      2.615713262     3.729894727     0.448817233
H      0.901600581     3.893610187     0.818986339
H      3.173482249     4.482839904     0.577163291
O      4.177890592     1.558931410     1.067851954
H      3.132867752     2.950907393     0.683311463
H      5.081857940     1.791630792     1.226701677
O     -0.033081405     3.983353124     1.032812604
H     -0.123930311     3.695894819     1.930584631
H     -1.216187179     3.166695096     0.053852541
H      2.974271410    -1.407398790     0.387069218
O      4.315409789    -0.342632257    -0.812871781
H      4.214358218     0.902808407     0.351407737
