46
VERBATIM publisher-SI Cartesian coordinates (angstrom); 2-HEAQ·5H2O second-ESIPT S0 path point 29; CASSCF(12,10)/6-31G*; c5cp03442f1.pdf
C      0.809342783    -1.257589431    -0.668999288
H      0.830365751    -2.329591743    -0.647087904
C     -0.459746527    -0.667928317    -0.429087516
C     -1.550400808    -1.493190424    -0.056331923
O     -1.368368454    -2.727264202     0.278098513
C     -2.849700455    -0.860082827    -0.055671237
C     -4.055873527    -1.625085382     0.094251979
H     -3.968957063    -2.691143653     0.169578925
C     -5.286121999    -1.022604929     0.107200431
H     -6.185101793    -1.607513559     0.198938974
C     -5.385346268     0.395722927     0.004323116
H     -6.351848137     0.870493220     0.030492209
C     -4.258175015     1.153524031    -0.134153862
H     -4.317061007     2.220771464    -0.218130472
C     -2.959038979     0.540642260    -0.195288379
C     -1.815332609     1.349304802    -0.402622665
O     -1.997830475     2.697314521    -0.500578229
C     -0.598181301     0.754002400    -0.575900732
C      0.596135348     1.509347819    -0.909002999
H      0.509796930     2.560715908    -1.090698949
C      1.803102641     0.912980395    -1.023839764
H      2.663444992     1.495573044    -1.285891301
C      1.941634783    -0.529925484    -0.909088477
C      3.291995579    -1.105556008    -1.095674221
C      3.505088267    -2.551689879    -1.486998436
H      4.390315459    -2.923832462    -0.986487550
H      2.665492606    -3.197695352    -1.273584231
H      3.684258439    -2.581949589    -2.555788998
O      2.592885064    -2.019175364     1.792308467
H      1.533745208    -2.855041658     1.731427196
H      2.546985652    -1.409491332     2.520835830
O      0.652089143    -3.464383858     1.657929821
H     -0.203367613    -3.123295946     1.108281445
H      0.783185329    -4.394176230     1.491228700
O      2.646211080     3.787348220     0.447864697
H      0.829147686     3.966553683     0.840864025
H      3.227727791     4.519475369     0.594567343
O      4.216380554     1.501633674     1.197805044
H      3.112695335     3.001261847     0.729953363
H      5.118568284     1.760149000     1.330285727
O     -0.089300916     4.058812837     1.096798945
H     -0.147972603     3.713645736     1.976395643
H     -1.349882028     3.175719208     0.015860358
H      2.536779776    -1.488496680     0.995224065
O      4.284349238    -0.415704474    -0.928524411
H      4.224067531     0.957987169     0.411416625
