46
VERBATIM publisher-SI Cartesian coordinates (angstrom); 2-HEAQ·5H2O second-ESIPT product-side S0 point 38; CASSCF(12,10)/6-31G*; c5cp03442f1.pdf
C      0.856438600    -1.246563398    -0.708974348
H      0.910631917    -2.315765644    -0.680926038
C     -0.424448721    -0.653313548    -0.428381600
C     -1.521662631    -1.434153563    -0.068095335
O     -1.395432648    -2.751012433     0.190793469
C     -2.798368754    -0.861080760    -0.025329995
C     -3.993263291    -1.659224718     0.133564592
H     -3.898190015    -2.725985387     0.197800315
C     -5.222202790    -1.069490456     0.143839590
H     -6.112209479    -1.668070238     0.224394554
C     -5.346555353     0.355583604     0.046079868
H     -6.320591701     0.810826823     0.083729098
C     -4.239456497     1.132076647    -0.098885489
H     -4.308182741     2.197554198    -0.179867358
C     -2.929819685     0.538044804    -0.173499862
C     -1.804730549     1.340304184    -0.393026101
O     -1.987647470     2.679169462    -0.489292115
C     -0.567046162     0.754237354    -0.576143794
C      0.603760141     1.527222644    -0.926000458
H      0.505612136     2.583503026    -1.063797705
C      1.810081462     0.939263391    -1.094062638
H      2.669116745     1.532097456    -1.336648744
C      1.947358253    -0.500826788    -1.005691254
C      3.309672062    -1.081415238    -1.197615953
C      3.521321985    -2.525379409    -1.590837052
H      4.408572365    -2.894075058    -1.093072711
H      2.685653476    -3.168139834    -1.357596406
H      3.687151678    -2.565278426    -2.661985923
O      2.817270934    -1.931316843     1.785776049
H      1.484675263    -3.077791328     1.748019131
H      2.663180832    -1.379890220     2.542058652
O      0.668627096    -3.578889802     1.703605925
H     -0.643978861    -2.932690921     0.765706626
H      0.898273025    -4.456859540     1.436006800
O      2.654728585     3.810910499     0.471645547
H      0.825648517     3.988376545     0.880577692
H      3.243668149     4.540459983     0.603498479
O      4.253365175     1.543541480     1.151661676
H      3.132500233     3.025531979     0.738867279
H      5.163251137     1.745432354     1.324408118
O     -0.096571007     4.025647526     1.137895077
H     -0.127156094     3.701298353     2.027319851
H     -1.348374021     3.161490214     0.037041793
H      2.575910402    -1.392445495     1.044065760
O      4.287741561    -0.379199983    -1.023205100
H      4.262709942     0.968821443     0.389900541
