46
VERBATIM publisher-SI Cartesian coordinates (angstrom); 2-HEAQ·5H2O second-ESIPT S0 path point 11; CASSCF(12,10)/6-31G*; c5cp03442f1.pdf
C      0.777993873    -1.266201547    -0.654113600
H      0.819831055    -2.335506267    -0.560651738
C     -0.456314335    -0.680564933    -0.467433770
C     -1.606696002    -1.504946224    -0.119033330
O     -1.502233058    -2.703538312     0.166973099
C     -2.918488105    -0.831084443    -0.091442779
C     -4.092904742    -1.601639226     0.069052033
H     -3.994555245    -2.665745891     0.151335373
C     -5.327403423    -0.994292856     0.116055654
H     -6.219331888    -1.582547993     0.228701039
C     -5.415647116     0.408976910     0.025276822
H     -6.381707810     0.882134040     0.072086251
C     -4.277926895     1.176253379    -0.113832998
H     -4.343199225     2.245404702    -0.176366890
C     -2.999667981     0.560065314    -0.182962773
C     -1.795242485     1.359539206    -0.346445856
O     -1.985664712     2.698523977    -0.310458344
C     -0.600548062     0.770482598    -0.564570698
C      0.609386656     1.515166615    -0.910654984
H      0.524653966     2.563037228    -1.113826196
C      1.811386561     0.912794813    -1.022252063
H      2.676330749     1.482607916    -1.300570106
C      1.969653052    -0.532227522    -0.865398576
C      3.297056593    -1.072672780    -0.953606978
C      3.535231468    -2.493992657    -1.439298235
H      4.441152543    -2.908395277    -1.014601864
H      2.714074597    -3.185023541    -1.292726779
H      3.689957921    -2.394553188    -2.508817590
O      2.774365771    -2.009763883     1.674370003
H      2.001095250    -2.656235761     1.706694632
H      2.607380610    -1.332989124     2.336386570
O      0.630637012    -3.632982338     1.669406368
H     -0.154697869    -3.309485422     1.187768065
H      0.758200828    -4.523030948     1.361542798
O      2.612404735     3.728962825     0.445513247
H      0.893732107     3.891174601     0.808404721
H      3.165466050     4.484915798     0.570629772
O      4.172817423     1.547698464     1.081887487
H      3.125706217     2.953072421     0.681437874
H      5.073198193     1.800415706     1.230191686
O     -0.035183534     3.994801704     1.026631724
H     -0.133867191     3.697720390     1.919437274
H     -1.224808085     3.162102292     0.047610993
H      2.879706790    -1.562698824     0.764806342
O      4.310043429    -0.370606395    -0.795646850
H      4.204969624     0.914918904     0.355086742
