46
VERBATIM publisher-SI Cartesian coordinates (angstrom); 2-HEAQ·5H2O TRCT2 minimum; CASSCF(12,10)/6-31G**; c5cp03442f1.pdf
C      0.688947359     1.277114621     0.196591172
H      0.694849596     2.309468826    -0.101152897
C     -0.484335100     0.616208914     0.270727563
C     -1.745756083     1.291903077    -0.052809342
O     -1.819211944     2.479125825    -0.274910824
C     -2.970653965     0.447437307    -0.092820060
C     -4.200869913     1.066600244    -0.409459251
H     -4.209177790     2.121017711    -0.604101630
C     -5.353396715     0.320971038    -0.466248232
H     -6.289928737     0.790590043    -0.706891321
C     -5.307043699    -1.066195910    -0.211140547
H     -6.210979248    -1.646964644    -0.255617112
C     -4.122748011    -1.669365389     0.091526669
H     -4.067809887    -2.721979319     0.290170213
C     -2.934972051    -0.911448131     0.155520414
C     -1.668840826    -1.615401978     0.493225461
O     -1.651243116    -2.824544951     0.661681406
C     -0.481737272    -0.813899920     0.612311090
C      0.785752796    -1.424681439     1.043019465
H      0.764746714    -2.434313164     1.398598673
C      1.940989832    -0.727067410     0.976726621
H      2.860817464    -1.197359360     1.261916989
C      1.964782197     0.654841579     0.497560343
C      3.254225823     1.354244168     0.114517974
C      4.364211880     1.211851186     1.151896091
H      5.227199943     1.778044796     0.820844085
H      4.050775571     1.597783355     2.117099905
H      4.673035410     0.179576236     1.277422888
O      2.149906402     4.647432270    -0.388741081
H      1.242855892     4.901808630    -0.235563909
H      2.300160624     4.790728965    -1.311495235
O     -0.652210975     5.093778986    -0.057393204
H     -1.025255795     4.225195419    -0.180325982
H     -0.933889379     5.377380722     0.799966783
O      3.055197121    -4.066401662    -0.250740059
H      2.114328841    -4.146683031    -0.407850129
H      3.419433611    -4.912242217    -0.466867118
O      4.586199180    -1.819280806    -1.035643316
H      4.023721850    -2.557519095    -0.803346786
H      5.430647598    -2.006888042    -0.654231395
O      0.286622161    -4.478692218    -0.707024906
H     -0.042201381    -4.379592057    -1.588657963
H     -0.328211473    -4.009776087    -0.147697207
H      3.033877707     2.405070543    -0.002133139
O      3.660311999     0.902361845    -1.152482991
H      3.975098440    -0.012254305    -1.084920498
