24
W1928755646-p | trans S2 | verbatim publisher ESI coordinates
N      0.0000000000     0.1951561910     0.5700957550
C      0.0000000000     0.0951955865     1.9248272038
C      0.0000000000     1.2558481414     2.7170890209
C      0.0000000000     1.1422068845     4.0883834008
C      0.0000000000    -0.1056384275     4.7128943040
C      0.0000000000    -1.2507775097     3.9187027481
C      0.0000000000    -1.1694087988     2.5436493307
H      0.0000000000     2.2162934848     2.2423772235
H      0.0000000000     2.0360073817     4.6825351421
H      0.0000000000    -0.1818131295     5.7817790303
H      0.0000000000    -2.2204654414     4.3791062539
H      0.0000000000    -2.0537067537     1.9383297293
N      0.0000000000    -0.1951519481    -0.5700960883
C      0.0000000000    -0.0951938565    -1.9248263234
C      0.0000000000    -1.2558478087    -2.7170868802
C      0.0000000000    -1.1422088735    -4.0883813104
C      0.0000000000     0.1056353493    -4.7128946609
C      0.0000000000     1.2507756316    -3.9187049833
C      0.0000000000     1.1694093970    -2.5436514127
H      0.0000000000    -2.2162925157    -2.2423736682
H      0.0000000000    -2.0360105390    -4.6825313363
H      0.0000000000     0.1818080430    -5.7817795194
H      0.0000000000     2.2204629375    -4.3791098677
H      0.0000000000     2.0537086231    -1.9383335682
