24
W1928755646-l | CI-cis S1/S2 | verbatim publisher ESI coordinates
N     -1.9801121243    -0.0596441587     0.6515393997
C     -0.8674143348     0.1504795983     1.3656811627
C     -0.8500264505    -0.2981570171     2.7135703089
C      0.3022868892    -0.3187112600     3.4301093229
C      1.5274960600     0.1503133494     2.8536802089
C      1.5397616727     0.6707336175     1.5807409428
C      0.3508013131     0.6794511057     0.7698117587
H     -1.7747116666    -0.6585634850     3.1176642318
H      0.3049533045    -0.6873490305     4.4370211230
H      2.4246180248     0.1396376301     3.4414514442
H      2.4376276239     1.0954371978     1.1750174564
H      0.2562223219     1.4962639370     0.0774301133
N     -1.9801106612     0.0596519808    -0.6515570595
C     -0.8674104954    -0.1504783684    -1.3656919874
C     -0.8500157525     0.2981491867    -2.7135841873
C      0.3023035490     0.3187042409    -3.4301126266
C      1.5275047435    -0.1503190528    -2.8536649981
C      1.5397643156    -0.6707280606    -1.5807203174
C      0.3507970599    -0.6794452765    -0.7698023144
H     -1.7746987817     0.6585489670    -3.1176891241
H      0.3049784594     0.6873403307    -4.4370252887
H      2.4246299945    -0.1396518809    -3.4414307117
H      2.4376282648    -1.0954232147    -1.1749829948
H      0.2562159125    -1.4962545687    -0.0774166829
