24
W1928755646-c | TS-inv-rot S0 | verbatim publisher ESI coordinates
N     -0.3580494788     1.3552840414     0.6694632624
C     -0.1148525761     0.4991921025     1.8037905724
C     -0.3593878875     1.0677859052     3.0496300408
C     -0.1465670703     0.3328348158     4.1974041040
C      0.3203707844    -0.9789220294     4.1119222994
C      0.5709939482    -1.5417110073     2.8577019844
C      0.3565513049    -0.8093670662     1.7096140236
H     -0.7139811000     2.0786557630     3.0901033798
H     -0.3396392429     0.7711955799     5.1572917774
H      0.4885430115    -1.5520115503     5.0027993148
H      0.9339309727    -2.5490661813     2.7876422001
H      0.5532240683    -1.2386698287     0.7469719244
N     -0.2334521901     0.9108296705    -0.4560203061
C     -0.1171543556     0.3856838788    -1.6977063455
C     -0.8409477647    -0.7698606710    -2.0634001360
C     -0.7434454119    -1.2621247835    -3.3449264353
C      0.1095385497    -0.6733599956    -4.2757430145
C      0.8455538276     0.4519786667    -3.9074360801
C      0.7185921798     1.0018105471    -2.6531738815
H     -1.4748074586    -1.2413933718    -1.3386640027
H     -1.3181969420    -2.1259367597    -3.6192974966
H      0.1968595739    -1.0790196482    -5.2642054008
H      1.5025996992     0.9152334545    -4.6182941368
H      1.2503494775     1.8910021972    -2.3803075211
