24
W1928755646-t | CI-rot-a S2/S3 (called CI-rot S2/S3 in ESI) | verbatim publisher ESI coordinates
N      0.7635010872    -1.2676450119     0.5332495632
C      0.2472275114    -0.5243846781     1.6025662903
C      1.1171446705    -0.3108727231     2.6720963685
C      0.7012430950     0.4126587001     3.7744826184
C     -0.5910095375     0.9220754214     3.8251474266
C     -1.4637346415     0.7019585157     2.7681328785
C     -1.0513792468    -0.0170150869     1.6582688559
H      2.1048320046    -0.7227918763     2.6148733515
H      1.3759600173     0.5753460622     4.5922258655
H     -0.9155005770     1.4803256068     4.6818436641
H     -2.4641032736     1.0870645062     2.8089596806
H     -1.7323703794    -0.1977084697     0.8508733427
N     -0.0135253098    -1.4976047674    -0.5215518532
C      0.0477983878    -0.6089202483    -1.6106422643
C     -0.7865458185    -0.9012967459    -2.7303883650
C     -0.8096804186    -0.0596209935    -3.8257855881
C      0.0254949636     1.1547067485    -3.8386111075
C      0.8938128528     1.4200857285    -2.6792969754
C      0.9108135343     0.6099716296    -1.6313715017
H     -1.3828693211    -1.7912767236    -2.6948541703
H     -1.4260306209    -0.2805354793    -4.6741928099
H     -0.0080159516     1.8344958668    -4.6641277868
H      1.5223442982     2.2895222081    -2.7051463362
H      1.5461449075     0.7943878504    -0.7894818594
