24
W1928755646-u | rot S3 | verbatim publisher ESI coordinates
N     -1.4405062692    -0.2912143035     0.5388806103
C     -0.5934284940    -0.0442668693     1.6123828490
C     -0.7652160331    -0.8909267901     2.7753060969
C      0.0358112006    -0.7596061285     3.8449246524
C      1.0937787175     0.2308827161     3.8586102015
C      1.2546640826     1.0855683744     2.7049195111
C      0.4591089530     0.9571776079     1.6284956387
H     -1.5550120291    -1.6143927659     2.7413431347
H     -0.0991395438    -1.3850281126     4.7058040501
H      1.7385846672     0.3310794327     4.7070036187
H      2.0201754525     1.8372157948     2.7225593400
H      0.5755755965     1.6016135561     0.7811030838
N     -1.3311284199     0.5046845266    -0.5289677362
C     -0.5583858256     0.1489105916    -1.5963167814
C     -0.5819506820     1.0157048553    -2.7300658738
C      0.1812090975     0.7367008544    -3.8276381913
C      0.9917674981    -0.4078451640    -3.8593267956
C      1.0195285648    -1.2714429541    -2.7698735509
C      0.2658616794    -1.0148967603    -1.6485596113
H     -1.2129184032     1.8806632061    -2.6855623712
H      0.1595293934     1.3940294313    -4.6750625650
H      1.5846739153    -0.6190776094    -4.7275526225
H      1.6314647325    -2.1520308915    -2.8052554262
H      0.2740774086    -1.6899528874    -0.8170280564
