24
W1928755646-o | CI-trans S1/S2 | verbatim publisher ESI coordinates
N     -0.0001163568     0.5512588296     0.3805899657
C     -0.0000592469     0.2262902582     1.7218724623
C     -0.0004834446     1.2990298063     2.6469601109
C     -0.0003978822     1.0597826041     4.0037463623
C      0.0001162644    -0.2457968322     4.4864095090
C      0.0005392840    -1.3124543078     3.6020021616
C      0.0004603339    -1.0946493265     2.2328674632
H     -0.0009443620     2.2934593780     2.2501104811
H     -0.0007432399     1.8829909601     4.6913140664
H      0.0001228281    -0.4247983439     5.5442446606
H      0.0008994828    -2.3172901287     3.9770009077
H      0.0006987460    -1.9015067993     1.5342194131
N     -0.0001416924    -0.5512620569    -0.3805903027
C     -0.0000963545    -0.2262914719    -1.7218726557
C     -0.0005150124    -1.2990297261    -2.6469615820
C     -0.0003800506    -1.0597808520    -4.0037477029
C      0.0001369140     0.2457989765    -4.4864092423
C      0.0005405014     1.3124554171    -3.6020004353
C      0.0004166673     1.0946487435    -2.2328661164
H     -0.0009346278    -2.2934598731    -2.2501132846
H     -0.0006575413    -1.8829884590    -4.6913163377
H      0.0002025260     0.4248018301    -5.5442441700
H      0.0009535109     2.3172916986    -3.9769979444
H      0.0006761805     1.9015053899    -1.5342170973
