24
W1928755646-i | cis S1 | verbatim publisher ESI coordinates
N      0.0000000000     1.1295158505     0.6055838093
C      0.0000000000     0.4405980397     1.7815786050
C      0.0000000000     1.2014485221     2.9747759332
C      0.0000000000     0.5782853310     4.1943193106
C      0.0000000000    -0.8180827543     4.2858088165
C      0.0000000000    -1.5734809963     3.1132149336
C      0.0000000000    -0.9715377200     1.8783620379
H      0.0000000000     2.2697495867     2.8952488348
H      0.0000000000     1.1706363553     5.0889724980
H      0.0000000000    -1.3007107366     5.2428674850
H      0.0000000000    -2.6453162673     3.1712271628
H      0.0000000000    -1.5728657635     0.9952925759
N      0.0000000000     1.1295219283    -0.6055862358
C      0.0000000000     0.4406004317    -1.7815798004
C      0.0000000000     1.2014481897    -2.9747785291
C      0.0000000000     0.5782823459    -4.1943206194
C      0.0000000000    -0.8180859335    -4.2858069702
C      0.0000000000    -1.5734815300    -3.1132114250
C      0.0000000000    -0.9715352964    -1.8783598803
H      0.0000000000     2.2697494184    -2.8952536611
H      0.0000000000     1.1706313701    -5.0889751311
H      0.0000000000    -1.3007160783    -5.2428645547
H      0.0000000000    -2.6453169351    -3.1712212274
H      0.0000000000    -1.5728612671    -0.9952890086
