24
W1928755646-e | TS-planar-inv S0 | verbatim publisher ESI coordinates
N      0.0000000000     1.3680729567     0.6562104691
C      0.0000000000     0.5061082048     1.8182638792
C      0.0000000000     1.1849650039     3.0358547871
C      0.0000000000     0.4708036466     4.2360267044
C      0.0000000000    -0.9231479913     4.2140206805
C      0.0000000000    -1.5939366205     2.9855131358
C      0.0000000000    -0.8854701601     1.8014166930
H      0.0000000000     2.2567058726     3.0219578249
H      0.0000000000     0.9959570381     5.1717231524
H      0.0000000000    -1.4801022104     5.1309587100
H      0.0000000000    -2.6671403897     2.9648010275
H      0.0000000000    -1.4064911623     0.8685273932
N      0.0000000000     0.9150996620    -0.4835817774
C      0.0000000000     0.3383505517    -1.7455654938
C      0.0000000000     1.1919938645    -2.8502971288
C      0.0000000000     0.6805671813    -4.1368820566
C      0.0000000000    -0.6936925682    -4.3332126081
C      0.0000000000    -1.5524843417    -3.2431727464
C      0.0000000000    -1.0406776050    -1.9552158909
H      0.0000000000     2.2475761305    -2.6712235872
H      0.0000000000     1.3459258811    -4.9778132991
H      0.0000000000    -1.0932595465    -5.3290061160
H      0.0000000000    -2.6142664088    -3.3946329833
H      0.0000000000    -1.7069571939    -1.1196890226
