24
W1928755646-n | CI-rot-b S1/S2 | verbatim publisher ESI coordinates
N      0.8736555515     0.5073629842     0.4593048264
C      0.3779702357     0.1846696223     1.6711962948
C      0.4419237084     1.1989159813     2.7033346606
C     -0.0809580338     0.9649445659     3.9285160673
C     -0.6854327151    -0.2879423426     4.2312190044
C     -0.7291660831    -1.2987613601     3.2579779682
C     -0.2110861025    -1.0994916129     2.0117872857
H      0.9055798852     2.1312003096     2.4499693165
H     -0.0406755516     1.7225639193     4.6868220803
H     -1.0837523910    -0.4653667931     5.2103568348
H     -1.1615754237    -2.2485367150     3.5078929592
H     -0.1954250730    -1.8833110033     1.2845425763
N      0.8741842124    -0.5059111306    -0.4593236032
C      0.3776613666    -0.1842297663    -1.6710361596
C      0.4424079770    -1.1987236145    -2.7027360013
C     -0.0804670463    -0.9654423955    -3.9281466283
C     -0.6852657223     0.2870093351    -4.2312730840
C     -0.7296444740     1.2980872941    -3.2586752538
C     -0.2116864059     1.0994893795    -2.0121296477
H      0.9063989280    -2.1307258795    -2.4489467766
H     -0.0397672069    -1.7233009410    -4.6861801964
H     -1.0837087931     0.4638064864    -5.2104830778
H     -1.1624563268     2.2475562777    -3.5090196580
H     -0.1966275919     1.8835144944    -1.2851043187
