24
W1928755646-v | trans S3 | verbatim publisher ESI coordinates
N      0.0000000000     0.6238910940     0.4100651433
C      0.0000000000     0.2294959509     1.7115456013
C      0.0000000000     1.3043117099     2.6998292526
C      0.0000000000     1.0202628968     4.0604775555
C      0.0000000000    -0.3092143638     4.5062035757
C      0.0000000000    -1.3316017315     3.5615847306
C      0.0000000000    -1.0861638115     2.2014171651
H      0.0000000000     2.3082624113     2.3285230030
H      0.0000000000     1.8266428625     4.7686018733
H      0.0000000000    -0.5342358988     5.5542600765
H      0.0000000000    -2.3516621901     3.8988781014
H      0.0000000000    -1.8991903278     1.5099468199
N      0.0000000000    -0.4585159413    -0.4320750919
C      0.0000000000    -0.2153196496    -1.7261848386
C      0.0000000000    -1.3373702340    -2.6459005967
C      0.0000000000    -1.1193246917    -3.9816392206
C      0.0000000000     0.2153515712    -4.4735445524
C      0.0000000000     1.3198538002    -3.6251592434
C      0.0000000000     1.1405048181    -2.2646985437
H      0.0000000000    -2.3221885951    -2.2236782743
H      0.0000000000    -1.9350076751    -4.6758475977
H      0.0000000000     0.3722519731    -5.5349558735
H      0.0000000000     2.3073196184    -4.0416958160
H      0.0000000000     1.9461105173    -1.5633436952
