24
W1928755646-q | rot S2 | verbatim publisher ESI coordinates
N      1.1910193638     0.3102261277     0.5349439958
C      0.4882622380     0.0916546660     1.7059139732
C      0.7317886526     0.9425358868     2.7929597963
C      0.0412614101     0.7670762119     3.9694076920
C     -0.8948135058    -0.2622834759     4.0981843633
C     -1.1248016661    -1.1161420792     3.0197238125
C     -0.4468728794    -0.9494953482     1.8318475122
H      1.4584324761     1.7221787100     2.6824445692
H      0.2281287352     1.4248444888     4.7960840285
H     -1.4263071978    -0.3984884269     5.0193370756
H     -1.8355680288    -1.9146864032     3.1129848127
H     -0.6138936533    -1.6106044272     1.0049806255
N      1.1910433934    -0.3101272545    -0.5349445544
C      0.4882636128    -0.0916182608    -1.7059130613
C      0.7318806750    -0.9424595036    -2.7929698527
C      0.0413412874    -0.7670531929    -3.9694185833
C     -0.8948394150     0.2622116580    -4.0981844803
C     -1.1249158219     1.1160338311    -3.0197139587
C     -0.4469764030     0.9494387532    -1.8318364205
H      1.4586016555    -1.7220313841    -2.6824617703
H      0.2282814117    -1.4247889076    -4.7961043924
H     -1.4263451596     0.3983736707    -5.0193365866
H     -1.8357586691     1.9145108042    -3.1129686578
H     -0.6140683037     1.6105197104    -1.0049613878
