24
W1928755646-d | TS-rot S0 | verbatim publisher ESI coordinates
N      0.4199987058    -1.5839917730     0.5897548848
C      0.1017403426    -0.6478466899     1.5260494207
C      0.9503574432    -0.6048680386     2.6733712977
C      0.7212461800     0.2914194953     3.6795658481
C     -0.3634485792     1.1770432753     3.6052956579
C     -1.2171201186     1.1384580123     2.5064868945
C     -1.0047729312     0.2481842218     1.4779743005
H      1.7678020725    -1.2970023179     2.7112599635
H      1.3707393301     0.3168910208     4.5328899404
H     -0.5402005722     1.8762845548     4.3989665593
H     -2.0557466774     1.8061217283     2.4618150926
H     -1.6841349294     0.2147272913     0.6516788032
N     -0.4199981527    -1.5839918836    -0.5897549907
C     -0.1017400900    -0.6478466405    -1.5260494435
C     -0.9503569040    -0.6048685751    -2.6733715014
C     -0.7212460117     0.2914190803    -3.6795660799
C      0.3634481488     1.1770435255    -3.6052955998
C      1.2171194141     1.1384588150    -2.5064866292
C      1.0047725429     0.2481848826    -1.4779740590
H     -1.7678010769    -1.2970033855    -2.7112603278
H     -1.3707389675     0.3168901460    -4.5328903286
H      0.5401999253     1.8762849106    -4.3989664580
H      2.0557455386     1.8061230604    -2.4618146266
H      1.6841343811     0.2147283906    -0.6516784166
