24
W1928755646-j | TS-rot S1 | verbatim publisher ESI coordinates
N      0.9379440359     0.3256435793     0.5396234524
C      0.3713916520     0.1179725949     1.7905970438
C      0.6767450654     1.0421113541     2.8014738933
C      0.1605015271     0.8748414368     4.0638684041
C     -0.6584111566    -0.2199760678     4.3561055007
C     -0.9486626550    -1.1470960082     3.3525175742
C     -0.4393351563    -0.9916874892     2.0841289461
H      1.3108036169     1.8730152282     2.5640688900
H      0.3890191211     1.5898539392     4.8303409726
H     -1.0558736525    -0.3499292145     5.3434462433
H     -1.5756022938    -1.9901629115     3.5709382827
H     -0.6506866963    -1.7055109531     1.3133214269
N      0.7428217858    -0.3379651593    -0.4849789289
C      0.3065710757    -0.1242238312    -1.7796096895
C      0.6587526554    -1.0401922561    -2.7766310305
C      0.2036662227    -0.8608742103    -4.0639019546
C     -0.5945516373     0.2361930946    -4.3915766491
C     -0.9351416332     1.1505636359    -3.3954405828
C     -0.5036216956     0.9744868582    -2.0982010330
H      1.2834866982    -1.8723044707    -2.5204014939
H      0.4756804405    -1.5691360061    -4.8226099425
H     -0.9388184811     0.3759731866    -5.3972564589
H     -1.5433612729     2.0014155930    -3.6358380528
H     -0.7683530132     1.6735947694    -1.3300735515
