24
W1928755646-r | TS-rot-a S2 | verbatim publisher ESI coordinates
N     -0.4937988766     1.0564463984     0.5281716165
C     -0.1889606606     0.4467297895     1.7402855379
C      0.4701690064     1.2014881857     2.7161974329
C      0.7878554645     0.6288719069     3.9261658410
C      0.4452195499    -0.6984755593     4.1989657744
C     -0.2276653557    -1.4404791645     3.2277187911
C     -0.5456491941    -0.8821469903     2.0083628042
H      0.7208839416     2.2200534531     2.4982483515
H      1.3004576710     1.2108814187     4.6675318710
H      0.6897030364    -1.1386721149     5.1454606814
H     -0.5065049204    -2.4570226056     3.4297218668
H     -1.0801250405    -1.4432488975     1.2683539035
N     -0.9917917567     0.6520906694    -0.5289330107
C     -0.4003646493     0.2365471136    -1.7461522729
C     -0.0811066225     1.1902236668    -2.7195082013
C      0.4563095231     0.7866383839    -3.9236842577
C      0.6641604083    -0.5644074281    -4.1879257613
C      0.3288186034    -1.5116874782    -3.2272740299
C     -0.2004229230    -1.1223627535    -2.0128701508
H     -0.2595166483     2.2260306587    -2.5114087466
H      0.7094551739     1.5217977464    -4.6630219148
H      1.0762183131    -0.8727571671    -5.1288314301
H      0.4826024602    -2.5547272855    -3.4265452462
H     -0.4631018377    -1.8506396250    -1.2722832814
