24
W1928755646-k | TS-planar-inv S1 | verbatim publisher ESI coordinates
N      0.0000567191     1.1986685690     0.6535867104
C      0.0000077745     0.4808927290     1.8178146604
C      0.0001961274     1.2126426704     3.0277182299
C      0.0001453936     0.5421788453     4.2475357087
C     -0.0000832706    -0.8551187305     4.2889155361
C     -0.0002756478    -1.5777742101     3.0817216081
C     -0.0002403025    -0.9370958823     1.8745679571
H      0.0003731800     2.2826963382     2.9783872093
H      0.0002889016     1.1062440931     5.1602710249
H     -0.0001160612    -1.3730115012     5.2275949945
H     -0.0004579580    -2.6508665576     3.1087496754
H     -0.0004236601    -1.5045630706     0.9675094278
N      0.0001056298     0.9391529805    -0.5409053236
C      0.0000489382     0.3650376715    -1.7854190325
C     -0.0002665239     1.2087148367    -2.9029639391
C     -0.0002630605     0.6694771028    -4.1748616246
C      0.0000093234    -0.7075772890    -4.3630876119
C      0.0002645695    -1.5415576057    -3.2554191963
C      0.0002973841    -1.0213562583    -1.9712777389
H     -0.0004721779     2.2688999096    -2.7514663593
H     -0.0005036370     1.3271271959    -5.0225348504
H      0.0000031326    -1.1201350557    -5.3526344688
H      0.0004482201    -2.6067583328    -3.3854312074
H      0.0005022178    -1.6798827945    -1.1288369716
