24
W1928755646-m | CI-rot-a S1/S2 | verbatim publisher ESI coordinates
N     -1.8061814152    -0.2302994854     0.6130922638
C     -0.8106064523     0.0755528892     1.4701626471
C     -0.8235921117    -0.5599608901     2.7599186194
C      0.2484144893    -0.4721252701     3.5728563012
C      1.4163201124     0.2671604557     3.1724121093
C      1.4477257691     0.9121718451     1.9769724194
C      0.3419631901     0.8564783235     1.0945718429
H     -1.7007885786    -1.1138566553     3.0282937404
H      0.2429210134    -0.9560880426     4.5299458118
H      2.2553791934     0.3162006839     3.8386550132
H      2.3055396436     1.4909532047     1.6944086760
H      0.3063061192     1.4978486570     0.2408408165
N     -1.8061807858     0.2303050444    -0.6130951476
C     -0.8106437544    -0.0755801045    -1.4701921026
C     -0.8235706538     0.5600236788    -2.7599090803
C      0.2484545435     0.4722019971    -3.5728190634
C      1.4163241920    -0.2671540877    -3.1723863500
C      1.4476764051    -0.9122384880    -1.9769865570
C      0.3419011874    -0.8565420092    -1.0946020992
H     -1.7007378135     1.1139727288    -3.0282682657
H      0.2430131675     0.9562339648    -4.5298730610
H      2.2554029171    -0.3161765274    -3.8386062536
H      2.3054558017    -1.4910762174    -1.6944380259
H      0.3061947723    -1.4979500981    -0.2409027295
