24
W1928755646-a | trans S0 | verbatim publisher ESI coordinates
N     -0.0000002584     0.4761975572     0.3945359199
C      0.0000016133     0.1781634530     1.7872213143
C     -0.0000431852     1.2736724775     2.6359314022
C     -0.0000459828     1.0857647860     4.0105215159
C     -0.0000031946    -0.1994280957     4.5308021010
C      0.0000444789    -1.2966614591     3.6757901950
C      0.0000461540    -1.1131758542     2.3040861473
H     -0.0000780341     2.2563270882     2.2081506323
H     -0.0000848108     1.9339678566     4.6668892042
H     -0.0000049920    -0.3487777136     5.5933147807
H      0.0000807982    -2.2904250056     4.0798421488
H      0.0000847961    -1.9490322236     1.6355311542
N     -0.0000000374    -0.4656960273    -0.3944957528
C      0.0000019782    -0.1760860514    -1.7813608900
C     -0.0000420565    -1.2837563061    -2.6299801717
C     -0.0000464841    -1.0967054273    -4.0160958567
C     -0.0000044138     0.1944791495    -4.5374022346
C      0.0000443856     1.3008046888    -3.6702647186
C      0.0000467476     1.1213388907    -2.3088032039
H     -0.0000755853    -2.2647344005    -2.1983986760
H     -0.0000806686    -1.9453266485    -4.6721799098
H     -0.0000042003     0.3481135168    -5.5992106109
H      0.0000820252     2.2933219614    -4.0778541290
H      0.0000842983     1.9587403887    -1.6419527136
