24
W1928755646-h | trans S1 | verbatim publisher ESI coordinates
N     -0.0000004397     0.3795817526     0.4834405461
C      0.0000000025     0.1712663192     1.8310104285
C     -0.0000004599     1.2919047293     2.6866383373
C     -0.0000009150     1.1046859112     4.0677117910
C      0.0000007452    -0.1832909368     4.6076597073
C      0.0000003094    -1.2947839992     3.7442112627
C      0.0000006518    -1.1334463814     2.3871461390
H     -0.0000002112     2.2744847111     2.2590664400
H     -0.0000028575     1.9593780743     4.7161745611
H      0.0000026481    -0.3270082363     5.6701245306
H     -0.0000003736    -2.2852189410     4.1574189584
H      0.0000016947    -1.9778292975     1.7277903878
N     -0.0000002031    -0.4126669768    -0.4774199670
C     -0.0000000913    -0.1769188414    -1.8455056030
C     -0.0000006086    -1.2769631959    -2.7011653532
C     -0.0000006026    -1.0811190603    -4.0704884439
C      0.0000003354     0.2028264491    -4.6012951952
C      0.0000005889     1.2940440449    -3.7438479533
C      0.0000006089     1.1166854547    -2.3699980816
H     -0.0000006793    -2.2637672582    -2.2836134861
H     -0.0000016009    -1.9321056900    -4.7239178430
H      0.0000013465     0.3492713465    -5.6635989233
H      0.0000007002     2.2901741833    -4.1430335202
H      0.0000015366     1.9566168771    -1.7056621707
