24
W1928755646-f | CI-rot S0/S1 | verbatim publisher ESI coordinates
N      0.1702732367    -1.3162993400     0.6194980406
C      0.0266343105    -0.5034143936     1.7631082386
C     -0.6413834443     0.7280260103     1.7669295308
C     -0.7196699742     1.4575364837     2.9317002270
C     -0.1443394171     0.9761839604     4.1102590595
C      0.5107153063    -0.2571778115     4.1045159930
C      0.5915601408    -0.9936314644     2.9448531121
H     -1.0930959044     1.0903894645     0.8648982195
H     -1.2298007855     2.4014418995     2.9342874177
H     -0.2108657958     1.5481578946     5.0149570852
H      0.9505369491    -0.6332264749     5.0077206768
H      1.0850888684    -1.9446300865     2.9186276165
N     -0.2903728551    -0.9822678462    -0.4762776462
C     -0.0998166353    -0.4246670112    -1.6980292126
C     -1.0680971655    -0.5974541898    -2.7085333517
C     -0.8825221160    -0.0183643711    -3.9402075463
C      0.2628970376     0.7298319934    -4.2188097225
C      1.2257831459     0.8914920735    -3.2234427556
C      1.0574070091     0.3380175978    -1.9758512588
H     -1.9389168122    -1.1841545281    -2.4955306331
H     -1.6280672061    -0.1531883616    -4.7002232619
H      0.4021124571     1.1705585816    -5.1859557412
H      2.1139471007     1.4584860240    -3.4276539183
H      1.7979550113     0.4658654786    -1.2112773486
