24
W1928755646-s | TS-rot-b S2 (printed as TS-rot-a S2 in ESI) | verbatim publisher ESI coordinates
N      0.1582644003     0.2088669294     0.5700898397
C      0.0547131659     0.0985290631     1.9163956383
C     -0.5521907892     1.1282404291     2.6643354583
C     -0.6093153914     1.0350636859     4.0352355437
C     -0.1113598513    -0.0845466525     4.7023911497
C      0.4730631808    -1.1111337927     3.9591348543
C      0.5844870310    -1.0239314734     2.5913197298
H     -0.9569016420     1.9760414477     2.1491115606
H     -1.0625339710     1.8309217821     4.5947181274
H     -0.1781295238    -0.1563633029     5.7697490232
H      0.8570273050    -1.9795351072     4.4596691425
H      1.0550053691    -1.8018972592     2.0237316771
N      0.1582453157    -0.2089652979    -0.5700947186
C      0.0547062357    -0.0985709560    -1.9163983818
C      0.5844939557     1.0239124061    -2.5912712566
C      0.4730835586     1.1111706285    -3.9590847608
C     -0.1113447455     0.0846217018    -4.7023881950
C     -0.6093167738    -1.0350101066    -4.0352807956
C     -0.5521999959    -1.1282457352    -2.6643842068
H      1.0550137442     1.8018519003    -2.0236482663
H      0.8570610192     1.9795890389    -4.4595793904
H     -0.1781061552     0.1564828171    -5.7697435628
H     -1.0625403110    -1.8308408117    -4.5947984851
H     -0.9569205197    -1.9760656242    -2.1491989569
