24
W1928755646-b | cis S0 | verbatim publisher ESI coordinates
N      0.6152646078    -0.0165051799     1.8431040148
C      1.4641108918     0.0565926111     0.6942658635
C      2.6067454658    -0.7492187805     0.7224828593
C      3.5340110882    -0.6703419747    -0.2956629494
C      3.3636205644     0.2456740191    -1.3291105825
C      2.2537521348     1.0827814533    -1.3320752053
C      1.3046042102     0.9946570468    -0.3326630719
H      2.7432703521    -1.4204329765     1.5472055432
H      4.3985082771    -1.3053265294    -0.2787481239
H      4.0935611154     0.3172287682    -2.1117482568
H      2.1314001500     1.8069365619    -2.1141487218
H      0.4572830135     1.6505062830    -0.3384386862
N     -0.6152646098     0.0165051778     1.8431040160
C     -1.4641108893    -0.0565926132     0.6942658622
C     -2.6067454639     0.7492187701     0.7224828653
C     -3.5340110902     0.6703419643    -0.2956629414
C     -3.3636205670    -0.2456740177    -1.3291105832
C     -2.2537521350    -1.0827814394    -1.3320752188
C     -1.3046042073    -0.9946570374    -0.3326630803
H     -2.7432703482     1.4204329618     1.5472055523
H     -4.3985082841     1.3053265115    -0.2787481085
H     -4.0935611223    -0.3172287654    -2.1117482537
H     -2.1314001456    -1.8069365347    -2.1141487478
H     -0.4572830078    -1.6505062708    -0.3384386978
