24
W1928755646-g | CI-inv S0/S1 | verbatim publisher ESI coordinates
N      0.0000000000    -0.2417509647     0.5531958788
C      0.0000000000    -0.1112497348     1.8792376905
C      0.0000000000     1.1733152102     2.4961231455
C      0.0000000000     1.2658483196     3.8610546313
C      0.0000000000     0.1247179818     4.6717492593
C      0.0000000000    -1.1376055696     4.0623843350
C      0.0000000000    -1.2720049947     2.7022732067
H      0.0000000000     2.0504626613     1.8800099710
H      0.0000000000     2.2384522828     4.3152066836
H      0.0000000000     0.2146307983     5.7393655725
H      0.0000000000    -2.0202282435     4.6730629088
H      0.0000000000    -2.2391573609     2.2405030718
N      0.0000000000     0.2421659015    -0.5532148671
C      0.0000000000     0.1114372816    -1.8792710556
C      0.0000000000     1.2720234396    -2.7024928578
C      0.0000000000     1.1373824763    -4.0625942648
C      0.0000000000    -0.1250222568    -4.6717232935
C      0.0000000000    -1.2660242179    -3.8608148164
C      0.0000000000    -1.1732359173    -2.4959098977
H      0.0000000000     2.2392589580    -2.2409012277
H      0.0000000000     2.0199060771    -4.6734167997
H      0.0000000000    -0.2151475143    -5.7393214575
H      0.0000000000    -2.2386999975    -4.3148118719
H      0.0000000000    -2.0502629386    -1.8796246280
