15
Phenylnitrile imine 2A; verbatim CASSCF(14,12)/cc-pVTZ coordinates from RSC ESI
C 0.926264 -1.297509 -0.004389
C 2.274352 -0.956604 0.027750
C -0.050070 -0.301296 -0.029579
C 2.655956 0.380729 0.028136
C 1.685287 1.379854 -0.002304
C 0.338585 1.043377 -0.029410
C -1.457385 -0.678318 -0.067310
N -2.505236 -0.127278 0.034339
N -3.645575 0.325799 -0.088460
H -4.090039 0.376941 0.810268
H -0.409373 1.811892 -0.053865
H 1.976111 2.412668 -0.004152
H 3.696092 0.643320 0.050288
H 3.018679 -1.728992 0.049167
H 0.626273 -2.326874 -0.010226
