15
Phenylnitrile imine 2P; verbatim CASSCF(14,12)/cc-pVTZ coordinates from RSC ESI
C -2.050104 -1.202526 -0.000109
C -0.665504 -1.199167 0.000231
C 0.026149 0.012291 0.000253
C -0.688647 1.213915 0.000144
C -2.073136 1.191402 -0.000046
C -2.754714 -0.019605 -0.000217
C 1.457527 0.022532 0.000106
N 2.616551 0.030844 -0.000008
N 3.880473 -0.150284 -0.000247
H 4.313580 0.753756 -0.000123
H -0.121949 -2.123296 0.000331
H -2.572931 -2.139609 -0.000229
H -3.827457 -0.031482 -0.000427
H -2.617775 2.115637 -0.000111
H -0.162057 2.148019 0.000169
