16
VERBATIM twist-boat cyclohexane-1,4-diyl to bicyclo[2.2.0]hexane transition structure, CASSCF(6,6)/6-31G*, scanned SI p. 4
C -1.068786 -0.618590 -0.456461
C -1.283626 0.676023 0.288957
C 0.000000 1.542591 0.062607
C 1.068786 0.618590 -0.456461
C 1.283626 -0.676023 0.288957
C 0.000000 -1.542591 0.062607
H -1.920597 -1.069679 -0.941494
H -2.162450 1.198190 -0.071830
H -1.449299 0.481158 1.349964
H 0.317970 2.060781 0.969838
H -0.211966 2.307512 -0.677106
H 1.920597 1.069679 -0.941494
H 2.162450 -1.198190 -0.071830
H 1.449299 -0.481158 1.349964
H -0.317970 -2.060781 0.969838
H 0.211966 -2.307512 -0.677106
