3329
4-thiothymidine T1-MIN; verbatim full 3329-atom QM/MM coordinates from ACS SI
N 0.7104725 -0.3319884 -0.8954587
C -0.2961988 -0.3900107 -1.9260252
C -0.4083809 0.6707490 -2.8189357
C 0.4508757 1.7442814 -2.6623488
N 1.5611312 1.6234147 -1.7665915
C 1.7364190 0.5753512 -0.9670045
C -2.1196163 -1.2500176 1.6977709
H -2.7970280 -1.3885902 0.8521416
H -2.6501191 -1.5182416 2.6142842
C -0.8836327 -2.1501824 1.5545674
H -1.2067893 -3.1654623 1.7797394
O -0.3861215 -2.1927589 0.1988789
C 0.8351488 -1.4243226 0.1335293
H 1.6592391 -2.1115199 -0.1736388
H -0.9943059 -1.2008244 -1.9099015
C -1.4498441 0.5856650 -3.9048178
H -2.0127867 1.5070307 -3.9633578
H -0.9914662 0.3864479 -4.8645732
H -2.1510848 -0.2085171 -3.7048184
H 2.0093877 2.5367785 -1.4593778
O 2.7979372 0.4015878 -0.3519016
C 0.2601492 -1.7416989 2.4665634
H -0.0791105 -1.1742024 3.3343123
C 1.1155375 -0.8829914 1.5604299
H 0.7374188 0.1409670 1.6294056
O 0.9348732 -2.9146726 2.9792703
O 2.5208673 -0.8203395 1.8842808
H 2.8785022 -0.3220401 1.0848478
H 1.0050565 -3.5933640 2.2631699
O -1.8232945 0.1446192 1.7922166
H -2.6241280 0.5364362 2.2233224
S 0.6413234 3.0124883 -3.8933806
O -13.2220037 2.3610007 -3.2990009
H -13.2790037 2.6980008 -4.1580012
H -14.1220040 2.0690006 -3.0750009
O 1.2560004 -15.7570044 -1.4500004
H 0.9160003 -15.7940044 -2.3930007
H 0.5620002 -15.1610042 -1.1050003
O 4.3364125 -3.2448772 0.1576977
H 4.7123424 -3.0641088 -0.7306968
H 4.1280604 -4.1852344 0.0502746
O 3.0790009 2.5840007 16.4080046
H 3.6480010 3.3420009 16.1760045
H 2.2090006 2.9160008 16.3270046
O 1.8570005 19.4680054 -2.9100008
H 1.0590003 18.9360053 -2.9230008
H 2.5190007 18.9570053 -3.4510010
O -15.6390044 0.8660002 -2.5550007
H -16.3330046 0.5060001 -2.0000006
H -16.2250045 0.9490003 -3.3350009
O 3.5110010 -14.7870041 0.0920000
H 2.7030008 -15.1600042 0.4820001
H 3.3340009 -15.1010042 -0.8120002
O 2.2820006 0.2210001 -19.1820054
H 2.3510007 0.7400002 -18.3970051
H 2.0940006 -0.7160002 -18.8820053
O -8.0660023 -16.6670047 1.8350005
H -8.3200023 -17.4640049 1.3500004
H -8.0450023 -15.9360045 1.1740003
O -6.9251380 3.2537141 2.1015366
H -7.1800487 4.0235254 1.5550082
H -6.7001252 3.7084187 2.9345089
O 11.1770457 -0.2647604 0.8622057
H 11.6645385 -0.7404273 1.5734514
H 11.2021810 0.6366285 1.2081955
O -14.4160040 3.3100009 -0.3490001
H -13.4700038 3.5680010 -0.3200001
H -14.8050041 3.4420010 -1.2650004
O 7.3190020 -14.5080041 -1.1390003
H 6.8100019 -14.4100040 -0.3040001
H 7.2660020 -13.5580038 -1.5450004
O 7.9200022 0.9820003 -17.6480049
H 8.0760023 0.0290000 -17.4910049
H 8.8040025 1.3000004 -17.3330049
O 2.3373638 3.9279724 -0.9369725
H 2.7877961 4.2782454 -0.1329165
H 1.8707243 4.7464963 -1.2268263
O 0.9807626 0.3637999 11.3285895
H 0.0952467 0.3765088 11.7409564
H 0.8751417 1.0879878 10.6647469
O -2.3940007 -14.7170041 -1.4440004
H -1.8350005 -15.4330043 -1.8090005
H -1.7480005 -14.1310040 -0.9410003
O -3.6560010 5.1860015 -17.6390049
H -3.6850010 4.3930012 -18.2250051
H -3.7500010 4.9520014 -16.7040047
O -6.3747324 1.9515515 -1.2130989
H -5.8636478 2.7078410 -0.8557199
H -6.2325588 1.3002421 -0.4924144
O 10.8570030 -15.2270043 -2.7490008
H 11.7160033 -15.1520042 -2.2770006
H 10.9020031 -14.5920041 -3.4690010
O 13.3630037 3.8550011 1.6850005
H 13.4890038 2.9280008 2.1630006
H 14.2750040 4.1680012 1.5700004
O -9.1833534 -1.7267212 -5.3390447
H -8.5590361 -1.3194508 -5.9795857
H -9.9508215 -1.8577788 -5.9404025
O -8.9420025 -5.9920017 12.3410035
H -8.6070024 -5.6600016 13.2350037
H -8.5070024 -5.3400015 11.7390033
O 9.7480311 -3.4041459 -5.0039767
H 10.5881628 -3.8956033 -4.9144552
H 9.8116884 -3.1466534 -5.9507934
O 9.7860027 0.1920001 14.5570041
H 8.8640025 0.3450001 15.0050042
H 9.7020027 0.9100003 13.8840039
O -4.5520013 0.3510001 -18.6490052
H -4.7830013 -0.5720002 -18.8840053
H -3.6500010 0.4980001 -19.0090053
O -8.8917977 1.8659722 0.8093919
H -8.1764122 2.2805556 1.3369403
H -8.7501916 0.9240138 0.9945788
O 8.5450024 -1.4890004 -16.5020046
H 9.2190026 -2.2050006 -16.6950047
H 8.2660023 -1.7790005 -15.5900044
O 10.8369399 0.4564253 -1.9031744
H 10.2774266 -0.2450355 -2.2984951
H 10.9473924 0.1388345 -0.9864483
O -18.7610053 -6.3820018 -1.4570004
H -18.3970051 -7.2910020 -1.4930004
H -18.0480051 -5.8470016 -0.9820003
O -11.7108780 4.2130196 -0.6093374
H -11.5072005 3.2566221 -0.5037125
H -11.4101666 4.3455669 -1.5285438
O 1.1000832 -10.5360372 0.1575633
H 0.6911274 -11.1066207 0.8464466
H 1.3642129 -11.1941032 -0.5103243
O 0.7219720 5.4733891 2.3270158
H 0.1916837 5.3300948 1.5120118
H 1.6369354 5.3900813 1.9746128
O 0.6400002 6.1370017 17.3010048
H 0.3720001 6.3830018 18.1220051
H 1.4950004 5.7600016 17.5540049
O -16.8320047 3.3460009 1.1310003
H -17.4500049 3.7350010 0.5020001
H -16.0480045 3.2180009 0.5580002
O 1.8020005 -18.0550051 1.7210005
H 2.0870006 -17.7560050 2.5900007
H 1.6380005 -19.0430053 1.9460005
O 0.1790001 3.1610009 -17.0310048
H 0.0250000 4.0810011 -17.4470049
H 0.7140002 3.4640010 -16.2400045
O -1.0164149 4.9041513 0.2071779
H -1.2599742 3.9503593 0.1384188
H -1.8967125 5.3244739 0.1165197
O 17.7410050 1.7230005 -1.9780006
H 18.3480051 1.1930003 -2.4890007
H 17.0520048 1.1080003 -1.7660005
O -6.5590018 -6.9800020 -12.4030035
H -5.9000017 -6.2920018 -12.4010035
H -6.2540018 -7.6100021 -13.1090037
O -7.7693270 -5.0769541 3.0463740
H -7.3780507 -4.3083408 3.5099401
H -8.3087444 -4.6093009 2.3722604
O -6.9880020 11.7150033 -13.8220039
H -6.9770020 12.4740035 -13.3070037
H -6.1750017 11.7680033 -14.2810040
O -7.5300021 16.3790046 -0.7660002
H -6.8580019 15.8030044 -0.3520001
H -7.4810021 15.8290044 -1.6200005
O 9.3881202 -6.6871629 1.9812650
H 10.2581798 -7.0443835 2.2426402
H 9.2263666 -6.0459439 2.7047231
O 10.9890031 12.2640034 -1.2580004
H 10.7160030 13.1540037 -0.9770003
H 10.6630030 12.2160034 -2.1780006
O -15.0590042 -3.7000010 -1.5480004
H -15.7440044 -3.6270010 -2.2360006
H -15.0710042 -2.6890008 -1.2730004
O 2.2470006 -2.2720006 -18.1530051
H 1.8080005 -3.1660009 -17.9430050
H 2.9350008 -2.5990007 -18.7430052
O 3.2036178 -6.3923414 1.9896190
H 2.9548157 -7.3376523 1.9589173
H 2.3529300 -5.9583222 1.7754618
O -0.0380000 -4.3410012 17.5470049
H 0.2170001 -4.4020012 16.6370047
H -0.8050002 -4.9430014 17.6360049
O 3.5720010 17.8050050 -4.1120012
H 4.5470013 17.7970050 -4.1570012
H 3.4240010 16.9230047 -3.6500010
O -2.7680008 -5.8890016 -17.9160050
H -1.9280005 -5.6120016 -18.3510051
H -2.7260008 -6.8960019 -18.0800051
O -5.4411734 -6.6815244 -1.4654505
H -5.7586260 -6.8920686 -2.3671903
H -5.7859287 -7.4815158 -1.0139629
O -7.7830022 -4.7940013 14.3360040
H -7.4310021 -4.8730014 15.2010043
H -7.2610020 -3.9900011 14.1550040
O -3.8890011 15.0050042 -2.1220006
H -4.1890012 15.9380045 -2.2300006
H -4.2450012 14.5910041 -2.8410008
O 15.2830043 -2.7450008 -4.4390012
H 15.8410044 -1.9120005 -4.3270012
H 14.4610040 -2.5930007 -3.9380011
O -14.7820041 -7.0280020 -2.1460006
H -14.5000041 -6.6220019 -1.3420004
H -14.0330039 -7.5740021 -2.2810006
O -13.0630037 13.3900037 -2.9660008
H -12.4810035 12.9610036 -3.6420010
H -13.2990037 14.1460040 -3.5320010
O 4.4459581 -5.4931362 -1.7716238
H 5.2698685 -5.4882653 -1.2384829
H 4.7154072 -6.0612765 -2.5203264
O 2.8160008 -1.7670005 16.3250046
H 2.9320008 -2.1720006 17.2220048
H 3.2180009 -2.3680007 15.6650044
O 6.1610017 17.4020049 -3.8660011
H 6.4530018 16.6980047 -3.2620009
H 6.3600018 17.0880048 -4.7370013
O -4.9510014 -2.3400007 -18.9020053
H -5.3340015 -3.1830009 -18.9740053
H -4.4070012 -2.4870007 -18.1140051
O -8.4100469 -0.9795504 1.1863881
H -8.2328214 -0.7609577 2.1266704
H -7.5916997 -1.4774684 0.9787107
O -4.1510012 19.0830053 0.4430001
H -3.8220011 19.3080054 -0.4300001
H -5.1130014 19.2780054 0.3800001
O 12.7100036 0.2510001 -4.0510011
H 12.5370035 -0.7410002 -3.7980011
H 12.0320034 0.6590002 -3.5060010
O -2.2080006 -18.0080050 -0.3020001
H -2.7660008 -18.8190053 -0.1540000
H -2.2990006 -17.7980050 -1.3060004
O -3.7340016 -2.2908967 -1.4731589
H -3.6953049 -3.1408944 -0.9849946
H -4.6283282 -2.3653530 -1.8789475
O -7.1420020 -1.3160004 17.3150048
H -6.4210018 -1.6400005 16.8060047
H -7.8430022 -1.1380003 16.5990046
O 18.1500051 -2.2520006 -1.7830005
H 18.9000053 -1.7270005 -1.6350005
H 17.9500050 -1.8280005 -2.6090007
O -7.7920022 -4.1490012 -12.5320035
H -7.8490022 -3.5440010 -13.2920037
H -8.6080024 -4.8160013 -12.6390035
O -9.8220644 -2.5490498 6.5659012
H -10.2833242 -1.7634563 6.2083514
H -10.5908205 -3.0666106 6.8808887
O -9.5630027 13.9430039 2.8650008
H -10.2170029 14.7090041 2.9770008
H -9.9800028 13.2980037 3.4970010
O 9.0130025 -4.6630013 -13.2630037
H 8.4100024 -4.7070013 -14.0780039
H 8.6090024 -5.3950015 -12.7530036
O 9.5425589 -5.1266940 4.2525416
H 8.9819703 -4.6495889 4.8976929
H 9.7534014 -5.9280585 4.7638590
O 8.8020025 16.7050047 4.7590013
H 7.8470022 16.7150047 4.4780013
H 8.9110025 15.7470044 4.8090013
O -3.5270010 -3.7980011 -14.1270040
H -2.6640007 -4.3430012 -14.1830040
H -4.0620011 -4.3400012 -13.5190038
O -4.9097029 -6.5678866 4.1449630
H -4.9162715 -5.6567632 3.7895246
H -5.3453383 -6.4789997 5.0139618
O -7.1440020 13.9400039 1.8020005
H -7.4750021 13.3210037 1.1560003
H -7.9300022 13.9510039 2.4060007
O 13.7900039 -5.3760015 -2.4890007
H 13.2940037 -5.6660016 -1.6650005
H 14.6620041 -5.1250014 -2.1140006
O 14.0230039 13.0250036 0.8850002
H 14.7370041 13.4770038 0.4480001
H 13.9180039 13.6090038 1.6030004
O -15.9460045 4.4580012 -2.4050007
H -16.4020046 3.9350011 -3.1320009
H -15.1900043 4.9850014 -2.7210008
O 2.2180006 -16.9780048 -5.1200014
H 1.8810005 -17.1470048 -6.0190017
H 2.2420006 -17.8190050 -4.6700013
O -0.0560000 -13.6800038 12.4980035
H 0.0220000 -14.4210040 13.1220037
H 0.8500002 -13.2740037 12.7570036
O -0.0356118 3.6396274 12.6698248
H 0.1445255 4.3858933 13.2830026
H -0.9919580 3.5025066 12.7651087
O -18.5520052 2.9300008 3.7940011
H -17.9840050 3.1780009 3.0810009
H -18.0630051 2.1400006 4.1940012
O -4.8240014 -16.7640047 0.4300001
H -4.8370014 -16.2180045 1.2170003
H -4.0400011 -16.4990046 -0.0160000
O -1.8070005 1.5020004 -17.4900049
H -2.0570006 1.2400003 -16.5590046
H -1.0580003 2.1260006 -17.4290049
O -2.5110007 19.0510053 2.6990008
H -3.1350009 19.1360054 1.8620005
H -3.0680009 19.3230054 3.4840010
O 16.4920046 3.9830011 3.3480009
H 17.3590049 3.7670011 2.8630008
H 16.4560046 4.8620014 2.8930008
O -14.8940042 -5.6620016 0.6570002
H -15.1510042 -4.9500014 0.0880000
H -14.7850041 -5.1440014 1.5240004
O 6.6339122 -5.5452047 -0.1433694
H 6.6366290 -5.1079380 0.7415652
H 7.5436097 -5.3186826 -0.4201082
O -5.2010015 -4.9240014 -18.4350052
H -5.4200015 -4.8350014 -17.5020049
H -4.4080012 -5.4010015 -18.3160051
O -6.0898689 -2.5071801 1.0339383
H -5.5747449 -3.0568740 1.6586526
H -6.4249511 -3.2224708 0.4392231
O -3.0720009 14.7530041 0.9880003
H -3.0890009 13.8330039 0.7280002
H -3.0300008 15.1750042 0.1050000
O 13.4170038 -2.4810007 -0.9530003
H 13.3060037 -3.3940009 -0.5410002
H 13.4510038 -1.9040005 -0.1890001
O -5.7220016 -15.3570043 2.6700007
H -6.0890017 -14.4810041 2.6190007
H -6.4090018 -15.8680044 2.2550006
O -4.2250012 5.3950015 -15.0470042
H -4.6400013 4.6080013 -14.5650041
H -3.2600009 5.2460015 -14.8950042
O -3.7639408 3.8626706 2.4004593
H -2.8299803 3.7763799 2.6893374
H -3.9941666 4.7319593 2.7935956
O 11.8810033 -14.1840040 2.1090006
H 11.3470032 -14.9260042 2.4310007
H 12.7990036 -14.5440041 2.0890006
O 16.6280047 8.2530023 3.2120009
H 17.4000049 7.7030022 3.2600009
H 17.1360048 9.0680025 3.3800009
O -6.3248648 3.3039183 -4.4930194
H -5.5676293 3.1703947 -3.8969179
H -5.9817920 3.9704383 -5.1171752
O -9.5660027 6.5370018 12.7180036
H -9.0680025 7.1420020 12.0870034
H -10.4390029 6.5470018 12.2640034
O 12.9370036 -13.8750039 -4.1800012
H 13.7530038 -13.9040039 -3.6610010
H 12.8400036 -12.8940036 -4.3910012
O 10.8938139 2.9702183 -2.9700600
H 11.5840319 3.2152878 -2.3186887
H 10.6626097 2.0835997 -2.6175578
O 7.2780020 3.6230010 15.3510043
H 7.1360020 3.9330011 16.2500045
H 6.9940020 2.6930008 15.4460043
O -14.5390041 -10.2520029 -0.3070001
H -14.8730042 -9.5330027 0.2280001
H -14.9120042 -10.9050031 0.3420001
O -9.7012725 6.1015788 3.7089804
H -10.2601924 6.0260896 2.9043705
H -9.0003972 6.6832345 3.3653239
O 7.7580022 -14.8240041 2.3460007
H 7.1890020 -15.5800044 2.3960007
H 7.0310020 -14.1660040 1.9950006
O 5.7946177 7.1181000 -1.3880148
H 4.8859817 7.2242079 -1.0291220
H 5.6822792 7.4946458 -2.2717933
O -10.9980787 -5.6098844 2.8542925
H -10.5145880 -4.8988495 2.3884884
H -10.3149944 -5.9534639 3.4599396
O -10.3060029 13.4760038 -0.2670001
H -10.6470030 14.0130039 0.4880001
H -9.7410027 12.7630036 0.1930001
O 7.2005610 -8.3975953 2.6778776
H 6.7297821 -8.3378547 1.8223407
H 8.0598782 -8.0047322 2.4242357
O 9.0340025 14.7620041 1.9870006
H 9.9980028 14.9100042 1.8300005
H 9.0750025 14.2920040 2.8740008
O -17.4190049 7.3950021 -0.0480000
H -16.8920047 7.8060022 -0.7210002
H -18.1870051 8.0560023 -0.0930000
O -0.4460001 -9.1550026 -17.4820049
H -0.4360001 -9.8370028 -16.7780047
H -1.3430004 -8.9670025 -17.6490049
O -1.1727557 -8.0779548 1.3579535
H -1.5683234 -7.1825071 1.4103367
H -0.5397906 -8.0167712 2.1027269
O -3.0990009 -9.1880026 16.4430046
H -3.7470010 -8.6730024 15.9640045
H -2.2920006 -9.1510026 15.8820044
O 1.5210004 14.0460039 0.0620000
H 2.4390007 13.8720039 0.3370001
H 1.1920003 14.4860041 0.8540002
O 15.3060043 -8.2090023 2.8280008
H 15.6150044 -9.1660026 2.8620008
H 15.4000043 -7.9880022 3.7690011
O 15.4460043 10.7520030 -0.1100000
H 16.0220045 11.1870031 0.5030001
H 14.6660041 11.3470032 -0.0430000
O -13.5510038 7.8710022 -5.9490017
H -12.6470035 7.4420021 -5.7960016
H -14.0260039 7.0720020 -6.3110018
O 3.4380010 -12.9130036 -4.9810014
H 4.2160012 -13.3870037 -4.6520013
H 3.4340010 -12.1870034 -4.3000012
O 1.6960005 -10.7140030 16.5440046
H 2.3710007 -10.5890030 15.8370044
H 1.9250005 -9.9760028 17.1230048
O 3.7962210 3.3428326 -3.7521284
H 2.8603553 3.0983755 -3.8803702
H 3.6938707 4.3068122 -3.6403871
O 0.6620002 5.4570015 14.6310041
H 1.4770004 6.0670017 14.6520041
H 0.5090001 5.4470015 15.5530044
O -10.9150031 -11.3250032 -0.5910002
H -11.3450032 -12.0570034 -0.9550003
H -11.1880031 -11.3930032 0.3100001
O -11.6666162 1.4908674 -0.6828768
H -11.9556829 1.1305033 0.1848581
H -12.4131466 1.2817936 -1.2636159
O 5.5280015 -14.0410039 -3.8830011
H 5.9610017 -13.2910037 -3.4380010
H 5.2830015 -14.5600041 -3.0940009
O 2.1830006 -12.2310034 12.2510034
H 2.5070007 -11.2960032 12.5190035
H 3.0830009 -12.6880036 12.2720034
O 2.2020006 5.3150015 -17.7290050
H 1.4090004 5.6970016 -18.1560051
H 2.3190006 5.9390017 -16.9560047
O 6.0186913 1.7086356 -2.9099550
H 5.3857639 0.9736673 -2.7535662
H 5.3921494 2.4341558 -3.0860379
O 4.6650013 4.5740013 15.3250043
H 5.4230015 4.8110013 15.8730044
H 4.0990011 5.3860015 15.2970043
O -13.1250037 -12.7670036 3.7570011
H -13.6670038 -12.7800036 4.5140013
H -12.2870034 -13.2400037 4.1270012
O -8.0230022 0.5440002 -16.5310046
H -8.2080023 -0.4560001 -16.4490046
H -8.2920023 0.6250002 -17.4190049
O -12.9070036 5.7040016 4.3420012
H -13.0100036 6.6160019 4.6610013
H -13.0750037 5.7980016 3.3940009
O 7.8080022 2.5930007 -13.0480037
H 7.4150021 1.9830006 -13.7350038
H 7.7250022 3.4740010 -13.4160038
O 3.9897990 4.5150496 5.2701228
H 3.0235316 4.5981437 5.1467960
H 4.1384177 5.2669200 5.8809041
O -17.4810049 3.1720009 -4.0950011
H -17.2990048 2.4780007 -4.7910013
H -18.3520051 2.9010008 -3.7370010
O -0.6370002 -19.4900055 -4.3850012
H -1.4890004 -19.3230054 -3.9520011
H -0.5220001 -18.6040052 -4.8050013
O 2.6186026 -0.0185898 -4.8383143
H 3.0941286 -0.0513848 -3.9794891
H 2.5518205 -0.9800882 -5.0284647
O -0.5362166 -2.3908432 12.3647095
H 0.0183356 -2.3180150 13.1661985
H -1.0150396 -1.5459751 12.4044640
O 15.1860043 -1.0580003 9.8340028
H 15.0100042 -0.7410002 8.9340025
H 14.6470041 -0.5070001 10.4560029
O -15.3760043 -1.4580004 -10.2100029
H -14.9430042 -0.5990002 -10.3270029
H -14.7790041 -1.7550005 -9.5160027
O 5.5778881 0.5926808 -8.0608136
H 5.2284404 0.9044036 -7.1989771
H 6.0652613 -0.2079058 -7.7768493
O -0.0949827 -3.7897890 10.1129110
H 0.2757063 -3.1328803 9.4931068
H -0.1767783 -3.2490484 10.9357688
O -10.3841625 2.0992466 6.4947202
H -9.7562502 2.6110502 5.9397386
H -10.4819097 2.6694798 7.2846086
O 5.7860016 1.3240004 -14.8120041
H 5.1400014 2.0170006 -15.1040042
H 6.3240018 1.3390004 -15.5550044
O 8.2998760 2.7275417 1.8576052
H 8.0605602 2.1825639 1.0716383
H 7.4840195 3.2464885 1.9533840
O -9.2608731 0.6302875 -3.9611819
H -9.4593636 0.4046161 -3.0212143
H -9.3456884 -0.2531922 -4.3753615
O 4.1701074 -0.2621934 -2.4947900
H 4.5637757 -1.1497659 -2.3600777
H 3.8017556 -0.0674246 -1.5864272
O 2.6450159 0.4332111 13.4935552
H 3.3031819 1.1510542 13.5778242
H 2.2265452 0.6390552 12.6310489
O -11.1510031 -0.3150001 -14.0320039
H -11.2490031 0.4060001 -14.6780041
H -11.9410033 -0.8500002 -14.3040040
O -14.8860042 0.1630000 2.9420008
H -15.8530044 0.1200000 3.1370009
H -14.4940041 -0.3660001 3.6630010
O 3.1910009 -16.4360046 4.5060013
H 3.4040010 -17.3870049 4.5080013
H 2.3860007 -16.3830046 5.0600014
O 5.2320015 -3.3520009 -14.8320042
H 5.0230014 -2.4060007 -14.7610041
H 4.4230012 -3.8390011 -14.6980041
O 4.7496347 -1.9653147 5.4152087
H 5.2798896 -1.2659017 4.9767133
H 4.4276704 -2.4227104 4.6109249
O -2.9520008 -17.9980050 -3.3370009
H -3.9040011 -18.0270050 -3.5310010
H -2.7520008 -17.1140048 -3.6600010
O -3.5431539 0.5147521 -1.3343265
H -3.5036923 -0.4543393 -1.4622654
H -4.2378956 0.5319795 -0.6409607
O 15.2030043 0.2980001 -5.2660015
H 14.8930042 0.5390002 -6.1010017
H 14.3110040 0.1440000 -4.8250014
O 12.3990035 -0.6230002 14.9750042
H 11.4190032 -0.3930001 14.9410042
H 12.4560035 -1.4670004 14.4680040
O -0.1460000 -13.7020038 -0.3430001
H 0.3940001 -13.1370037 -0.9680003
H 0.1420000 -13.2930037 0.4610001
O -1.2270003 6.6530019 -15.5920044
H -0.7210002 6.2200017 -14.9090042
H -0.9150003 7.5990021 -15.4790043
O -0.6299615 8.0355308 2.7024491
H 0.0536603 8.7183037 2.8784121
H -0.0971504 7.2202317 2.6564674
O 14.9960042 -8.3460023 -2.4940007
H 14.3790040 -9.1540026 -2.5750007
H 14.8970042 -8.1580023 -1.5010004
O 16.4060046 3.9830011 -1.4080004
H 15.6720044 3.7760011 -1.9390005
H 16.8300047 3.0720009 -1.4430004
O -5.4520015 0.8830002 -15.7750044
H -6.3210018 0.7800002 -16.1870045
H -5.0180014 0.5610002 -16.6070046
O 15.2660043 -0.4270001 -1.3780004
H 14.6800041 -1.1510003 -1.6490005
H 15.2620043 -0.4920001 -0.3600001
O -15.6860044 -8.2440023 1.4930004
H -15.3520043 -7.5590021 0.9070003
H -16.6100046 -7.9390022 1.7500005
O -13.2690037 9.3680026 0.8700002
H -14.2360040 9.4020026 0.9040003
H -13.1410037 8.4720024 0.6320002
O 0.1190246 -12.3393828 1.9976274
H -0.6747917 -12.8445260 2.2694611
H 0.6314153 -12.3725006 2.8339679
O 2.7280008 6.8740019 -15.5300043
H 3.7220010 6.9520019 -15.5790044
H 2.4020007 7.6210021 -14.9180042
O 4.5649211 1.7686510 0.8644451
H 5.1522420 0.9884438 0.8467569
H 3.8086678 1.3370480 0.3680846
O 18.1660051 5.8390016 -2.2490006
H 18.1290051 6.4940018 -1.4960004
H 17.6840049 5.0560014 -1.8200005
O -3.7130010 -15.7530044 -10.3330029
H -3.1880009 -16.1640045 -11.0710031
H -3.1930009 -16.0270045 -9.5500027
O -3.8460011 -16.0270045 4.6380013
H -4.4780013 -16.3200046 5.3410015
H -4.5150013 -15.5820044 3.9800011
O -2.1409695 0.5346791 -11.3635608
H -1.3144099 0.7920543 -10.9021838
H -2.3898637 1.3741993 -11.8032381
O -2.3481167 2.2644787 7.1570240
H -2.8525881 3.0168203 6.7862606
H -1.7952146 1.9889306 6.3944463
O -0.2950001 18.6790052 4.3190012
H -0.6480002 18.4000051 5.1700014
H -1.1730003 18.7250052 3.7710011
O 15.3150043 3.2070009 5.6350016
H 15.7300044 3.2660009 4.7690013
H 14.6130041 2.6240007 5.3120015
O -12.3620035 0.5440002 -7.8660022
H -13.3290037 0.8050002 -7.8110022
H -12.0380034 1.2490003 -7.2880020
O -15.5090043 -0.7790002 11.4150032
H -15.3490043 -1.4120004 10.7110030
H -15.0710042 -1.1920003 12.2390034
O 7.2246280 -1.2991068 -6.8304040
H 8.0725404 -1.7046542 -7.0874471
H 7.4955017 -0.7171230 -6.0887321
O 0.6261671 2.3819426 9.5924367
H -0.1914015 2.9145786 9.6273806
H 1.0737957 2.7724623 8.8189269
O -2.9591645 1.2813684 -14.6316612
H -3.8711271 1.2475892 -14.9881349
H -3.0550590 1.9137266 -13.8936427
O -6.6613168 4.9803851 4.2830130
H -5.7842603 5.3706321 4.0883922
H -6.8732418 5.4462108 5.1170676
O -4.3990012 16.5470046 5.4800015
H -4.5430013 16.0690045 4.6210013
H -5.3920015 16.6770047 5.6990016
O 9.7567113 1.8803686 4.1698606
H 9.3777503 2.4961156 4.8310853
H 9.3053684 2.1689514 3.3510002
O -13.6570038 5.6980016 -3.5030010
H -12.9960036 6.3340018 -3.7740011
H -13.9460039 5.2900015 -4.3330012
O 1.4660004 -12.3200034 -1.9990006
H 1.0270003 -11.8670033 -2.7730008
H 2.4040007 -12.0420034 -2.1590006
O 3.3444221 7.6078475 -0.3110179
H 2.7515047 7.9689722 -1.0065755
H 3.2782022 8.3248974 0.3579438
O -1.0910003 7.8050022 15.6270044
H -0.4980001 7.2150020 16.1290045
H -0.5700002 8.0020022 14.8010041
O -3.3280009 -11.7420033 -13.2320037
H -3.1460009 -11.4460032 -12.3520035
H -3.4140010 -10.8770030 -13.7060038
O -5.9520017 -13.6930038 6.5220018
H -6.3660018 -12.7940036 6.3720018
H -6.7990019 -14.2520040 6.6080018
O -3.2167007 2.9118338 -12.3082504
H -2.6755639 3.7272772 -12.2070971
H -4.0210810 3.1868385 -11.8221956
O -3.8609144 4.4948021 6.5563624
H -4.6455640 3.9061397 6.4461869
H -4.2363342 5.1529758 7.1771019
O 14.1310040 5.9080017 -11.9960034
H 14.2920040 5.9910017 -11.0520031
H 13.4300038 5.2050015 -12.0440034
O 14.1570040 7.5580021 3.9630011
H 14.5940041 6.9160019 4.5260013
H 14.9370042 7.9000022 3.5040010
O -12.2070034 -10.7100030 -6.8700019
H -11.5750032 -11.4460032 -6.7060019
H -11.9490033 -10.0620028 -6.1740017
O -12.7310036 -11.2510031 7.6670021
H -13.3770037 -11.3480032 8.3710023
H -12.3880035 -10.3550029 7.9180022
O -8.1370023 10.1770028 -2.6820008
H -7.4000021 10.6770030 -3.0430009
H -8.6900024 11.0070031 -2.5310007
O 5.6020016 -11.0070031 -8.4050024
H 4.7170013 -11.4730032 -8.2520023
H 5.5260015 -10.6520030 -9.2830026
O 6.1865189 -5.9663656 9.7118575
H 5.4445252 -5.4545005 9.3359251
H 5.8962937 -6.8677330 9.5136563
O 7.2926220 10.6040610 -6.3159533
H 7.0142499 10.1665073 -5.4846589
H 8.1761476 10.9185906 -6.0333227
O 5.7160016 13.2040037 12.0880034
H 4.9180014 13.4300038 12.6230035
H 5.2740015 12.9030036 11.2440031
O -3.7430559 -1.7598451 -5.5120555
H -4.4545570 -1.1167910 -5.7029980
H -3.3475166 -1.8881563 -6.3937738
O -4.5940013 1.8110005 14.8890042
H -4.2610012 1.2970004 15.6630044
H -5.3440015 2.3450007 15.1810042
O 15.6680044 0.4620001 -8.5420024
H 15.6040044 -0.4250001 -8.9570025
H 15.1020042 1.0870003 -9.0310025
O 11.6590033 2.6950008 11.8360033
H 10.7470030 2.3800007 12.1020034
H 11.7810033 3.2680009 12.5980035
O -10.3930029 -13.1260037 -6.5510018
H -9.7610027 -13.4480038 -5.8340016
H -9.9820028 -13.3590037 -7.4090021
O -10.9890031 -11.8530033 10.6610030
H -11.7020033 -12.4180035 10.2330029
H -11.5280032 -11.1860031 11.2030031
O -10.0010028 8.0530023 -8.0560023
H -9.8620028 7.6750021 -7.2150020
H -9.1740026 8.4140024 -8.1720023
O -12.9030036 5.0150014 7.0770020
H -12.8850036 5.1970015 6.1150017
H -13.6990038 5.3540015 7.4210021
O 11.5190032 -12.6940036 -8.2620023
H 10.8850030 -13.1220037 -7.7420022
H 10.9010031 -11.9900034 -8.5940024
O 6.6470019 -9.5540027 11.6620033
H 6.6750019 -10.2250029 12.4160035
H 7.6260021 -9.5820027 11.4440032
O 8.7203295 5.4972483 -8.8637414
H 9.2446933 6.3196954 -8.8653316
H 8.3782477 5.5146412 -7.9534933
O 8.2083794 6.2233054 7.7983378
H 8.1815754 6.1438388 6.8225327
H 9.1197742 6.5595153 7.9323067
O -8.8730025 -15.2040043 4.0870011
H -8.8990025 -14.3900040 3.5520010
H -8.6300024 -15.8630044 3.4230010
O -7.1799850 6.4278829 6.6399231
H -7.0904583 7.3298129 7.0211309
H -6.5428179 5.9720238 7.2249963
O 11.2520031 4.1300012 -15.6760044
H 10.5260029 4.6500013 -16.0550045
H 11.0990031 3.2770009 -16.1750045
O 9.9520079 4.2920945 0.2662914
H 9.1513997 4.5676243 -0.2247029
H 9.5381068 3.6874345 0.9154466
O -8.6640024 -9.5580027 -14.7320041
H -7.7770022 -9.9310028 -14.5880041
H -8.5040024 -8.6110024 -14.8890042
O -8.7700025 -12.6810035 3.0200008
H -7.8520022 -12.4880035 2.7990008
H -8.9810025 -11.7750033 3.1840009
O -5.8050016 6.9870020 -17.7680050
H -5.1110014 6.3140018 -17.8590050
H -5.2790015 7.7730022 -17.5660049
O -4.5869754 3.8624922 -0.2551012
H -4.2065774 4.7652739 -0.2795404
H -4.4432267 3.6712524 0.6969051
O 8.6020024 -16.7130047 -1.8570005
H 9.2420026 -16.0780045 -2.3150006
H 8.0480023 -16.0750045 -1.4410004
O 7.3950021 4.6560013 -14.5760041
H 8.0500023 5.0610014 -15.2450043
H 6.5860018 5.0650014 -14.9680042
O 11.6061268 7.1421325 -1.6807652
H 12.0849333 7.9435670 -1.3649607
H 10.7266847 7.4027844 -1.3411784
O -10.3120029 -11.9100033 6.3330018
H -11.1180031 -11.9670033 6.8060019
H -10.3590029 -10.9730031 6.0470017
O -8.7850025 5.0080014 -13.4550038
H -8.7190024 4.3340012 -14.1980040
H -8.9020025 5.8580016 -13.8040039
O -9.9060028 9.5040027 5.7030016
H -10.8300030 9.7960027 5.8150016
H -10.1180028 8.5080024 5.9710017
O 7.9020022 -12.7240036 8.5810024
H 7.8950022 -13.6060038 8.1620023
H 7.2710020 -12.2310034 8.0330022
O 9.9870028 5.2490015 -11.6770033
H 9.6680027 4.7340013 -10.9250031
H 9.3150026 5.9700017 -11.7230033
O 7.9569333 5.7921226 5.0629018
H 8.5058598 6.1965307 4.3535360
H 7.0810083 5.8443817 4.6615789
O 0.1590000 -13.2930037 -14.1310040
H 0.3560001 -12.4260035 -13.7110038
H -0.3970001 -13.6290038 -13.4270038
O -1.4910004 -14.8980042 5.5800016
H -2.0240006 -14.1940040 5.9490017
H -2.1530006 -15.6180044 5.3190015
O 2.1883284 1.0378106 -11.1583766
H 1.3036813 1.1719666 -10.7593258
H 2.1124770 0.0931549 -11.4160203
O -1.4790750 5.3839083 5.5274403
H -1.6878893 6.3390579 5.4425971
H -2.3018631 5.0787289 5.9701911
O 15.7830044 5.4940015 0.9350003
H 16.2160045 5.1390014 0.1040000
H 15.3810043 6.2900018 0.5780002
O -14.9660042 8.6900024 -1.5750004
H -15.8570044 8.8240025 -2.0170006
H -14.5230041 9.5650027 -1.7910005
O 2.2866431 -8.8921770 -4.1160813
H 1.9575199 -7.9708962 -4.1686784
H 2.1889095 -9.1752902 -5.0462583
O 0.0350000 -11.0440031 11.0450031
H -0.6740002 -11.1730031 10.4110029
H 0.0600000 -11.8970033 11.5290032
O 1.7809269 8.9261971 -2.1891113
H 2.0891200 9.3431034 -3.0226777
H 0.8869799 8.6171789 -2.4518174
O 0.0150000 7.6320021 11.1670031
H -0.9190003 7.4600021 11.2370031
H 0.2120001 7.8650022 12.0950034
O -5.3110015 -15.0220042 -1.6750005
H -5.6190016 -14.0870039 -1.7840005
H -4.3420012 -14.9340042 -1.9200005
O -3.8906946 2.9408660 -2.7622801
H -4.1388418 3.3770026 -1.9194528
H -3.8339653 2.0175953 -2.4425137
O -5.7810016 6.2460017 16.3830046
H -5.9470017 6.4520018 17.3130048
H -6.6050018 6.4950018 15.9140045
O 13.2810037 -10.4440029 -1.7990005
H 14.0060039 -11.0530031 -1.5890004
H 12.5760035 -11.1300031 -1.7170005
O 14.2670040 7.0230020 -2.5910007
H 14.7850041 7.1500020 -1.7530005
H 13.3500037 6.8040019 -2.2880006
O -14.5530041 -8.8390025 -6.8440019
H -13.8960039 -9.4220026 -7.3410021
H -14.5370041 -9.2200026 -5.9890017
O -11.0440031 9.3140026 11.1830031
H -10.8320030 9.0340025 10.2630029
H -10.3570029 9.9090028 11.4420032
O 3.4090010 -11.8860033 -7.4740021
H 3.0930009 -11.1060031 -7.0240020
H 3.4600010 -12.4940035 -6.7430019
O 2.0510109 -9.9444807 9.5773327
H 1.3316501 -10.2460251 10.1634706
H 1.7058976 -9.0857467 9.2685508
O 5.1648226 7.2844522 -6.7598911
H 4.7778900 7.4761625 -5.8829100
H 4.3561545 7.1906523 -7.3134736
O 2.8030008 9.1880026 11.3370032
H 3.6540010 8.7800025 11.5150032
H 2.4500007 9.2910026 12.2620034
O -14.2470040 -10.1500028 -4.3180012
H -14.0600039 -11.1130031 -4.0830011
H -13.3650037 -9.7120027 -4.1310012
O -15.6110044 9.9300028 -5.2900015
H -15.3270043 10.2290029 -4.3570012
H -14.7550041 9.4570026 -5.4920015
O -14.6430041 7.0770020 10.7770030
H -15.1190042 6.3810018 11.2910032
H -14.5760041 6.6880019 9.8620028
O 3.6032729 -10.9938891 -3.0173123
H 4.0995481 -10.4535370 -2.3759052
H 3.0924883 -10.2692949 -3.4508976
O 0.6770002 -8.8780025 12.5090035
H 1.5930004 -8.7060024 12.7050036
H 0.7570002 -9.7360027 12.1340034
O 3.3639819 12.7956061 -1.8913677
H 3.9397682 12.0707938 -2.2226064
H 3.7871383 12.9716345 -1.0274399
O 0.0510000 8.9590025 13.5990038
H 0.9530003 9.1110025 13.7460038
H -0.4840001 9.7170027 14.0220039
O -11.8190033 -2.2580006 -11.6470033
H -11.3130032 -1.8410005 -12.3960035
H -12.0570034 -3.0470009 -12.1200034
O -14.3210040 -3.2050009 10.3560029
H -13.5610038 -3.1730009 10.9660031
H -13.9120039 -3.9060011 9.7360027
O 7.6070021 -6.9860020 -12.1660034
H 7.2490020 -7.8740022 -12.1920034
H 7.9310022 -6.9890020 -11.2180031
O 5.8734139 -3.2618220 7.5869905
H 5.4910358 -2.7389983 6.8478035
H 5.0961254 -3.7948198 7.8600748
O 5.1670014 16.0490045 7.2770020
H 5.6440016 16.5010046 7.9590022
H 4.3080012 16.6110046 7.3420021
O -7.6550021 -15.8090044 6.5100018
H -6.9340019 -16.4110046 6.1460017
H -8.1250023 -15.5900044 5.7080016
O -5.7180016 3.4910010 -13.9580039
H -5.5340015 2.7290008 -13.4190038
H -6.4600018 3.0490009 -14.5340041
O -5.9683114 2.7897651 6.6193634
H -6.4839046 3.0086587 7.4270388
H -6.1974596 1.8533048 6.4817076
O 11.4880032 -12.1060034 3.7520011
H 11.8090033 -12.4800035 4.5900013
H 11.7610033 -12.8000036 3.1540009
O 12.1730034 3.7020010 -13.3150037
H 11.3020032 3.8760011 -12.9170036
H 11.9340033 3.9340011 -14.1990040
O 11.5480455 6.0175911 1.6939725
H 12.2291092 5.3433295 1.8875701
H 10.9746210 5.4998841 1.0933570
O -3.3940009 -9.1400026 -14.1780040
H -2.9130008 -8.5620024 -13.6380038
H -4.0980011 -8.5600024 -14.6410041
O -3.4265001 -4.9476003 -0.6782392
H -2.8077359 -5.2488206 -1.3763127
H -4.1769681 -5.5582563 -0.8511999
O -5.2770015 -6.7170019 17.0740048
H -6.0510017 -7.3190020 16.8490047
H -4.9820014 -7.1100020 17.9340050
O -2.5090007 9.6440027 -13.7350038
H -2.5800007 9.5430027 -14.6670041
H -2.6270007 10.6520030 -13.5730038
O -3.7730011 12.0210034 0.2040001
H -2.9660008 11.4660032 0.1700000
H -3.9030011 12.1610034 -0.7580002
O 17.2670048 -6.2800018 1.5500004
H 16.5510046 -5.6420016 1.5700004
H 16.8230047 -7.0980020 1.6770005
O -17.4310049 -2.4460007 4.9520014
H -17.1650048 -3.3950010 4.6550013
H -16.7400047 -2.4070007 5.5620016
O 1.7176283 -6.9740883 -10.0826255
H 1.4921975 -7.8604823 -9.7225841
H 1.2489038 -6.4061253 -9.4409225
O -0.8966175 -5.9268369 5.3857100
H -0.3035684 -6.2835761 4.6935827
H -1.5412610 -6.6692789 5.4171791
O 2.8050008 11.9890034 -11.0020031
H 2.6600007 11.3520032 -10.2760029
H 2.5890007 12.8020036 -10.6130030
O 2.3290007 15.2780043 2.7610008
H 1.8680005 14.8110041 3.4970010
H 1.7620005 16.0670045 2.7160008
O -12.5950035 -4.5360013 -12.7470036
H -13.1010037 -4.8940014 -11.9280033
H -13.1470037 -4.7490013 -13.4420038
O -13.6480038 -1.3910004 4.8870014
H -13.9720039 -2.0160006 5.4800015
H -12.8420036 -1.0100003 5.2930015
O 7.5570021 -5.0600014 -15.6130044
H 6.9850020 -4.4060012 -15.2240043
H 6.8980019 -5.6980016 -15.9830045
O 1.6695242 -5.1891161 6.6523504
H 1.3884098 -4.3212748 6.2951151
H 0.8359919 -5.6751091 6.5404460
O 5.9320017 16.0170045 4.7230013
H 5.5560016 15.9300045 5.6560016
H 5.9270017 16.9830048 4.7090013
O -11.2869211 2.9349319 -6.9964735
H -10.9073579 3.4015450 -7.7737038
H -10.5006328 2.8958122 -6.4163532
O -14.6530041 -0.2880001 8.3190023
H -14.4090040 0.3590001 7.5950021
H -15.1620042 0.2840001 8.8950025
O 4.0982589 -2.5931860 -10.6182555
H 4.7518573 -1.8636992 -10.7095969
H 4.6248126 -3.3570691 -10.9181036
O 4.6302992 0.3076651 8.8497049
H 4.3958365 1.2182562 9.1312062
H 4.2245112 -0.2308572 9.5553847
O 4.4250012 -8.5980024 -10.3310029
H 4.2610012 -7.8110022 -10.8910030
H 5.2650015 -9.1080025 -10.5760030
O 0.9997861 -1.9751850 8.2190712
H 0.8584447 -2.4750261 7.3853410
H 1.5934122 -1.2837863 7.8473473
O 0.4574956 11.9547205 -4.3825709
H 0.4578579 12.3811928 -5.2613537
H -0.4651748 11.6462701 -4.2999916
O -0.6720002 15.5460044 10.7860030
H 0.1620000 15.0540042 10.5560030
H -0.7680002 15.3170043 11.7760033
O -3.4040010 -2.2010006 -16.7250047
H -3.6370010 -2.2340006 -15.8120044
H -2.5390007 -2.6470007 -16.7910047
O -4.2272959 1.1868918 2.8684028
H -4.1925742 2.1518559 2.6800000
H -4.6282046 1.1859551 3.7470115
O -0.2500001 16.6230047 1.3770004
H -1.1300003 17.0220048 1.5520004
H -0.2680001 16.7100047 0.4480001
O 12.4480035 -5.1930015 0.0900000
H 12.3970035 -6.1390017 0.2170001
H 11.8490033 -4.9150014 0.8280002
O -4.9886891 -4.6731380 -4.3749255
H -5.8829554 -4.9134271 -4.6835962
H -5.1909886 -3.8592099 -3.8674409
O -8.8980025 -1.6510005 15.3000043
H -8.6730024 -1.2080003 14.4670040
H -9.5580027 -2.3640007 15.1210042
O -2.1740006 16.9150047 -6.5670018
H -2.5900007 17.4640049 -5.8890016
H -2.3570007 17.4950049 -7.3520021
O 17.4300049 -0.7820002 -4.3570012
H 16.7540047 -0.2330001 -4.8310014
H 18.2570051 -0.5430002 -4.8640014
O 12.7380036 -3.1410009 13.6830038
H 12.1430034 -3.7730011 13.2280037
H 13.4540038 -3.0880009 13.0100036
O -13.0890037 -0.4790001 -4.2080012
H -12.4790035 0.1370000 -4.6740013
H -13.5270038 -0.8840002 -4.9910014
O 2.6059463 -2.7175170 -5.3072373
H 3.4916130 -2.9205834 -5.6799614
H 2.6166518 -3.2290328 -4.4660477
O -1.5810004 -0.6090002 15.1950043
H -0.5700002 -0.7360002 15.0600042
H -1.6670005 -0.2550001 14.3020040
O 3.3130009 14.4290040 -6.0850017
H 3.3180009 15.0780042 -6.7960019
H 2.6360007 13.7900039 -6.4140018
O -17.2580048 0.6430002 4.6940013
H -17.3130048 -0.2610001 4.4270012
H -16.9860048 0.6040002 5.6270016
O 2.8925793 -1.6330972 -8.2185919
H 3.5892602 -2.0245562 -7.6555077
H 3.1904080 -1.9447035 -9.0936637
O -1.7573377 -1.3230970 5.2244233
H -1.4411084 -0.4167111 5.0122937
H -2.5061431 -1.0837443 5.8053880
O -0.0980000 15.9520045 8.1770023
H 0.7750002 15.5650044 8.4000024
H -0.5750002 15.7770044 9.0310025
O 17.6160049 -4.0290011 7.7500022
H 17.5400049 -3.2940009 8.4490024
H 17.4600049 -4.8100013 8.2780023
O -13.8010039 -1.0060003 -1.5750004
H -14.6110041 -0.4600001 -1.5780004
H -13.3990037 -0.7980002 -2.4230007
O 0.2420320 -4.5681700 -1.3261175
H -0.4455956 -5.1021055 -1.7789809
H -0.2667957 -3.7963846 -1.0302777
O 0.8350002 -1.4380004 14.5470041
H 1.2820004 -0.8150002 13.9080039
H 1.4770004 -1.3290004 15.2500043
O 0.5640002 16.0110045 -4.7950013
H 0.5120001 15.1770042 -5.2630015
H 1.1920003 15.9160045 -4.0210011
O -5.5250015 -4.4190012 -15.7350044
H -6.3240018 -3.9870011 -15.3920043
H -4.8450014 -3.9740011 -15.1890043
O -11.2520886 -0.3400366 5.6938377
H -10.9945932 0.4564613 6.2105765
H -10.9324682 -0.0326413 4.8182758
O -2.5020007 14.9500042 -9.7500027
H -2.4200007 15.8820044 -10.1460028
H -3.3070009 15.1570042 -9.1430026
O -4.7840013 15.3660043 3.1330009
H -5.4260015 14.7330041 2.7940008
H -4.1390012 15.3130043 2.3490007
O 11.2732994 -4.1998599 2.3078840
H 11.4187767 -3.2486005 2.4799592
H 10.6598452 -4.4364882 3.0382479
O 13.5450038 13.6440038 3.4620010
H 14.2580040 12.9990036 3.8480011
H 13.1830037 13.9230039 4.3860012
O 0.2419692 -5.5443702 -8.2826314
H 0.1629061 -4.6256836 -7.9656016
H -0.5303972 -5.6414323 -8.8733076
O -5.0509083 -4.0301936 9.7072598
H -4.1980892 -4.2975426 10.1206529
H -4.8809340 -4.2537524 8.7714605
O -0.1550000 13.3830037 -9.5350027
H -0.9360003 14.0040039 -9.5800027
H 0.6530002 13.8660039 -9.8440028
O -0.7620002 12.2300034 7.6840022
H -1.1640003 12.8800036 7.0030020
H 0.0660000 12.7570036 7.9630022
O 15.1710042 -4.3760012 6.2870018
H 15.9690045 -3.9480011 6.5310018
H 14.5120041 -3.9430011 6.8450019
O -8.5955063 -6.7888682 -0.6736995
H -8.1278886 -7.6383766 -0.7164515
H -9.3732122 -6.9419650 -1.2500000
O -9.2370026 12.7670036 -2.6620007
H -10.0120028 12.6300035 -3.2230009
H -9.6350027 13.1240037 -1.9180005
O 10.3745701 -6.2435437 -2.2987573
H 10.0604023 -5.6573802 -1.5680718
H 10.8860436 -5.6208039 -2.8420225
O 6.9150019 -2.8570008 16.1870045
H 6.7520019 -3.4000010 16.9180047
H 7.8480022 -2.7380008 16.2890046
O 9.3280026 13.4410038 -3.1740009
H 9.6050027 14.1780040 -3.7570011
H 8.6210024 13.8190039 -2.5750007
O -7.4769295 -5.2240835 -5.5881957
H -7.3442257 -4.3552460 -6.0394226
H -7.2941234 -5.7794625 -6.3780949
O -7.5263705 -4.2130711 10.8599767
H -6.7027961 -4.1399997 10.3312305
H -8.1463452 -3.6384454 10.3894908
O -5.9540017 16.3770046 -5.7620016
H -6.0190017 17.1600048 -5.2000015
H -6.5090018 16.6240047 -6.5460018
O 10.1030028 -5.8530016 -7.5080021
H 10.9850031 -6.3800018 -7.5780021
H 10.1960029 -5.3020015 -8.3040023
O 12.4440035 -3.8350011 10.2750029
H 11.9740034 -3.0480009 9.8280028
H 11.7670033 -4.4940013 10.2160029
O 9.7250027 15.3230043 -5.1600014
H 10.3230029 14.8590042 -5.7220016
H 9.2020026 15.7920044 -5.8510016
O -17.6530049 -0.9360003 -1.0040003
H -18.6760052 -0.8670002 -1.0980003
H -17.5280049 -0.5510002 -0.1360000
O 2.3890007 -18.2730051 -0.9480003
H 2.1690006 -17.3260048 -1.3030004
H 2.4110007 -18.1830051 0.0730000
O 2.9410008 -0.5280001 -15.8100044
H 3.7040010 -0.8090002 -16.2980046
H 3.3140009 -0.4650001 -14.8740042
O 4.0085757 -2.9486067 2.9379187
H 4.2461498 -3.1246351 2.0048570
H 3.3383927 -2.2476211 2.7866854
O -0.3900001 -2.0270006 18.6680052
H -0.0300000 -1.2580004 18.1970051
H -0.0220000 -2.7890008 18.2050051
O 2.1300006 18.8340053 0.1270000
H 2.4510007 19.4190054 -0.5660002
H 2.1160006 17.9840050 -0.3110001
O 18.1510051 -1.2260003 3.3700009
H 18.4080052 -1.8380005 2.6110007
H 18.0860051 -1.9480005 4.0470011
O 1.3660004 -4.8160013 -17.7050050
H 0.6050002 -5.2830015 -18.1710051
H 1.7560005 -5.5650016 -17.1920048
O -2.1064021 -2.7127773 -3.6020851
H -2.7271748 -2.4036648 -4.3023210
H -2.7012241 -2.6813981 -2.8270214
O -2.6140007 -5.4430015 16.6760047
H -3.4940010 -5.7160016 17.0050048
H -2.8130008 -4.4600012 16.3510046
O -1.4400004 15.6000044 -1.4120004
H -2.3410007 15.3370043 -1.7520005
H -0.9260003 14.7790041 -1.5190004
O 16.0680045 -4.1350012 -1.6470005
H 16.7230047 -4.7930013 -1.9660006
H 16.5920046 -3.2920009 -1.7140005
O -6.0408007 -2.4918925 -2.9151146
H -6.9452004 -2.8216128 -2.7432724
H -6.2224375 -1.5521434 -3.1323545
O -7.8800022 -1.1860003 12.7690036
H -8.0720023 -1.6440005 11.9560033
H -7.0140020 -0.6690002 12.6070035
O -4.7340013 17.5420049 -2.4170007
H -5.4110015 18.1370051 -2.7590008
H -4.0650011 18.2100051 -2.2900006
O 12.1770034 -2.4110007 -3.3700009
H 12.2830034 -3.3220009 -3.5960010
H 12.3000034 -2.4570007 -2.3600007
O -17.3010048 0.4350001 -4.8700014
H -17.7980050 -0.3010001 -4.4690013
H -17.2360048 0.0490000 -5.7610016
O -0.5787363 -4.5315068 -4.8729031
H -0.2161063 -4.0547523 -5.6449376
H -1.0456665 -3.7952047 -4.4148776
O -4.9220014 -2.7900008 15.6770044
H -3.9140011 -2.8990008 15.6080044
H -5.1920015 -2.9000008 14.7340041
O 0.6960002 13.5120038 -6.8050019
H -0.1360000 13.9920039 -6.7370019
H 0.8070002 13.6400038 -7.7720022
O 14.8240041 -3.5160010 11.1820031
H 15.2270043 -2.8360008 10.6400030
H 13.8940039 -3.5850010 10.8680030
O -17.5800049 -4.0380011 0.4240001
H -17.5020049 -3.1310009 0.3910001
H -18.4780052 -4.2710012 0.1560000
O 2.5240007 -5.3990015 -14.3900040
H 2.5640007 -5.8310016 -13.5260038
H 2.4930007 -6.1180017 -15.0570042
O 6.1127331 -8.2158199 0.1205863
H 5.2794409 -8.2931392 -0.4001820
H 6.2629533 -7.2445153 0.0621412
O 7.1090020 16.1620045 0.6600002
H 7.9640022 15.7490044 1.0420003
H 6.4380018 15.7850044 1.2470003
O -16.8870047 -0.7860002 -7.1630020
H -17.1720048 -1.7110005 -7.0890020
H -17.2710048 -0.5910002 -8.0390022
O -2.1698324 -2.4852900 -7.6542089
H -2.2089927 -2.7970153 -8.5864541
H -1.2269593 -2.6725431 -7.4505147
O -5.3188872 -1.3268046 10.0877173
H -6.2579159 -1.1795189 9.8655267
H -5.2496967 -2.3012570 10.0416365
O 15.3670043 -1.8230005 -9.8670028
H 14.6530041 -2.4120007 -9.6100027
H 15.8600044 -2.3360007 -10.4330029
O 13.8450039 -2.2550006 7.3320021
H 12.9310036 -2.2880006 7.6180021
H 14.0480039 -1.4620004 6.9320019
O -11.3280032 -9.1880026 -9.5670027
H -10.7050030 -8.9270025 -10.2730029
H -10.9710031 -10.0310028 -9.2530026
O -11.9760034 -8.6760024 8.4280024
H -12.2530034 -8.6880024 9.3390026
H -11.1400031 -8.1420023 8.4750024
O -12.5660035 9.3310026 -10.7020030
H -11.9880034 10.1110028 -10.7160030
H -11.9990034 8.6250024 -11.0080031
O -12.3210034 10.1150028 6.5980018
H -11.8380033 10.6630030 7.2940020
H -13.1450037 9.9330028 7.0510020
O 4.6983072 -9.2962293 6.9341721
H 4.4171044 -8.3994301 6.6329891
H 5.1702342 -9.0784848 7.7685617
O 6.0639869 8.8509576 -11.0447256
H 5.9638654 8.9902235 -10.0832212
H 6.3256106 9.7440542 -11.3288704
O 6.7760019 7.8680022 9.4080026
H 7.2050020 8.6830024 9.1750026
H 7.3580021 7.3200020 8.8640025
O -6.5329696 1.0265318 -12.6559021
H -7.3355157 0.4794950 -12.7128152
H -6.0829590 0.6238278 -11.9013376
O -7.8950022 7.3520021 10.5790030
H -7.1600020 7.8060022 10.1000028
H -8.3030023 6.8790019 9.8110027
O 10.8420030 -14.6440041 5.7740016
H 10.0450028 -14.6990041 6.2830018
H 10.6220030 -15.0420042 4.9170014
O 12.8790036 2.1070006 5.5830016
H 13.0910037 2.0090006 6.5370018
H 11.8810033 2.1100006 5.4890015
O -0.5650002 -3.3180009 -16.2490045
H 0.3230001 -3.5310010 -16.5020046
H -0.5250001 -2.3740007 -16.0220045
O -1.9837145 -5.5011511 1.6417286
H -2.6161059 -5.2475971 0.9352066
H -2.3283891 -5.0078055 2.4065692
O -3.3790009 0.3310001 17.0170048
H -3.3590009 -0.3490001 17.6640049
H -2.7730008 -0.1810001 16.4340046
O -1.0110003 17.9290050 -3.3620009
H -0.5150001 17.3120048 -3.9410011
H -1.4410004 17.3130048 -2.7340008
O -6.3783210 -7.5985763 -3.9258782
H -6.7239560 -8.5045861 -4.1187260
H -7.0611016 -7.0671327 -4.3569191
O -5.5560016 -4.1340012 12.9760036
H -6.1940017 -4.4080012 12.3060034
H -4.8510014 -4.7830013 12.7710036
O -2.2708777 10.8991141 -4.1323772
H -2.2018434 10.8845914 -5.1077213
H -2.5667297 9.9904352 -3.9216125
O 12.1690034 -4.9550014 -4.6280013
H 12.8990036 -5.2750015 -4.0230011
H 12.2470034 -5.5590016 -5.4110015
O 10.5240029 -4.7060013 13.0740037
H 10.1480028 -3.8550011 12.7050036
H 9.7100027 -5.2650015 12.9190036
O 12.6400035 11.5500032 -3.3930009
H 13.6250038 11.4220032 -3.2070009
H 12.4510035 10.6350030 -3.6160010
O 10.8630030 7.1210020 14.6950041
H 10.4390029 7.0680020 13.7410038
H 10.4250029 6.3240018 15.0410042
O -1.5830004 -5.7960016 -15.1960043
H -2.2730006 -6.1040017 -15.8330044
H -1.3250004 -4.9150014 -15.6030044
O -6.7910024 -2.8620320 4.3985452
H -6.9116916 -2.7555492 5.3625847
H -7.1762598 -2.0148423 4.0836033
O -6.7260019 -4.3980012 17.1410048
H -6.2300017 -5.2080015 16.8280047
H -6.1550017 -3.7310010 16.8450047
O 1.9780006 16.4530046 -1.3700004
H 1.8170005 15.6310044 -0.9220003
H 2.4860007 16.1430045 -2.1250006
O 17.8070050 -2.9750008 1.2190003
H 17.4540049 -2.9810008 0.3430001
H 18.7650053 -3.1210009 1.0210003
O -0.7520002 -17.1290048 -5.9010017
H -1.4950004 -17.3320049 -6.5000018
H -0.0140000 -17.2430048 -6.5950018
O 1.0522500 0.2750148 -7.3559036
H 1.6460844 -0.3706723 -7.8048025
H 1.5467154 0.3853483 -6.5236038
O -1.5333622 0.2956237 12.5575358
H -2.0849537 0.1361495 11.7544639
H -1.8824416 1.1836092 12.8013120
O -10.2158194 0.9294899 3.4835695
H -10.8942533 0.8919380 2.7766143
H -10.0277358 1.8830599 3.5317735
O 6.2440017 -16.7970047 3.7920011
H 5.3940015 -17.1920048 3.6970010
H 6.1110017 -16.2740046 4.6550013
O 4.5340013 2.9500008 -16.7930047
H 3.6180010 3.1260009 -16.8280047
H 4.7160013 2.3500007 -17.4890049
O 5.8485638 4.1709638 1.0429672
H 6.4363669 4.3195924 0.2749437
H 5.4571473 3.2898673 0.8433522
O 1.6280005 1.9530005 19.1370054
H 1.3400004 1.3040004 18.5300052
H 0.9000003 2.6290007 18.8830053
O -15.1260042 -4.4050012 -7.2470020
H -15.9240045 -3.7480010 -7.2500020
H -15.1430042 -4.8930014 -6.3530018
O 5.6300016 -8.5420024 -6.2630018
H 5.3050015 -7.8600022 -6.8680019
H 4.9570014 -9.2040026 -6.3070018
O 2.2048233 -4.8574176 12.7226553
H 2.1454730 -5.2897036 11.8461355
H 2.9835915 -4.2876172 12.5639872
O 4.2581605 11.2042381 -6.5096316
H 3.7584255 11.1209281 -7.3442624
H 5.1275148 10.8842870 -6.8062884
O -16.1750045 3.9660011 5.9950017
H -15.8320044 3.1400009 6.2200017
H -17.1540048 4.0380011 6.0730017
O -0.6140002 -13.8930039 -11.4460032
H -0.2170001 -14.2860040 -10.6680030
H -1.0360003 -14.7140041 -11.7060033
O -0.6770002 -18.7140052 6.2110017
H 0.1540000 -18.4190052 6.4800018
H -0.8660002 -18.2750051 5.3740015
O 4.8350014 -0.9180003 -13.6690038
H 5.0680014 -0.9600003 -12.7890036
H 5.3490015 -0.1410000 -14.0230039
O -0.9914528 1.3329865 4.9045410
H -0.0074324 1.2332020 4.9209340
H -1.0793005 2.0412514 4.2351061
O 3.4610010 19.3370054 2.4380007
H 2.9510008 18.9450053 1.6390005
H 4.3590012 18.9500053 2.3870007
O -14.2500040 -1.4810004 -6.4920018
H -14.9420042 -0.9020003 -6.8740019
H -13.9180039 -2.0430006 -7.2300020
O -11.4710032 12.6340035 -4.9380014
H -10.9130031 13.2590037 -5.3840015
H -11.4940032 11.9060033 -5.5980016
O 5.6092597 -2.5995753 -2.2148470
H 6.0237405 -3.1563209 -2.9125583
H 6.4032887 -2.1591518 -1.8538826
O 4.3869125 -3.2879479 11.6561466
H 3.8398448 -2.5981329 11.2265104
H 5.2220515 -3.1753370 11.1634617
O 2.9740008 16.3710046 -8.1520023
H 2.1730006 16.9750048 -8.3040023
H 3.5980010 17.0310048 -8.5090024
O -0.5720002 -16.6810047 1.4560004
H 0.3030001 -17.1390048 1.4520004
H -1.0050003 -17.1690048 0.7060002
O -5.4102541 0.1447106 0.6086391
H -5.6014552 -0.8015285 0.7866353
H -5.1041628 0.4571047 1.4874671
O 13.6800038 1.4760004 2.9460008
H 14.5200041 1.3490004 3.3760009
H 13.1030037 1.6930005 3.7180010
O -14.9700042 1.3950004 -7.9430022
H -15.5410043 1.8840005 -8.5920024
H -15.4350043 1.5840004 -7.1340020
O 1.1780003 -14.3580040 -4.9820014
H 1.9080005 -13.8760039 -4.5220013
H 1.6190005 -15.2060043 -5.0350014
O 4.5191567 1.7036405 -5.8050645
H 4.4198371 2.3103515 -5.0418108
H 3.8364464 1.0410452 -5.5682085
O -2.8250008 2.6630007 13.0670037
H -3.5140010 2.4270007 13.7290038
H -3.3230009 3.3510009 12.6010035
O -6.0430017 -1.3960004 -14.1140040
H -6.0240017 -1.3880004 -13.1380037
H -5.8450016 -0.4420001 -14.3150040
O -10.1370028 0.5840002 10.0780028
H -10.8720030 0.0570000 9.6680027
H -10.5720030 1.4480004 9.9420028
O 12.6370035 0.8320002 -13.5610038
H 12.3670035 1.6860005 -13.1910037
H 12.8850036 0.2780001 -12.7700036
O 8.8780211 -0.4498282 5.4132035
H 8.1473230 -0.2059480 6.0282458
H 9.0786757 0.4116164 4.9918058
O 1.8109458 -1.5999115 -11.7122009
H 1.7122352 -1.9529589 -12.6222174
H 2.6294413 -2.0514383 -11.4119399
O -1.8164605 -1.7060612 8.3963204
H -1.9892144 -2.6128115 8.0485483
H -0.8421588 -1.6748747 8.3534709
O -3.9920011 15.1030042 8.9760025
H -4.8330014 14.6470041 8.8050025
H -3.4640010 14.2790040 9.0930025
O 16.2790046 0.5810002 4.1550012
H 16.8490047 -0.1870001 4.0630011
H 16.7780047 1.2380003 3.6600010
O -12.2330034 5.8710016 -12.3480035
H -11.6360033 5.0890014 -12.3900035
H -12.0540034 6.3000018 -11.5180032
O -14.6460041 10.6040030 4.3230012
H -15.2150043 10.8920030 3.5380010
H -14.9710042 11.1730031 5.0250014
O 3.4240010 -12.8380036 -13.2910037
H 3.8360011 -11.9680033 -13.5290038
H 3.1520009 -12.6540035 -12.3640035
O 1.1700003 -16.1410045 6.3610018
H 0.3060001 -15.7400044 6.0950017
H 0.8410002 -16.5740046 7.2200020
O 3.2730436 2.9643644 -12.7288368
H 2.8195489 2.2351561 -12.2527723
H 4.1883778 2.8026742 -12.4307913
O 1.2424507 4.9985246 5.1183073
H 1.1681237 5.2153887 4.1709560
H 0.3287711 5.2020783 5.4109675
O 18.9190053 1.3450004 2.7960008
H 18.5880052 0.5060001 3.1380009
H 19.4080054 1.1390003 2.0280006
O -11.2510031 -1.8240005 -7.0430020
H -11.5870032 -2.5470007 -7.6080021
H -11.3390032 -0.9440003 -7.5190021
O -11.9940034 -3.2150009 12.6320035
H -11.6630033 -3.6260010 13.5390038
H -12.6100035 -2.5090007 12.9330036
O -9.5260027 14.5750041 -5.4300015
H -9.3330026 15.3360043 -4.8460014
H -9.2890026 15.1210042 -6.2060017
O 10.0230028 -2.4520007 -7.5720021
H 10.2910029 -3.0280008 -8.3040023
H 10.5580030 -1.6290005 -7.7030022
O 7.6630021 -0.7490002 11.8860033
H 7.4320021 -1.3310004 11.1830031
H 6.7700019 -0.6330002 12.3780035
O -8.6940024 -0.9460003 -13.0360036
H -8.5800024 -1.7190005 -13.6520038
H -9.5110027 -0.5070001 -13.4220038
O -9.2947526 5.5899258 8.8236919
H -9.9474713 4.8570675 8.8655920
H -9.4961164 5.9623015 7.9472116
O 9.9750028 -15.7950044 3.2190009
H 9.5520027 -16.6400047 3.0560009
H 9.3040026 -15.2240043 2.8940008
O 10.1600028 1.6750005 -11.6550033
H 9.2650026 2.0010006 -11.9770034
H 10.2650029 0.7650002 -12.1790034
O 9.1111164 7.0591757 2.9088184
H 8.6330330 7.2244226 2.0699582
H 10.0120773 6.8565072 2.5826766
O -12.3840035 -12.3370035 -3.5350010
H -12.0670034 -12.9850036 -2.9040008
H -13.3080037 -12.8110036 -3.4830010
O -9.2581384 5.5038552 -6.1677764
H -9.1521301 4.5469916 -5.9670088
H -8.7463507 5.5770121 -7.0012081
O -13.9110039 3.9780011 12.1700034
H -13.8440039 3.3780009 12.9340036
H -14.8240041 4.2540012 12.1490034
O 8.0550023 -15.4260043 -5.0740014
H 7.2670020 -15.1690042 -4.5250013
H 7.6290021 -15.5270043 -5.9350017
O 8.3759986 7.1564251 -4.4710425
H 8.8628593 6.5154900 -3.9053032
H 8.1040410 6.5647387 -5.1987809
O 7.3280021 5.6620016 13.3570037
H 8.1830023 5.7730016 12.8460036
H 7.4210021 4.7990013 13.8110039
O -15.2290043 -12.5620035 2.1650006
H -14.3700040 -12.8650036 2.5610007
H -15.5400043 -11.8540033 2.7220008
O -12.3810102 0.3502697 1.7119966
H -13.2574338 0.4376948 2.1425917
H -12.3836399 -0.5952584 1.4607808
O 6.1580017 -17.4430049 0.7700002
H 6.0520017 -16.9440047 -0.0270000
H 5.7690016 -18.2550051 0.5710002
O 5.6386520 -0.8038554 0.8755555
H 5.0069738 -1.5216946 0.6767851
H 6.3379560 -0.9816590 0.2193495
O -3.5310010 2.3260007 18.9870053
H -3.5340010 1.7450005 18.1130051
H -4.4610012 2.1330006 19.1840054
O -18.0120050 4.9980014 -0.8700002
H -17.1890048 4.9210014 -1.4510004
H -17.8310050 5.9040017 -0.4810001
O -0.7020002 -15.9480045 -3.4170010
H -0.3280001 -15.2040043 -3.8870011
H -1.0260003 -16.4980046 -4.1420012
O -0.6510002 5.7120016 -17.9450050
H -0.8290002 6.1470017 -17.0860048
H -1.5210004 5.8240016 -18.2750051
O 0.5997517 5.8524318 -1.7886932
H -0.0170146 5.5666518 -1.0793059
H 0.0997736 6.6141277 -2.1565868
O -0.9320003 3.1660009 18.5590052
H -1.1990003 3.7740011 17.8970050
H -1.7000005 2.6190007 18.6220052
O 14.4080040 2.2360006 -2.3870007
H 14.4040040 1.3890004 -1.8580005
H 13.7480038 2.8710008 -2.0000006
O 12.0960034 4.2730012 14.1200040
H 12.8830036 4.8190013 14.2540040
H 11.3160032 4.7170013 14.5650041
O -4.4972927 3.2892729 -8.1955268
H -4.1714513 2.9194517 -7.3430063
H -4.3987031 2.4539549 -8.7153670
O -6.1110017 0.7540002 12.7640036
H -6.7210019 1.5580004 12.7370036
H -5.4660015 0.9900003 13.4390038
O 12.1580034 -0.5230001 -8.3250023
H 12.7650036 0.0570000 -7.7830022
H 11.6440033 0.2290001 -8.6380024
O 9.9930028 0.5320001 9.6150027
H 9.0020025 0.5370002 9.5700027
H 10.1960029 1.1810003 10.3220029
O -3.5270010 -15.4840043 -4.3260012
H -4.4260012 -15.0780042 -4.2400012
H -3.0370008 -14.7480041 -4.6760013
O -1.6368538 2.2370070 -0.0701286
H -2.2766403 1.7313594 -0.6041485
H -1.4872842 1.5965674 0.6506622
O 0.5330001 2.1110006 15.0860042
H 1.1340003 2.0040006 14.3240040
H -0.1240000 2.7900008 14.7510041
O 16.0470045 2.8360008 -4.6070013
H 15.4890043 2.6630007 -3.7780011
H 16.0120045 1.8850005 -5.0290014
O -17.1730048 8.2340023 4.0720011
H -17.0830048 8.2160023 5.0830014
H -16.6610047 7.4640021 3.9020011
O 0.1730000 -10.6150030 -13.2690037
H 0.8270002 -10.0750028 -12.8660036
H -0.5750002 -10.5040029 -12.5230035
O -0.5794060 -11.3447511 5.7832146
H -0.0956608 -11.8394458 5.0986808
H -0.4916292 -11.9560257 6.5381050
O 0.2542088 6.2170445 -13.2916825
H 1.1666651 5.9237940 -13.0856291
H 0.3678330 7.1932406 -13.2901582
O -2.4338988 7.8797801 4.8257285
H -2.4566731 8.7155923 5.3309007
H -1.8262633 8.0971996 4.0888875
O -2.6004402 -10.6740186 -2.3990958
H -3.2542316 -10.6240671 -1.6641060
H -1.9132712 -10.0701362 -2.0462721
O -8.3480023 -9.0120025 13.4690038
H -8.0380022 -9.9170028 13.6630038
H -8.3550023 -8.8790025 12.4720035
O -0.6506029 7.9425343 -3.0312165
H -0.5240644 7.9355091 -4.0066187
H -1.6102090 8.1312779 -2.9781252
O -2.7680008 8.6140024 13.8640039
H -2.3270007 8.3740023 14.6720041
H -2.1430006 9.2530026 13.5890038
O 11.7250033 -9.1760026 -6.4400018
H 11.4530032 -9.0900025 -5.4770015
H 12.0870034 -10.1140028 -6.3890018
O 16.7530047 7.9590022 -3.4810010
H 17.1170048 7.0770020 -3.1870009
H 15.7900044 7.6120021 -3.3390009
O 9.5980027 4.9270014 15.4950043
H 8.6650024 4.7290013 15.3320043
H 9.5500027 5.0250014 16.4620046
O -13.9880039 5.6310016 1.9490005
H -13.7670039 6.0490017 1.0430003
H -14.2560040 4.7650013 1.7790005
O 3.8260011 -13.9840039 3.3100009
H 4.3010012 -14.4810041 2.6340007
H 3.5660010 -14.7580041 3.8680011
O 1.9910006 4.0360011 -15.0200042
H 2.3340007 3.6180010 -14.2200040
H 2.5240007 4.8580014 -15.0180042
O -1.2207712 3.6878007 3.4178770
H -0.4798680 4.1328245 2.9706439
H -1.3211654 4.2640069 4.2074759
O -13.6280038 3.8050011 -5.6880016
H -13.0410036 3.5950010 -6.4430018
H -14.5150041 3.6620010 -6.1430017
O -15.7790044 2.1920006 9.2170026
H -16.3500046 2.5960007 9.9080028
H -16.4730046 1.8460005 8.5420024
O 4.6620013 -15.8140044 -5.9060017
H 3.9260011 -16.3930046 -5.6440016
H 4.6700013 -15.0780042 -5.2240015
O 4.8160013 -13.5550038 8.1700023
H 5.1050014 -12.8590036 7.5570021
H 3.9010011 -13.1700037 8.3720023
O 5.3442855 3.7158430 -7.4991266
H 4.6339410 3.4436241 -8.1137019
H 5.1992530 3.0410258 -6.8055598
O 3.8585993 2.9561251 9.2815546
H 4.6012339 3.5749788 9.1366931
H 3.1968076 3.2984329 8.6432925
O -9.9100028 8.3690023 -11.7480033
H -10.5100029 8.8210025 -12.2890034
H -9.0760025 8.8580025 -11.9710034
O -12.4860035 10.9560031 2.8690008
H -12.6410035 10.3110029 2.1880006
H -13.2630037 10.9860031 3.4070010
O 1.4764733 -12.6266581 4.3450208
H 1.9156909 -11.8982402 4.8336860
H 2.2493001 -13.1410892 4.0476624
O 2.7965240 5.6333019 -12.3185403
H 3.7613772 5.8322156 -12.3618500
H 2.8702395 4.6583205 -12.3916730
O 4.0917282 9.4896122 4.8478488
H 4.6044108 9.4049958 5.6804254
H 3.1882017 9.3955602 5.2153596
O -8.5900024 -13.7090038 -4.1450012
H -8.7930025 -14.4100040 -3.4720010
H -8.8920025 -12.9170036 -3.7590011
O -8.5070024 9.3220026 -5.3120015
H -8.4910024 8.4690024 -4.8180013
H -7.5590021 9.3650026 -5.5630016
O -11.2390031 11.4530032 8.5570024
H -10.3610029 11.3530032 8.7840025
H -11.6200033 11.4490032 9.4080026
O 8.3870023 -13.8100039 -8.8040025
H 8.3470023 -13.3350037 -7.9140022
H 7.4170021 -13.9130039 -8.8390025
O 5.7640016 -7.7810022 13.9260039
H 6.3880018 -8.0210022 13.2950037
H 6.0700017 -6.8940019 14.2700040
O 9.9460028 7.9440022 -8.0430023
H 10.4100029 8.2360023 -8.7970025
H 9.6950027 8.7650025 -7.5970021
O 7.5950021 9.5270027 11.4730032
H 8.4920024 9.1400026 11.2070031
H 7.0330020 8.8480025 11.0970031
O -5.1336540 -4.7303458 -12.1064696
H -6.0529672 -4.3975874 -12.1776313
H -5.0061379 -4.7187180 -11.1334361
O -6.1908555 -7.1046466 6.6371301
H -6.0391008 -7.6378014 7.4383449
H -6.7951690 -7.7265145 6.1766078
O -0.8640002 11.3890032 -11.3040032
H -0.6370002 12.1010034 -10.7090030
H -0.7510002 10.5740030 -10.7490030
O -3.8320011 13.5570038 6.6310019
H -3.3480009 13.4620038 5.7560016
H -3.4510010 14.4090040 6.9800020
O 11.5400032 -3.7070010 -12.6990036
H 10.6040030 -3.9610011 -12.9290036
H 11.8450033 -4.5940013 -12.5620035
O 11.5890032 -6.0850017 7.1840020
H 11.2780032 -6.8000019 6.6080018
H 12.5230035 -6.4300018 7.4250021
O 8.2550023 9.9150028 -13.4280038
H 8.4780024 10.5770030 -14.1100039
H 7.8210022 10.4450029 -12.7210036
O -11.2920032 -13.7810039 -1.4470004
H -10.7430030 -13.9600039 -0.6600002
H -10.9410031 -14.5080041 -2.0360006
O -10.8488801 4.2298422 -3.2377352
H -10.0919897 3.7064483 -2.8915287
H -11.5235484 3.5368118 -3.3622816
O 3.7790011 -16.0220045 -2.8370008
H 4.4970013 -16.6150047 -2.7730008
H 3.2210009 -16.4950046 -3.5420010
O 4.4920013 -13.5820038 12.4550035
H 4.6770013 -14.5510041 12.4000035
H 5.3490015 -13.1360037 12.2210034
O 7.7915966 0.5538166 -4.8151197
H 7.1728954 0.9439659 -4.1622957
H 8.0897153 1.3681336 -5.2740306
O 2.8468869 -1.3767640 10.3416478
H 2.2854961 -1.7493909 9.6401496
H 2.2017175 -0.7769305 10.7770931
O -6.0810017 -11.3940032 -14.3630040
H -5.6080016 -12.1820034 -14.0670039
H -6.1250017 -10.8960030 -13.5330038
O -5.9500017 -12.5750035 2.4990007
H -5.1240014 -12.4470035 2.9780008
H -5.6210016 -12.7070036 1.6270005
O -6.0859284 5.8066805 -12.4539181
H -5.7624791 5.1985647 -11.7558874
H -6.2064622 5.1401518 -13.1580602
O -8.1293792 7.9671991 2.2177089
H -8.0912940 8.2232007 1.2704277
H -8.8421256 8.5766372 2.5286204
O 10.0330028 -9.8010027 2.7220008
H 10.5860030 -10.4510029 3.2050009
H 10.7630030 -9.3260026 2.2040006
O 12.3600035 8.6370024 2.1880006
H 13.0810037 8.3910023 2.7880008
H 12.3030034 7.7080022 1.8180005
O -14.6590041 5.0770014 -9.7970027
H -15.0810042 5.3540015 -10.6530030
H -14.3980040 4.1800012 -10.1200028
O -3.3740009 -13.1960037 7.5540021
H -3.8080011 -12.3560035 7.7590022
H -4.0980011 -13.7130038 7.1560020
O -0.0865968 1.4855517 -9.7442891
H 0.2913031 1.2020668 -8.8894729
H -0.2176144 2.4491057 -9.6119360
O 0.0740797 7.7311343 6.9875789
H 0.2865567 6.9621332 7.5422960
H -0.8027746 7.9466617 7.3786653
O -3.1600009 -15.7620044 -7.2070020
H -2.7870008 -16.6180047 -7.5130021
H -3.5760010 -16.1660045 -6.4320018
O -2.6140007 -15.4080043 9.1790026
H -2.6600007 -15.0780042 10.0460028
H -2.6750007 -14.5120041 8.7740025
O 1.1665449 5.4227399 -6.0329693
H 0.7266627 4.5866283 -5.8339711
H 1.5703063 5.2045317 -6.9031348
O -2.1370006 4.3900012 15.9180045
H -3.0390009 4.1240012 15.6300044
H -1.9080005 5.0710014 15.2760043
O 16.2560045 5.2620015 -5.6980016
H 15.7270044 4.6150013 -5.1550014
H 17.0300048 4.6200013 -5.8070016
O 15.3040043 5.2850015 9.3830026
H 15.9800045 4.6950013 8.9500025
H 14.9580042 4.5410013 9.8260028
O -5.2650015 -17.5070049 -6.0490017
H -5.9320017 -17.0750048 -6.5540018
H -5.6990016 -17.3060048 -5.1950015
O -5.4688972 0.3731833 -5.8872981
H -5.8137881 0.4224386 -4.9685438
H -4.8081800 1.0953958 -5.8892744
O -7.7280022 2.7990008 13.5460038
H -8.6610024 3.0640009 13.6810038
H -7.3980021 2.6710007 14.4500040
O 13.2130037 1.2870004 -6.6200019
H 12.7800036 0.7990002 -5.8370016
H 12.9760036 2.1930006 -6.3990018
O 9.2330026 1.6670005 12.3760035
H 8.8520025 0.9170003 12.0270034
H 8.4260024 2.2380006 12.3440035
O 3.7364442 -6.3059575 -11.8347042
H 4.3821360 -5.5764782 -11.7633619
H 3.1117181 -6.1433339 -11.1014204
O 0.8088646 -5.1447786 1.2881204
H -0.1074637 -5.4063109 1.5052723
H 0.7533982 -5.0708929 0.3133601
O 3.4850010 12.0140034 3.8290011
H 2.5430007 12.2110034 3.9410011
H 3.5940010 11.0880031 4.1260012
O 18.4580052 -5.9760017 4.1250012
H 17.7280050 -6.4310018 4.5680013
H 18.0960051 -6.0240017 3.2450009
O -12.6760035 -6.2990018 -4.8780014
H -12.6070035 -5.3350015 -4.6060013
H -13.5020038 -6.4650018 -4.4100012
O 2.4308381 -4.1518630 -2.9731584
H 3.2057507 -4.5043474 -2.4773864
H 1.7249108 -4.2270415 -2.2978405
O 0.7920002 -5.0050014 15.0740042
H 1.2700004 -4.8510014 14.2040040
H 0.8580002 -5.9960017 15.0940042
O 5.2095357 10.7924863 -2.2754876
H 5.7681779 10.7205733 -1.4744405
H 5.7467586 10.2953289 -2.9253976
O 3.1070009 13.0990037 13.7850039
H 3.8380011 13.0890037 14.3960040
H 2.9160008 14.0590039 13.8710039
O -16.2080045 3.6790010 -6.5310018
H -16.6130046 3.6240010 -7.4440021
H -16.9370047 3.7800011 -5.9110017
O 0.1941667 -11.3189806 -4.2267083
H -0.5521172 -11.9133290 -4.4133242
H -0.2056145 -10.4355431 -4.3359464
O -2.7420008 -13.7770039 11.6760033
H -3.0430009 -13.6220038 12.5290035
H -1.7960005 -13.7920039 11.8560033
O 4.2690988 7.9449976 -4.2260712
H 3.6765391 7.2028403 -3.9651181
H 3.6343796 8.6932486 -4.2618845
O 0.2857016 5.8554577 9.0649185
H -0.4557803 5.2130601 9.1520447
H 0.1063151 6.4301892 9.8431795
O -16.8740047 -2.8900008 -3.5400010
H -16.6110046 -2.9760008 -4.5020013
H -17.4800049 -2.0970006 -3.5510010
O 0.4532891 -3.0475001 -7.0183978
H 0.7007673 -2.6233703 -7.8742520
H 1.2617550 -2.8477429 -6.4905665
O -2.3080006 -3.1550009 15.2930043
H -2.0230006 -2.2570006 15.2470043
H -1.4340004 -3.6290010 15.1480042
O -2.0230006 14.2850040 -6.1270017
H -2.0460006 15.2990043 -6.3200018
H -2.6740007 14.1120039 -5.3880015
O 18.1760051 -4.0540011 -5.0550014
H 17.4960049 -3.4180010 -4.8300014
H 18.0030050 -4.6610013 -4.3130012
O 13.4520038 0.2040001 11.4890032
H 12.9010036 1.0440003 11.6310033
H 12.8100036 -0.4630001 11.7050033
O -17.1540048 0.6530002 1.0540003
H -17.2540048 1.5760004 1.4240004
H -16.2150045 0.7060002 0.8970003
O 1.5420004 -2.7040008 -14.2210040
H 1.9070005 -2.2090006 -15.0060042
H 1.8390005 -3.5890010 -14.5070041
O -3.6130397 -0.1822618 6.9649689
H -3.1217074 -0.7177178 7.6219353
H -3.2549871 0.7096882 7.1650974
O 4.9720014 15.3230043 2.2750006
H 4.0290011 15.3380043 2.3560007
H 5.2340015 15.6800044 3.1440009
O 18.3110051 -3.2280009 5.1360014
H 18.0690051 -3.5260010 6.0690017
H 18.3200051 -4.1730012 4.8750014
O -16.2400045 -5.6370016 -4.1580012
H -15.7280044 -5.9630017 -3.3530009
H -16.7990047 -4.9410014 -3.8100011
O 1.5027808 -6.2594470 -4.4484146
H 1.9580010 -5.5766933 -3.9129837
H 0.6497305 -5.8002385 -4.5977140
O -0.5350001 -9.1820026 15.0460042
H 0.3530001 -9.3950026 15.4680043
H -0.1380000 -8.9430025 14.2170040
O 2.9800008 15.1970043 -3.4600010
H 3.1060009 14.3820040 -2.8840008
H 3.0610009 14.9090042 -4.2870012
O 1.6400005 14.0600039 11.1830031
H 2.4950007 14.1170040 11.5510032
H 1.2960004 13.1410037 11.1990031
O -2.1020006 -12.9230036 -3.8630011
H -2.0650006 -13.4840038 -3.0990009
H -2.1480006 -12.0500034 -3.4750010
O -4.3040012 -11.8100033 10.5040029
H -3.6470010 -11.2450031 10.0890028
H -3.6390010 -12.5580035 10.6190030
O 2.5891534 5.8947862 -3.7142247
H 2.0775695 5.7491861 -4.5386819
H 1.8772594 5.9038620 -3.0418083
O -5.2940015 10.1460028 13.0180036
H -4.6740013 9.5180027 13.4160038
H -6.2090017 10.0860028 13.4690038
O 11.7260033 5.5120015 10.2270029
H 12.2020034 5.9080017 9.4500026
H 11.7310033 4.5950013 9.8980028
O -3.6954260 -7.1300113 -4.2121334
H -4.5462615 -7.5783186 -4.0134614
H -4.0343657 -6.2067447 -4.2497135
O -3.6790010 -6.0560017 13.9640039
H -3.9410011 -5.7930016 14.8810042
H -2.7110008 -5.9930017 14.0530039
O -0.2249461 7.7727078 -5.7060287
H 0.4023781 7.0489505 -5.9232061
H 0.0517211 8.4653459 -6.3465832
O -1.5200004 12.7580036 11.8640033
H -1.6410005 12.2990034 12.7080036
H -1.8440005 13.6610038 12.1180034
O 15.3740043 -3.7410010 -7.0980020
H 16.1390045 -3.2840009 -7.4550021
H 15.5010043 -3.8020011 -6.1710017
O 11.6910033 -7.0420020 14.1090039
H 11.4510032 -6.3050018 13.5100038
H 11.2680032 -6.7480019 14.9610042
O -10.1200028 -5.7340016 -12.8480036
H -10.8760030 -5.1350014 -12.9340036
H -10.6630030 -6.4300018 -12.4240035
O -13.4110038 -5.8020016 4.1060011
H -13.7420038 -4.8980014 4.2450012
H -12.5770035 -5.6210016 3.6180010
O 7.7370022 -7.9650022 -15.3460043
H 7.8530022 -7.4420021 -14.5070041
H 7.8470022 -7.3720021 -16.0660045
O 3.6994052 -6.9448375 5.9835227
H 2.9324948 -6.3924776 6.2273177
H 4.1011680 -6.4040901 5.2799831
O 8.6640024 13.8340039 4.8770014
H 8.8590025 12.9460036 5.1340014
H 7.6770021 13.7700039 4.8180013
O -12.4759621 -2.1876778 0.5267553
H -12.9366906 -1.8024968 -0.2513835
H -11.6808924 -2.5532563 0.0935395
O 5.2710015 -0.6120002 -17.1120048
H 6.1820017 -0.9200003 -17.2510048
H 5.1890015 0.0900000 -17.8420050
O 4.8118391 -5.3965066 3.9090117
H 4.4747277 -4.4889980 3.7459408
H 4.3110812 -5.8617664 3.1945272
O 0.8620002 0.0750000 17.2950048
H 0.5690002 0.4880001 16.4330046
H 1.7950005 -0.2040001 17.1350048
O -6.2560018 -15.0960042 -5.1210014
H -6.7670019 -15.4110043 -5.8610016
H -6.8550019 -14.4200040 -4.7160013
O -6.8160019 -12.6300035 9.4980027
H -6.5340018 -13.5350038 9.2440026
H -5.9580017 -12.3000034 9.7500027
O -3.3509253 2.1409609 -6.0898769
H -2.8252107 2.8137800 -5.6111507
H -2.6651346 1.5294199 -6.4386251
O -3.7500010 5.8580016 14.4070040
H -3.9570011 6.6620019 13.9740039
H -4.2100012 5.9780017 15.2290043
O 13.6450038 5.9820017 -6.8240019
H 13.9170039 6.9330019 -6.9800020
H 14.5010041 5.7200016 -6.4580018
O 12.6590035 5.5020015 7.6250021
H 13.5260038 5.1100014 7.5490021
H 12.0090034 4.7590013 7.4360021
O -6.8451763 -3.1499616 -7.2138856
H -7.0730953 -2.2045227 -7.1352764
H -6.9580518 -3.2714322 -8.1756478
O -7.9687255 -1.1102503 9.4062598
H -8.3621923 -0.2171483 9.4195296
H -8.7307894 -1.5895825 9.8024695
O -4.6130013 15.3070043 -8.2400023
H -4.7760013 14.3420040 -8.1250023
H -4.8820014 15.6310044 -7.4000021
O 12.9740036 -3.2220009 -8.6030024
H 12.9720036 -2.3080006 -8.3350023
H 13.8640039 -3.5180010 -8.2260023
O 11.4550032 -1.6760005 8.9320025
H 10.8350030 -0.8840002 9.0730025
H 11.0630031 -2.2210006 8.1780023
O -8.5140024 -6.7220019 -14.7730041
H -7.6530021 -6.2660018 -14.4690040
H -9.1510026 -6.3090018 -14.0810039
O -11.4000032 -11.5590032 1.9900006
H -11.3070032 -10.5920030 2.2300006
H -12.0930034 -11.7870033 2.5660007
O -8.9450025 7.4990021 -14.4200040
H -9.4030026 7.9110022 -13.6710038
H -7.9730022 7.6060021 -14.2640040
O -10.6184789 6.0211496 1.1446317
H -11.1447328 5.3845452 0.6128013
H -10.8559445 6.8738781 0.7229918
O 5.6270016 -13.4880038 1.3180004
H 4.8150013 -13.6820038 0.7740002
H 5.6480016 -12.4950035 1.3490004
O 9.6760629 5.4258378 -2.8100976
H 10.4839330 5.8970221 -2.5190736
H 10.0409140 4.5299432 -2.9788051
O 4.7860013 8.3970024 15.4090043
H 4.4380012 8.9900025 16.0940045
H 5.7840016 8.4870024 15.5570044
O -6.6422530 -9.1064138 -0.8771744
H -7.3077181 -9.7533775 -1.1938725
H -5.8659449 -9.6911113 -0.7907087
O -5.7299355 7.4741626 -1.2729675
H -6.5246059 7.9059432 -0.9053997
H -6.1567742 6.6873442 -1.6636292
O 14.0010039 -7.6470021 0.2760001
H 14.4100040 -8.0470023 1.0370003
H 13.1430037 -8.0550023 0.2510001
O 13.6640038 13.8370039 -2.1020006
H 13.0480037 13.2360037 -2.5640007
H 13.0090036 14.0550039 -1.4090004
O -7.4650021 -14.6890041 0.0900000
H -7.3240020 -13.9910039 -0.5440002
H -6.4870018 -14.9990042 0.0700000
O -8.1020819 6.9105918 -4.0734125
H -8.5389372 6.2765322 -4.6774370
H -8.0360395 6.3855083 -3.2422810
O -6.5420018 3.4810010 16.1020045
H -7.1540020 3.3990010 16.8760047
H -6.4290018 4.4420012 15.9940045
O 11.4930032 -11.3860032 -4.7570013
H 11.2430031 -11.2030031 -3.8610011
H 10.8170030 -12.0570034 -4.9050014
O 11.2372195 3.1665320 -5.6638133
H 11.2167672 3.1202040 -4.6855337
H 11.2234507 4.1368331 -5.8152682
O 4.5840013 7.1010020 12.3450035
H 4.6050013 6.4410018 11.6120032
H 5.4470015 6.9570019 12.7390036
O -7.1920020 -10.0870028 -7.5660021
H -6.5600018 -9.4480026 -8.0450023
H -7.8090022 -10.3560029 -8.3390023
O -8.8400025 -10.4340029 9.5220027
H -9.4960027 -11.1360031 9.7950027
H -7.9720022 -10.8180030 9.7900027
O -7.5725507 6.0424054 -8.3218967
H -7.4310119 7.0044141 -8.4435034
H -7.8167308 5.7850365 -9.2361376
O -6.8610239 8.8043665 7.9444706
H -7.2091085 9.6197253 8.3706634
H -6.3237522 9.1985172 7.2264699
O 8.3072135 -7.0397125 7.3097397
H 9.0419042 -7.3296710 6.7410316
H 7.5806683 -7.1061899 6.6458016
O 11.7040033 8.1810023 -11.4610032
H 11.6700033 7.2600020 -11.1870031
H 12.0390034 8.6080024 -10.7040030
O 9.7120027 8.7640025 10.2080029
H 9.8920028 8.2150023 9.3680026
H 10.6330030 8.7280024 10.5970030
O -5.4270015 -13.9120039 -9.0610025
H -5.0970014 -14.4470040 -8.3220023
H -4.6260013 -14.0350039 -9.5650027
O -4.6699295 -10.8159053 6.8358783
H -4.0395207 -10.1111826 7.0839397
H -5.5010268 -10.4828515 7.2083006
O -2.6732686 5.3395909 -8.5436050
H -2.6309656 5.6876361 -7.6301242
H -3.3424425 4.6344305 -8.4656417
O -2.6410561 6.8935774 10.9040041
H -3.4401244 7.4407861 11.0462925
H -3.0245502 5.9982391 10.9740344
O 14.1850040 7.9000022 9.8470028
H 14.4640040 6.9670019 9.9260028
H 14.4370040 8.1330023 8.9400025
O -16.3750046 7.3470021 6.8350019
H -15.9250045 6.4780018 7.0370020
H -15.7180044 7.9680022 7.1240020
O 0.1410000 -13.2470037 -7.0790020
H 0.4840001 -13.6840038 -6.2700018
H 0.4700001 -12.3290035 -6.8340019
O -0.2680001 -13.1780037 7.7790022
H -0.7530002 -13.8480039 7.2530020
H 0.0530000 -13.7540038 8.5020024
O 1.6519287 7.5863332 -10.7527373
H 2.0100119 6.8036060 -11.2270447
H 2.0064246 8.2969572 -11.3332633
O 1.6149835 9.7002711 6.0235455
H 1.0839906 8.9232969 6.3335337
H 1.5603070 10.2665787 6.8046097
O 15.6070044 6.0500017 5.7300016
H 15.4580043 5.0880014 5.7680016
H 16.3620046 6.1260017 6.3180018
O -15.2710043 5.1690014 8.7660025
H -16.2210045 5.3430015 8.8880025
H -15.2500043 4.2520012 8.6470024
O 0.9770003 -14.6990041 -9.2740026
H 0.7320002 -14.3090040 -8.4130024
H 0.8380002 -15.6540044 -9.0990025
O 0.9520003 -14.4110040 10.0040028
H 0.7140002 -14.3190040 10.9110031
H 1.6930005 -13.8380039 10.0620028
O 2.9097818 7.1623825 -8.3416032
H 2.7186648 6.2034593 -8.3580717
H 2.4735895 7.4155922 -9.1806296
O 2.6292664 7.3461863 9.2105423
H 1.8187578 6.8059332 9.1742161
H 2.4546716 7.8772536 10.0079879
O -12.4230035 9.9530028 -8.0140022
H -13.2360037 9.5120027 -7.6680021
H -12.2080034 9.4620026 -8.8100025
O -11.7250033 7.6260021 8.3140023
H -11.2190031 7.4390021 7.4490021
H -11.5950032 6.7870019 8.8390025
O 5.8370016 -15.0540042 -9.3020026
H 4.9440014 -15.4680043 -9.4010026
H 6.3730018 -15.3650043 -10.0810028
O 2.5150007 -12.3870035 8.5100024
H 2.4110007 -11.5200032 8.9900025
H 1.8460005 -12.4430035 7.8090022
O 7.2068584 5.4807308 -6.4926348
H 6.5946986 4.7680009 -6.7786964
H 6.5862613 6.2359666 -6.6020390
O 2.6058166 3.0657829 11.8600917
H 2.7351241 2.9749995 10.8973113
H 1.6471377 3.2611370 11.9226582
O -7.6226416 2.6304702 -9.5751446
H -7.7285267 1.6875597 -9.8197426
H -7.9776012 2.6380602 -8.6811756
O -10.3430029 3.0870009 13.9330039
H -10.4670029 2.1570006 13.6770038
H -11.0110031 3.5800010 13.4700038
O 8.5340024 -14.0870039 11.1190031
H 9.3920026 -13.9460039 10.7030030
H 7.9600022 -13.9680039 10.3170029
O 13.4720038 2.4850007 -9.8160027
H 13.1860037 2.2640006 -10.6770030
H 12.6050035 2.3540007 -9.3570026
O 10.9130031 3.4250010 7.7140022
H 11.1500031 2.4940007 7.6930022
H 9.9600028 3.4030010 7.5120021
O -5.9470017 -15.3160043 9.2960026
H -5.5590016 -15.7310044 10.0780028
H -6.0090017 -16.0230045 8.7190024
O -3.7426409 0.8998997 -9.1722201
H -3.3062798 0.6519446 -10.0110316
H -3.0567754 0.6394281 -8.5302752
O -4.1718045 4.5575169 10.7104693
H -4.9650443 4.8170633 11.2392461
H -4.3714716 3.5938140 10.6051176
O 15.9570045 3.8590011 -9.0000025
H 15.0670042 3.3780009 -9.0380025
H 16.3160046 3.4720010 -9.8530028
O 12.9490036 1.0800003 8.3090023
H 13.3990037 0.8770002 7.4410021
H 12.4590035 0.2190001 8.4820024
O -3.3247487 -1.8722090 -11.9318915
H -2.7998544 -1.0416805 -11.8613557
H -3.1651655 -2.1281108 -12.8597669
O -1.6773051 3.9191870 9.2876799
H -2.5193055 4.0883028 9.7429995
H -1.9536581 3.2814265 8.5934711
O 16.9400047 3.7350010 7.8500022
H 16.4300046 3.5710010 7.0440020
H 17.4120049 2.9150008 7.8020022
O -14.9530042 5.9690017 -7.1940020
H -14.9910042 5.7650016 -8.1200023
H -15.3510043 5.1730014 -6.9080019
O 1.5860004 -17.0670048 -7.7650022
H 1.8060005 -17.9600050 -8.1010023
H 2.3970007 -16.6000046 -8.2100023
O 2.0176601 4.5347393 -8.4699423
H 1.2141607 4.4229104 -9.0221443
H 2.5428418 3.7472260 -8.7305888
O 1.8508529 4.0210456 7.7114872
H 1.3530653 4.7529362 8.1277921
H 1.7018777 4.2049877 6.7635479
O -8.4450024 3.0300008 -15.4250043
H -8.2830023 3.2890009 -16.3380046
H -8.3900023 2.0800006 -15.3540043
O -15.9150045 5.7330016 3.8540011
H -15.1350042 5.5520016 3.2590009
H -15.8970044 4.9860014 4.5390013
O 5.5250015 -15.5120043 6.3300018
H 4.9810014 -16.2570045 6.6260019
H 5.1430014 -14.8170041 6.9370019
O 5.7104777 2.1689380 -11.3719713
H 5.8406984 2.9187132 -10.7544433
H 6.4874452 2.3181515 -11.9494075
O 4.0212013 1.9954283 3.6136131
H 4.0993729 2.0721884 2.6396172
H 4.1112435 2.9158900 3.9116209
O 2.6840008 4.9850014 18.4910052
H 2.8150008 3.9660011 18.7090052
H 3.5380010 5.2100015 18.8230053
O -5.9125003 -1.5057838 -11.2182514
H -6.1851376 -2.2686582 -10.6739233
H -4.9501346 -1.6844967 -11.3424543
O -10.2490029 0.4360001 12.7550036
H -10.2470029 0.3830001 11.7650033
H -9.3490026 0.1040000 12.9850036
O -6.5390018 13.0630037 7.5350021
H -6.9970020 12.5880035 6.8040019
H -5.7720016 13.3510037 7.0430020
O 13.3100037 -0.0550000 -11.1490031
H 12.8120036 -0.4940001 -10.4370029
H 14.2360040 -0.3310001 -11.0060031
O 11.4793892 -1.2573919 5.4479853
H 10.5630269 -0.9086299 5.4568531
H 11.3421438 -2.0975511 5.9307542
O -1.7187728 0.2500589 -7.3214662
H -0.7376310 0.2747988 -7.3701891
H -1.8707401 -0.7066931 -7.4520077
O -4.7144662 1.9416213 10.6517753
H -5.2544834 1.3537955 11.2131574
H -4.0124173 1.3143785 10.3848836
O 18.1280051 0.7850002 -7.3650021
H 18.1940051 1.7400005 -7.3850021
H 17.2130048 0.6080002 -7.7400022
O 13.7240038 3.1080009 10.1180028
H 13.3150037 2.5850007 9.4570026
H 13.0480037 3.1820009 10.8670030
O -1.5986772 -1.0841270 -14.2975623
H -2.1238139 -0.2559263 -14.3050299
H -0.9533151 -0.8621747 -14.9931995
O -7.8265479 -0.3880958 3.8157500
H -8.6588884 0.1335969 3.8459864
H -7.3131813 0.0130738 4.5466779
O 2.2490006 19.2120054 4.9780014
H 1.2800004 19.1560054 4.7410013
H 2.7090008 19.2380054 4.1380012
O 12.2887279 -1.6882545 2.9010868
H 12.0448294 -1.4298828 3.8217496
H 13.1898845 -2.0467315 3.0521072
O 0.1459433 -2.2626745 -9.6299120
H -0.5529396 -2.6756668 -10.1580843
H 0.7367961 -1.9258382 -10.3352772
O -2.9401556 -0.1420428 10.3129065
H -2.4414612 -0.6743131 9.6566171
H -3.8066327 -0.6163900 10.2871201
O -3.7830011 17.7080050 7.7200022
H -3.7680011 17.0290048 8.4610024
H -3.9590011 17.2650048 6.8820019
O 15.0910042 0.3330001 6.5720018
H 15.4340043 0.3620001 5.6620016
H 15.9000044 0.6300002 7.0550020
O -13.6630038 2.3210006 -12.4830035
H -12.8010036 2.8260008 -12.2130034
H -13.7360038 1.5710004 -11.8880033
O -17.5570049 0.5350001 7.5420021
H -18.0520051 -0.3370001 7.5200021
H -18.3290051 1.2030003 7.4180021
O 0.2640001 -16.9500047 8.6390024
H 0.0750000 -17.5670049 9.3200026
H 0.2360001 -16.1520045 9.1420026
O 3.5653407 2.2964882 -9.1018059
H 3.1731261 1.8790606 -9.8973404
H 4.2234426 1.6094318 -8.8669949
O 1.6940856 1.0084856 4.8953044
H 2.1008736 0.4895218 5.6174359
H 2.4858743 1.2731681 4.3868927
O 17.6860049 1.0920003 7.6100021
H 18.5560052 1.1930003 7.2600020
H 17.8830050 0.9560003 8.5580024
O -13.3170037 0.3970001 -10.6440030
H -12.8220036 -0.4460001 -10.7740030
H -12.8060036 0.7380002 -9.9310028
O -12.9680036 2.3580007 9.8740028
H -13.0390036 2.7070008 10.8130030
H -13.8830039 2.0980006 9.6020027
O 8.4895474 -0.7352430 -10.1727496
H 9.1951305 -0.5930740 -10.8323511
H 8.5699737 0.0625959 -9.6083736
O 5.9081458 2.9124887 6.4902228
H 5.1852499 3.2961431 5.9518054
H 5.8406686 3.4633640 7.2964489
O -0.8114268 -3.4034418 -12.9154411
H -1.2064892 -2.6110887 -13.3316351
H 0.0878911 -3.3163960 -13.2788364
O -7.1983754 -2.4647128 7.1058549
H -8.1566930 -2.5905249 6.8863534
H -7.3122966 -2.0205460 7.9726976
O -1.2040003 14.3800040 5.9260017
H -1.0100003 14.6260041 5.0270014
H -0.8760002 15.0750042 6.4680018
O 13.0860037 -5.3680015 4.1080011
H 13.8910039 -4.9900014 4.4130012
H 12.9270036 -4.8110013 3.3710009
O -0.1440000 -6.9190019 -13.0190036
H -0.4570001 -6.8150019 -13.9740039
H -0.4550001 -6.0520017 -12.6850036
O -4.7300358 -3.9555417 3.0343445
H -3.8692158 -3.8100863 3.4841152
H -5.3586261 -3.4849032 3.6241767
O -3.1610009 -2.2470006 18.8060053
H -3.3000009 -3.2080009 18.8580053
H -2.2360006 -2.1130006 18.9310053
O -0.8300002 14.3160040 2.7940008
H -1.5790004 14.1840040 2.2200006
H -0.5190001 15.2170043 2.4980007
O 14.7390041 -2.9160008 2.9810008
H 15.6960044 -3.0840009 3.2480009
H 14.7550041 -3.4660010 2.1980006
O -1.6950005 -17.7210050 3.7530011
H -1.4630004 -17.4100049 2.8870008
H -2.4310007 -17.1480048 3.9440011
O 0.1260000 -0.6260002 -16.5090046
H 1.0950003 -0.5770002 -16.2560045
H -0.0440000 0.2570001 -16.8770047
O -6.1907880 0.0193684 6.0713067
H -5.2477392 -0.0350520 6.3499725
H -6.5370746 -0.7795814 6.5048770
O 15.0120042 -0.4680001 1.3810004
H 14.5440041 0.1290000 1.9830006
H 15.2890043 -1.2090003 1.9600005
O -13.0720037 -2.5770007 -9.1920026
H -12.7000036 -3.4040010 -8.9100025
H -12.7930036 -2.5370007 -10.0570028
O -16.0450045 -2.4250007 7.4830021
H -15.5990044 -1.7000005 7.9770022
H -16.8830047 -2.4960007 8.0020022
O 4.9732999 -2.8977805 -6.7770825
H 5.4551437 -3.6927526 -7.0826162
H 5.7402306 -2.2946808 -6.6731159
O 2.9205659 -0.5266447 6.8782453
H 3.5238219 -1.0924574 6.3493965
H 3.5593906 -0.1420429 7.5154649
O 5.4160015 13.4160038 -9.4260026
H 5.9380017 13.9540039 -10.0290028
H 5.8870016 13.5270038 -8.5480024
O -10.7890030 3.6840010 -11.6840033
H -10.0600028 3.9800011 -12.3230034
H -10.3770029 3.4100010 -10.8080030
O -12.6153085 2.8308842 4.9247749
H -11.7470280 2.7138658 5.3473888
H -12.5970697 3.7584134 4.6298295
O 5.8888485 -0.5994115 -11.1377446
H 5.7297393 0.3666653 -11.0459096
H 6.7843413 -0.6750960 -10.7421645
O 5.7520572 -0.2100855 3.5481356
H 5.6018727 -0.3799823 2.5926220
H 5.1822866 0.5746862 3.6837499
O -2.2661464 -3.7032366 -10.1455537
H -1.9101021 -4.5415817 -10.5142761
H -2.5100588 -3.2052688 -10.9584495
O -5.1307098 -4.5673023 6.9949225
H -5.6025377 -5.4227006 6.8991426
H -5.8608820 -3.9213789 6.9513520
O -1.8783146 11.4856758 -6.7949343
H -2.5927396 11.3004672 -7.4383241
H -1.8956474 12.4612126 -6.7436479
O -4.9350014 14.2060040 12.3870035
H -5.3340015 13.5080038 11.8600033
H -5.1890015 13.8840039 13.2750037
O 10.8047702 -3.4298922 6.9460609
H 9.8545223 -3.6528785 6.8289426
H 11.1894417 -4.3332359 6.9548419
O -1.3911729 -6.3311171 -10.4496072
H -0.7128292 -6.8179533 -10.9445438
H -2.0278048 -7.0627356 -10.2774954
O -2.7331468 -7.9204520 5.1410455
H -3.5206439 -7.4899156 4.7432488
H -2.5816036 -8.6297391 4.4744056
O -1.9210005 12.6190035 -13.3620037
H -1.6630005 12.3260034 -12.5290035
H -2.3360007 13.5160038 -13.1920037
O 0.9260003 12.7590036 4.0350011
H 0.9110003 12.9460036 5.0230014
H 0.0790000 13.1300037 3.7510010
O 15.7240044 -7.0860020 5.2250015
H 15.5690044 -6.3680018 5.8750016
H 15.2440043 -7.7880022 5.7230016
O -16.5510046 -5.4540015 5.7230016
H -17.4590049 -5.4030015 6.0180017
H -16.6340047 -5.5240015 4.7390013
O 2.3610535 -6.6694540 -6.9857833
H 2.1546048 -6.4727841 -6.0462314
H 1.5784196 -6.2685297 -7.4229192
O -2.3539788 -4.1287736 7.2428837
H -3.2863201 -4.3460257 7.0440172
H -1.8664741 -4.8128710 6.7553507
O 2.1660006 14.7020041 -10.1390028
H 1.7740005 15.5310043 -10.5040029
H 2.7280008 15.2720043 -9.5560027
O 1.6750005 13.6550038 8.3440023
H 2.2260006 13.8080039 9.1020025
H 2.4150007 13.5810038 7.6520021
O -14.6220041 -3.6110010 5.7160016
H -15.1600042 -4.4270012 5.5850016
H -15.1620042 -3.1350009 6.4150018
O 5.9340017 -4.5560013 -11.5360032
H 6.4140018 -5.3850015 -11.4730032
H 6.5150018 -3.7630011 -11.1940031
O 0.5113985 -2.8780893 5.6996434
H -0.2769320 -2.3057641 5.5980682
H 0.8272511 -2.8928995 4.7693631
O 4.9720014 13.9570039 -12.2350034
H 4.4650012 13.4030038 -11.6050032
H 4.3670012 14.0120039 -13.0330036
O 0.8310002 16.4030046 5.3400015
H 0.5090001 17.2060048 4.8720014
H 1.3730004 16.7580047 6.0630017
O -13.7390038 -5.3720015 -10.1660028
H -13.5450038 -6.2090017 -9.6480027
H -14.0780039 -4.8520014 -9.4310026
O -16.2260045 -7.3690021 7.5970021
H -16.4310046 -6.4490018 7.6820021
H -15.2950043 -7.2550020 7.2750020
O 4.7466246 -6.8175494 -8.2863393
H 4.5637274 -7.5183331 -8.9494440
H 3.8507285 -6.6659672 -7.9132243
O 0.5848267 -7.7504267 8.6223428
H 0.5785040 -8.0827752 7.6974790
H -0.3487326 -7.4818097 8.7384791
O 7.2020020 13.6600038 -7.2990020
H 7.2480020 13.3700037 -6.3840018
H 7.3720021 14.5830041 -7.1320020
O 3.8870011 13.1170037 6.5870018
H 4.5820013 12.4740035 6.7860019
H 4.4490012 13.8990039 6.7250019
O -3.5538879 -7.4638955 -6.9639774
H -3.6147283 -7.4979948 -5.9891417
H -3.5106295 -6.4906318 -7.0835167
O -6.0140017 -9.0390025 8.7960025
H -6.4960018 -8.6510024 9.4870027
H -5.1380014 -9.0530025 9.1850026
O -5.2320015 12.7280036 -7.2940020
H -6.1480017 12.5170035 -7.0590020
H -4.8090013 11.8840033 -7.6780021
O -5.4490015 12.1400034 3.1830009
H -5.8190016 12.9810036 2.8370008
H -6.0080017 11.4710032 2.7620008
O 9.5610027 -9.0370025 11.4920032
H 9.7750027 -9.7290027 10.8540030
H 10.2750029 -8.4190024 11.2570032
O 11.4400032 11.9390033 -10.2840029
H 11.2990032 11.2850032 -9.6250027
H 12.1270034 11.5240032 -10.8150030
O 10.6200030 13.4320038 7.4690021
H 9.7340027 13.0290036 7.3610021
H 10.9330031 12.8650036 8.1280023
O -17.0490048 -5.0560014 3.1780009
H -17.2880048 -5.9660017 2.8730008
H -17.4790049 -4.5570013 2.4140007
O -3.0970009 -11.1220031 -9.0500025
H -2.9730008 -12.0960034 -8.8630025
H -3.3090009 -10.9030031 -8.1040023
O -2.7914801 -9.0277337 7.6199274
H -2.6854161 -8.6620284 6.7115223
H -2.5252649 -8.2474406 8.1517244
O -0.7127247 8.8944244 -10.0491944
H 0.0642866 8.3506232 -10.3087540
H -1.4325362 8.4346517 -10.5291616
O -5.6442228 8.7058151 3.0509676
H -5.5178909 9.3256494 2.3111867
H -6.5475294 8.3757880 2.8584308
O 0.6212299 -9.2835720 -8.9910581
H 0.2903669 -9.9124595 -9.6661397
H -0.1408552 -9.2512625 -8.3700009
O -2.0155620 -7.0663323 9.2929802
H -2.1992935 -7.6063421 10.0898364
H -2.2553429 -6.1747497 9.6235079
O 0.1668304 9.7463424 -7.5971856
H -0.2248266 9.4506182 -8.4486183
H -0.4699415 10.4359039 -7.3187433
O -2.9760008 12.7120036 9.3800026
H -2.2220006 12.3110034 8.9330025
H -2.4160007 12.9800036 10.1810028
O -2.3480007 -13.5580038 -8.2350023
H -1.4580004 -13.4730038 -7.7760022
H -2.6660007 -14.3400040 -7.7330022
O -1.1440003 -6.1330017 12.7720036
H -0.7690002 -7.0120020 12.6740035
H -0.3620001 -5.6060016 12.6140035
O -0.4661844 4.2162407 -9.6941187
H -0.7544878 4.4748001 -10.5921050
H -1.1844095 4.6610137 -9.1924609
O -2.1647715 8.0545036 8.4337060
H -2.7380459 8.8307604 8.5566022
H -2.2527805 7.5980945 9.2916687
O 13.9540039 8.6430024 -6.8040019
H 13.6650038 8.8690025 -5.9270017
H 14.6100041 9.2920026 -6.9930020
O -7.5180021 -16.0440045 -7.3960021
H -7.3800021 -16.3280046 -8.3410023
H -8.1950023 -15.3480043 -7.5530021
O -5.7430434 5.0996466 -6.5294427
H -5.3149734 4.4775572 -7.1506399
H -6.4185654 5.4818162 -7.1308608
O -6.5170018 5.0580014 11.9770034
H -7.0730020 5.8570016 12.0020034
H -6.9490019 4.4130012 12.5660035
O 12.8380036 5.6510016 -9.3620026
H 13.2030037 5.9290017 -8.4960024
H 12.4480035 4.8530014 -9.0790025
O 9.9130028 6.4610018 12.1490034
H 10.6070030 5.9170017 11.7100033
H 9.4290026 6.8810019 11.4150032
O -8.5090024 -10.9290031 -1.7730005
H -9.3500026 -11.0870031 -1.2580004
H -8.9870025 -10.6650030 -2.6120007
O -5.4020034 7.1166233 -4.6601732
H -5.3263951 6.3633552 -5.2855310
H -6.3126862 6.9842630 -4.3260516
O 10.3010029 -10.7320030 -1.9200005
H 9.4890027 -10.2780029 -1.6380005
H 10.2890029 -11.5210032 -1.3120004
O 10.1431763 9.2197317 -3.4659836
H 9.9219322 9.0545510 -2.5283567
H 9.5722892 8.5672449 -3.9089229
O -4.8450014 -11.8810033 -3.6070010
H -4.8610014 -11.7770033 -4.6100013
H -4.0750011 -11.3940032 -3.3800009
O -7.9357136 5.5141923 0.9008524
H -7.7358970 6.2678261 1.4836775
H -8.9155661 5.5125692 0.9654605
O 6.9180019 -12.0940034 -2.3150006
H 6.3620018 -11.6730033 -1.6250005
H 7.5830021 -11.3460032 -2.4780007
O 12.4221220 3.6434259 -0.8511578
H 11.5277840 3.9189599 -0.5551541
H 12.8778247 3.7094305 0.0132623
O -8.3820475 -9.8469145 3.0003656
H -9.2946575 -9.5688942 2.7729272
H -7.8755262 -9.0835623 2.6518403
O -5.9500017 8.0080022 -14.3920040
H -5.1030014 8.1000023 -14.8900042
H -5.8050016 7.0420020 -14.2130040
O -8.1335056 8.6461345 -0.4426722
H -8.1099411 9.1780231 -1.2705354
H -9.1036300 8.5089541 -0.3586273
O 8.6570024 -11.1900031 0.8070002
H 9.1690026 -10.6160030 1.4730004
H 9.1840026 -11.9970034 0.6090002
O 9.3760026 10.4250029 1.1300003
H 8.6990024 10.8910030 1.6340005
H 10.2310029 10.8270030 1.4840004
O -9.0570025 -9.2070026 -11.7240033
H -9.3330026 -8.7900025 -12.5550035
H -9.1300026 -10.1230028 -11.9730034
O -11.1320031 -14.0880039 5.0540014
H -10.5250029 -13.3560037 5.3530015
H -10.5290029 -14.7000041 4.5240013
O -8.6660024 5.5860016 -10.8490030
H -8.9840025 6.4650018 -11.0070031
H -8.3810023 5.3760015 -11.7500033
O -9.9056511 6.8066240 6.3292325
H -10.0772078 6.4550706 5.4249361
H -8.9266841 6.7039400 6.3470729
O 9.0200025 -10.2270029 5.5240015
H 8.7220024 -10.7890030 4.7120013
H 8.2480023 -10.2960029 6.1330017
O 8.4620024 7.5410021 -11.8220033
H 7.5150021 7.7260022 -11.6440033
H 8.7550025 8.3090023 -12.3230034
O 7.7781402 9.0529705 4.3264850
H 8.3715322 8.3808919 3.9329802
H 7.0425518 9.0496997 3.6917532
O -9.0040025 -14.0890039 9.4230026
H -8.3330023 -13.3780037 9.4250026
H -9.7110027 -13.4770038 9.7710027
O -10.1960029 4.2740012 -9.1590026
H -10.8370030 4.7880013 -9.6700027
H -9.3150026 4.4640012 -9.5100027
O -11.2120031 3.6370010 8.5920024
H -11.7440033 3.0840009 9.2770026
H -11.9220033 4.0920011 8.1000023
O 6.8330019 -16.6130046 -7.2560020
H 5.9480017 -16.5600046 -6.8430019
H 6.6060018 -15.9600045 -7.9390022
O 6.3340018 -15.3370043 9.7070027
H 5.7840016 -14.7640041 9.0960025
H 5.7440016 -15.4750043 10.4430029
O 8.1439289 1.5120463 -8.5160465
H 7.1849349 1.3242251 -8.5109972
H 8.2274255 2.0208387 -7.6819212
O 5.8681479 4.7605775 8.5225964
H 6.7554006 5.1717605 8.4773632
H 5.3292761 5.4739221 8.1183249
O -9.7860027 -15.7380044 -2.7630008
H -9.9170028 -16.2920046 -3.5220010
H -9.5540027 -16.4610046 -2.1290006
O -8.8583787 2.8590745 -5.5037740
H -9.0933447 2.0674484 -4.9669311
H -7.9461155 2.9922865 -5.1580428
O 8.5616013 2.8647778 -6.1679551
H 8.3261837 3.8064308 -6.1091225
H 9.5400459 2.9100474 -6.0623147
O 4.6640013 2.5050007 13.4810038
H 4.5250013 3.2810009 14.0940039
H 4.0210011 2.7230008 12.7690036
O -6.5626489 0.2262360 -3.3644121
H -7.4957307 0.4365626 -3.5659193
H -6.4099670 0.8373518 -2.6119137
O 5.6510016 -17.9360050 -2.4890007
H 5.2880015 -18.8140053 -2.7450008
H 6.5570018 -18.0650051 -2.8280008
O 7.5030053 1.5256998 -0.4786139
H 7.5962988 0.5714541 -0.6466846
H 7.0736563 1.8065158 -1.3092001
O 6.7560019 0.8760002 15.3770043
H 5.9020017 0.8220002 14.8660042
H 6.4240018 0.6070002 16.2550045
O -10.0710028 -14.0290039 0.8400002
H -9.1460026 -14.3240040 0.7170002
H -9.9160028 -13.2600037 1.4380004
O -7.6200736 5.4688354 -1.8126215
H -8.0150154 4.5810804 -1.9414395
H -7.6697228 5.5070009 -0.8317456
O 7.5819999 5.0347139 -1.0390507
H 8.2063175 5.1512108 -1.7855174
H 6.9508094 5.7625903 -1.2128386
O 4.5550013 0.4670001 17.4120049
H 4.2240012 -0.3190001 17.0650048
H 3.9160011 1.0710003 17.0500048
O -14.7900041 -8.5760024 3.9190011
H -14.0980039 -7.8890022 3.9930011
H -15.0050042 -8.6430024 2.9920008
O -9.1027821 3.5587064 4.5774158
H -9.4245836 4.4201039 4.2408551
H -8.1437289 3.7347004 4.5473239
O 8.5360024 -12.5340035 3.8600011
H 8.2790023 -13.3890037 3.5150010
H 9.4600026 -12.6890036 3.8230011
O 4.9670014 5.3870015 -15.9340045
H 5.0950014 6.0170017 -16.7010047
H 4.8040013 4.5080013 -16.3940046
O 7.2907688 7.7819597 0.8781928
H 6.6688040 8.3189711 1.4039451
H 6.7191681 7.4803739 0.1439167
O -7.6387603 -0.5448851 -7.2581661
H -6.8399397 -0.0782372 -6.9219440
H -7.6884894 -0.2530175 -8.1897486
O -12.5660035 -0.9320003 13.8530039
H -12.8280036 -0.5410002 14.7160041
H -11.9100033 -0.2760001 13.5400038
O 8.0900023 -14.8850042 6.8390019
H 8.4810024 -15.7460044 7.0230020
H 7.2300020 -15.2080043 6.4750018
O 10.8500030 1.7360005 -9.0400025
H 10.7060030 1.8080005 -9.9810028
H 9.9540028 1.8780005 -8.7000024
O 6.9690020 3.1440009 11.9030033
H 6.1710017 3.0740009 12.4060035
H 6.7450019 3.9030011 11.4440032
O -9.5560027 -5.0690014 -8.9100025
H -10.4360029 -5.0160014 -8.5200024
H -9.6180027 -5.8300016 -9.5090027
O -9.9760028 -2.4400007 10.6080030
H -10.4180029 -2.7540008 11.4270032
H -10.6950030 -2.4560007 9.9530028
O -7.7610022 15.0020042 9.5160027
H -8.4170024 15.5970044 9.0430025
H -7.5340021 14.2580040 8.9100025
O 8.2130023 -3.5050010 -10.1450028
H 8.3190023 -2.4940007 -9.9980028
H 9.1320026 -3.7610011 -10.1510028
O 6.7582226 -2.7908951 10.1738704
H 7.4548528 -3.4591322 10.1582344
H 6.4682365 -2.8008638 9.2360675
O -9.5455519 -0.1634108 -1.3841878
H -10.2066238 0.4705484 -1.0384501
H -9.1952930 -0.5457767 -0.5613823
O 7.6667027 -1.2396926 -1.0091703
H 8.2336742 -1.2664445 -1.8159434
H 8.2463647 -1.7151898 -0.3700536
O 5.2480015 -0.5880002 13.2170037
H 5.1800014 -1.5190004 13.5770038
H 4.2860012 -0.4540001 13.1810037
O 9.9820028 16.3910046 -2.3540007
H 9.8660028 16.6380047 -3.2340009
H 9.0000025 16.1660045 -2.1850006
O -5.6650016 -17.2870048 -3.1200009
H -5.5430016 -16.5250046 -2.4950007
H -5.9640017 -17.9870050 -2.4690007
O -8.8591175 3.0156967 -1.7111606
H -7.9983153 2.5495125 -1.7598181
H -9.1455222 2.6599084 -0.8406900
O 9.2628093 -2.2953871 0.8948764
H 8.8287294 -2.1989243 1.7717860
H 9.9446259 -1.5941992 0.9357546
O -7.9074513 -0.0627778 -10.0251754
H -8.6098105 -0.4502067 -10.5669815
H -7.1387256 -0.5644531 -10.3715578
O -7.2867882 3.6414137 8.8759020
H -6.9744183 3.6130920 9.7869253
H -7.9267128 4.3773361 8.9019988
O 3.5890010 -17.0990048 7.9110022
H 2.7640008 -16.6180047 7.6460021
H 3.4100010 -17.3370049 8.8200025
O 10.1690028 -0.9610003 -12.5460035
H 10.8010030 -1.6940005 -12.5440035
H 9.3430026 -1.3570004 -12.9730036
O 3.2823258 5.3095515 1.2098321
H 4.2080370 5.0102490 1.3453263
H 3.4194412 6.1580871 0.7362380
O -7.6062237 -3.4207342 -9.8897298
H -8.3666358 -3.8911463 -9.4788522
H -7.7427509 -3.6716468 -10.8258950
O -12.0430034 -1.0570003 8.9840025
H -12.9490036 -0.8400002 8.7670025
H -12.0330034 -1.8260005 8.3530023
O 10.7390030 -4.4290012 -9.6380027
H 10.9140031 -4.9360014 -10.4730029
H 11.6280033 -4.0750011 -9.5440027
O 6.7995120 0.3695845 7.0479509
H 6.1441937 0.1515643 7.7380272
H 6.4528022 1.2374357 6.7592745
O -11.7880033 -4.6510013 -7.5880021
H -11.8370033 -4.6750013 -6.6330019
H -11.9460033 -5.6150016 -7.6880022
O -13.3110037 -5.5620016 9.1120026
H -12.8740036 -6.3110018 9.6840027
H -13.6320038 -6.0550017 8.4220024
O -10.6420030 12.9240036 -9.1070025
H -10.0680028 12.3840035 -8.4330024
H -10.8300030 13.7510038 -8.6870024
O 6.6496336 -4.8935998 -7.8572086
H 7.1155109 -4.5844701 -8.6548535
H 6.0182271 -5.5637774 -8.2008083
O 3.8158175 -4.8598817 8.5265856
H 3.1743411 -4.9929171 7.8016210
H 3.2457386 -5.1152652 9.2808108
O 8.2150023 11.3410032 -9.4320026
H 7.6250021 11.8030033 -8.8030025
H 8.8580025 10.9710031 -8.8150025
O 4.4000012 13.6380038 9.4960027
H 4.6980013 14.4510040 9.0560025
H 4.9390014 13.0030036 9.0300025
O -8.6610517 -3.4892980 -3.3259049
H -8.8949301 -2.8152151 -4.0019472
H -8.3689052 -4.2217554 -3.8870247
O -8.7230024 16.5410046 -3.7780011
H -8.1680023 15.9040045 -3.3440009
H -8.0920023 17.2570048 -4.0160011
O 7.1881782 -3.9761494 -4.0723544
H 7.0907662 -4.7484117 -4.6458887
H 8.0853111 -3.6870549 -4.3360397
O 4.8460014 -2.8390008 14.5830041
H 5.4870015 -2.7300008 15.3260043
H 5.2360015 -3.4460010 13.9320039
O -14.1130039 -3.5230010 2.5330007
H -13.4790038 -3.0120008 1.9700006
H -14.2210040 -2.9430008 3.3090009
O 6.9483252 -4.3815399 2.2911649
H 7.3112119 -3.5635631 2.6860527
H 6.3636467 -4.7022845 2.9968013
O 4.0090011 -6.3100018 17.3370049
H 4.9890014 -6.1510017 17.4520049
H 3.5980010 -5.4850015 17.3630049
O -8.0480023 -2.9720008 -14.8710042
H -8.3590023 -2.7550008 -15.7740044
H -7.2660020 -2.2690006 -14.9330042
O -14.5860041 1.4840004 6.2340017
H -14.6100041 0.7720002 5.5710016
H -13.7870039 1.9780006 5.9790017
O 7.6150021 -1.5980004 -13.4520038
H 6.9060019 -2.2450006 -13.4780038
H 7.1220020 -0.7370002 -13.3990037
O 7.9192219 -1.9472327 3.3002744
H 7.1414238 -1.3512816 3.3244577
H 8.3821274 -1.6099993 4.0960364
O -4.7228081 -4.6472852 -9.3699095
H -3.8481528 -4.2940245 -9.6305366
H -4.5664569 -4.7228959 -8.4053399
O -12.1970034 -3.5130010 7.5250021
H -12.2790034 -4.3650012 8.0670023
H -12.9770036 -3.6080010 6.9170019
O -9.7840027 13.2470037 6.7570019
H -10.3240029 13.3530037 5.9600017
H -9.1750026 12.5720035 6.4440018
O 11.9160033 -6.2570018 -11.2350031
H 11.8690033 -7.1860020 -11.2020031
H 12.8450036 -6.1400017 -11.5510032
O 8.2239486 -4.2928730 6.5587563
H 8.0315396 -5.1877824 6.8882387
H 7.4259366 -3.8108984 6.8676034
O -10.2760029 -11.8380033 -9.2220026
H -9.2900026 -12.0050034 -9.2440026
H -10.5570030 -12.1030034 -10.1500028
O -9.0670025 -8.0200022 8.4920024
H -8.7780025 -8.9550025 8.5210024
H -8.5270024 -7.7570022 9.2340026
O -7.2600020 8.7910025 -8.5890024
H -6.5690018 8.7260024 -9.3020026
H -6.9790020 9.5050027 -8.0830023
O -7.9340022 11.2740032 5.8970017
H -7.2030020 10.7290030 5.5680016
H -8.5710024 10.4940029 5.9940017
O 10.6740030 -9.4060026 -8.7570025
H 11.3760032 -9.1130026 -9.3790026
H 11.1640031 -9.4320026 -7.9000022
O 6.3720018 -8.9250025 9.0580025
H 6.4760018 -9.1380026 10.0390028
H 7.1770020 -8.4310024 8.8880025
O 7.7740022 9.9060028 7.4440021
H 8.4740024 10.3460029 6.9020019
H 7.2080020 9.5390027 6.7460019
O -10.8670030 -7.0520020 -2.2560006
H -11.5920032 -6.3990018 -2.0660006
H -11.3510032 -7.9280022 -2.3890007
O -6.8980019 14.5230041 -2.5090007
H -7.5640021 13.7950039 -2.5240007
H -6.2120017 14.1630040 -3.1120009
O 7.9910022 -6.3160018 -5.8430016
H 7.4650021 -5.9570017 -6.6020018
H 8.8880025 -6.1280017 -6.2350017
O 6.6340019 -5.3830015 14.1920040
H 6.9640019 -5.1720014 13.2980037
H 6.8690019 -4.6150013 14.7450041
O 9.6020027 11.4600032 -5.0760014
H 10.0820028 10.9310031 -4.3720012
H 9.3540026 12.2400034 -4.4800013
O -5.3700015 -7.4170021 -15.2640043
H -5.9770017 -7.8040022 -15.8850044
H -5.1670014 -6.4840018 -15.5930044
O -6.9564049 -4.6195544 -0.4147378
H -6.3116233 -5.2367068 -0.8072361
H -7.7311664 -5.2213205 -0.4093463
O -5.9684038 10.5123436 0.8353471
H -5.7950241 9.9240295 0.0885121
H -5.2180969 11.1465636 0.7369663
O 9.3213142 -4.8982710 -0.1677336
H 9.3680351 -4.0055377 0.2395847
H 9.3377090 -5.4708489 0.6293594
O -9.3640026 -4.7870013 -16.9110047
H -8.7830025 -5.2130015 -16.2570045
H -9.9560028 -4.2460012 -16.3680046
O -9.5132008 -3.6069989 1.5236935
H -9.3141793 -2.6538476 1.5314240
H -9.7440278 -3.7134455 0.5749391
O 9.1818049 -1.2686754 -3.2495637
H 9.5236784 -1.9902251 -3.8210440
H 8.7406632 -0.6906045 -3.9093852
O 11.5960032 14.9860042 -0.5270001
H 10.9700031 15.4230043 -1.1890003
H 11.8800033 15.6830044 0.1380000
O -6.9408885 -6.0696973 -8.1893553
H -7.8281517 -5.9634357 -8.5857417
H -6.4205733 -5.4290265 -8.7090403
O -11.0440031 -6.1870017 6.7710019
H -10.5720030 -5.9080017 5.9870017
H -10.3270029 -6.7530019 7.1180020
O -7.9100022 12.4600035 -6.5980018
H -8.7670025 12.0270034 -6.8770019
H -8.3230023 13.2510037 -6.2500017
O -11.6400033 13.2120037 4.6160013
H -12.1340034 13.5660038 3.8270011
H -12.3260034 12.6730035 4.9060014
O 6.8087834 -6.9999494 5.0558636
H 6.1099388 -6.3967941 4.7383458
H 6.9257331 -7.5633196 4.2648154
O 9.3460026 11.0550031 5.3520015
H 8.6900024 10.4630029 4.8570014
H 10.1530028 10.9060031 4.9280014
O -12.6810035 -3.5610010 -4.9410014
H -13.2700037 -3.2750009 -5.6570016
H -12.0710034 -2.7900008 -5.0460014
O -12.8010036 -7.5120021 11.1000031
H -12.0790034 -7.4020021 11.8190033
H -13.6080038 -7.4470021 11.6060032
O -6.5110018 11.4920032 -4.4060012
H -6.2080017 10.6830030 -4.9430014
H -7.0120020 11.8810033 -5.1340014
O 8.6790024 -7.5080021 -9.7740027
H 9.3230026 -8.2350023 -9.6440027
H 8.5830024 -7.2010020 -8.8670025
O 9.6930027 -5.3660015 9.3480026
H 10.5060029 -5.6990016 8.8710025
H 8.9550025 -5.8210016 8.8700025
O 6.5060018 12.4570035 7.3910021
H 7.2840020 12.8340036 7.8330022
H 6.6620019 11.5030032 7.3670021
O -10.3832647 -3.4811948 -1.0597136
H -10.9419148 -4.1547563 -1.4827217
H -9.6996727 -3.3566777 -1.7523084
O -11.0630031 -7.6730021 13.2180037
H -11.0080031 -7.9920022 14.1470040
H -10.3470029 -7.0150020 13.2100037
O -4.6220013 14.1770040 -4.7490013
H -5.1250014 14.9280042 -4.9980014
H -4.8810014 13.5120038 -5.4680015
O 8.2220023 -9.7200027 -5.1260014
H 8.8390025 -8.9660025 -4.8560014
H 7.3920021 -9.3290026 -5.4560015
O 8.1690023 -5.5450016 11.6100032
H 8.7480024 -5.5720016 10.7880030
H 7.3920021 -5.6580016 11.0620031
O 12.7150036 11.9090033 -6.2800018
H 12.7210036 11.8650033 -5.3210015
H 12.3000034 12.8250036 -6.3560018
O -12.6170035 -9.4280026 -1.9850006
H -13.4090038 -9.7800027 -1.4920004
H -11.9170033 -9.9870028 -1.5710004
O -10.6460030 8.7860025 -2.7820008
H -9.6340027 8.8370025 -2.9380008
H -10.9010031 8.2410023 -3.5520010
O 6.0430487 -10.9965292 0.1792526
H 5.9106146 -10.0344467 0.2514967
H 7.0065996 -11.0573809 0.3825363
O 4.6130013 -9.0710025 15.8540044
H 5.0620014 -8.3710023 15.3110043
H 3.9440011 -8.4340024 16.1230045
O 6.9149584 11.1952702 -0.1480844
H 6.8848392 11.6241945 0.7278244
H 7.8090721 10.8111527 -0.1245314
O 3.0280008 6.6770019 14.5070041
H 3.4710010 6.6380019 13.6560038
H 3.6350010 7.3720021 14.9370042
O -8.5880024 -6.9760020 -10.5810030
H -9.0560025 -7.7180022 -10.9950031
H -7.8320022 -6.8870019 -11.2430031
O -9.1941510 -6.7204748 4.6982543
H -8.7002683 -7.5148304 4.9742239
H -8.5145647 -6.2223267 4.1966367
O -6.8010019 14.0990039 -10.7370030
H -7.4730021 14.1820040 -11.4360032
H -6.8170019 14.9680042 -10.3550029
O -8.6200024 11.6500033 0.8800002
H -7.7970022 11.2520031 0.5000001
H -8.7190024 10.8950030 1.5330004
O 11.9500033 -9.1310026 -11.1190031
H 11.3620032 -9.4300026 -11.7920033
H 12.6280035 -9.8430028 -11.1400031
O 10.1420028 -7.7520022 5.2070015
H 9.7170027 -8.6100024 5.1360014
H 10.6530030 -7.7420022 4.3690012
O 11.5510032 11.9160033 1.3970004
H 11.2650032 12.1610034 0.4450001
H 12.4810035 12.1780034 1.3520004
O -7.4430021 -11.9530033 -9.6600027
H -7.3130020 -12.3150034 -10.5920030
H -7.0970020 -12.6830035 -9.1850026
O -7.6130021 -11.5940032 6.8910019
H -8.4330024 -11.8790033 6.6160019
H -7.5160021 -11.7710033 7.8410022
O -5.4100859 3.7962953 -10.7381787
H -6.2811790 3.3825943 -10.5479197
H -5.0493329 3.8105316 -9.8330427
O -5.1005556 6.0497287 8.5080883
H -5.1163851 6.9254745 8.9246511
H -4.8082245 5.4921361 9.2537050
O 11.8130033 -10.5700030 6.7920019
H 11.3510032 -10.4420029 7.6490021
H 11.1410031 -10.4400029 6.0890017
O 10.7620030 6.5770018 -14.1690040
H 10.6030030 5.8820016 -13.5110038
H 11.3530032 7.2040020 -13.7250038
O 8.5830000 3.3534294 6.1376055
H 7.6573716 3.0681014 6.2872696
H 8.4327025 4.2565702 5.7880089
O -0.8580002 -10.9610031 -10.7280030
H -1.6670005 -10.8770030 -10.1560028
H -0.8370002 -11.9430033 -10.8780030
O -3.9340304 -11.9118906 4.2585271
H -3.2589558 -11.2359723 4.0738599
H -4.1853796 -11.7012609 5.1779649
O -1.8407050 5.2438368 -11.9102407
H -2.2570998 6.1032621 -11.6954578
H -1.0867749 5.5487590 -12.4663770
O -4.3432136 6.3189968 3.5917565
H -4.7686267 7.1483507 3.2922092
H -3.6287758 6.7110619 4.1371775
O 12.9150036 -12.8120036 5.9410017
H 12.2900034 -13.4230038 6.3210018
H 12.7130036 -12.0760034 6.4840018
O 14.9660042 8.3950023 7.2770020
H 15.8770044 8.6920024 7.0880020
H 14.8080041 7.6300021 6.6950019
O 2.5000007 -12.6320035 -10.4220029
H 3.0510009 -12.6090035 -9.6020027
H 1.9140005 -13.3260037 -10.1130028
O 0.5367670 -8.9038549 6.1077079
H 1.3925358 -9.3688580 5.9845596
H -0.0660745 -9.6767999 6.0136502
O 2.5840007 9.5970027 -12.3290035
H 2.7760008 10.3440029 -11.6890033
H 3.3340009 9.7540027 -12.9740036
O 1.1109281 10.0401631 3.3722040
H 0.9136293 10.9975155 3.3944455
H 1.2532747 9.8737260 4.3304973
O 6.3760018 -9.8690028 -12.0080034
H 5.4280015 -10.0060028 -12.4270035
H 6.8960019 -10.5800030 -12.4650035
O 0.4398572 -7.7030518 3.6163325
H 0.4715794 -8.1515313 4.4868083
H 1.2144717 -8.1093363 3.1733872
O 2.6340546 10.3249019 -8.7516916
H 3.1227766 9.4873565 -8.7037708
H 1.8068147 10.0958079 -8.2771649
O 5.0700014 9.2110026 7.3730021
H 5.7230016 9.0370025 8.0830023
H 4.4010012 9.7270027 7.9060022
O -11.8910033 -7.6650021 -12.2760034
H -12.8380036 -7.4200021 -12.3680035
H -12.0420034 -8.6050024 -12.2620034
O -10.8830030 -8.7860025 2.7030008
H -11.2550031 -8.0410023 2.2300006
H -10.9270031 -8.4810024 3.6310010
O -11.0880031 11.4200032 -11.4590032
H -10.5360029 11.8270033 -12.2040034
H -10.9720031 12.0270034 -10.6850030
O -9.9790028 9.7930027 2.9440008
H -10.8190030 10.1990029 2.6590007
H -10.0090028 9.9110028 3.8940011
O 6.4626139 -10.7841129 3.8811263
H 6.7762916 -9.9406456 3.4816813
H 7.1952263 -11.3970588 3.6590952
O 6.7760019 11.4560032 -11.7330033
H 6.1630017 12.2320034 -11.7080033
H 7.2490020 11.6470033 -10.8720030
O 7.3030020 11.6440033 2.6210007
H 6.8080019 12.1090034 3.3270009
H 6.8400019 10.7820030 2.5310007
O -5.7540016 -10.2110029 -11.8610033
H -6.0360017 -9.4190026 -11.3940032
H -5.6020016 -10.8440030 -11.1620031
O -5.2158241 -9.8201137 2.0884027
H -5.8312151 -9.0565889 2.0987607
H -5.7693701 -10.5190741 2.4810638
O -5.7970016 8.0190022 -10.8860030
H -6.1460017 7.2960020 -11.4680032
H -6.3360018 8.6960024 -11.3610032
O -5.5533873 9.7110753 5.6411139
H -5.5314575 9.2873001 4.7576973
H -4.6333353 10.0154955 5.7155412
O 11.5790032 -8.2730023 -0.5820002
H 11.5090032 -9.1210026 -1.0440003
H 11.0400031 -7.5960021 -1.0500003
O 11.7530033 10.8030030 4.1460012
H 11.7630033 11.5460032 3.4660010
H 11.5940032 10.0710028 3.5030010
O -3.1200009 -8.4340024 -10.1370028
H -3.2480009 -9.0860025 -9.5080027
H -4.0560011 -8.1790023 -10.3170029
O -2.6698141 -9.6814735 3.0805027
H -3.5604064 -9.7316056 2.6712972
H -2.1397959 -9.3098034 2.3489512
O -2.8698160 7.8675122 -11.5518007
H -3.8321392 7.8816087 -11.4006827
H -2.7776420 8.4481676 -12.3378261
O -2.9312363 12.3608885 4.1989739
H -3.8390416 12.2605281 3.8262106
H -2.5548003 13.0407770 3.6303960
O 11.8690033 -7.6170021 2.9740008
H 12.4680035 -6.8630019 3.1810009
H 12.5430035 -8.3490023 2.6890008
O 13.4720038 10.7990030 6.1760017
H 13.0670037 10.8480030 5.3130015
H 14.0280039 10.0380028 6.0280017
O -15.8470044 8.9020025 1.6530005
H -16.4250046 8.2570023 1.1150003
H -16.2540045 8.7150024 2.5390007
O 1.9040005 -8.5840024 -12.3950035
H 2.2860006 -7.9500022 -11.7340033
H 1.0940003 -8.1060023 -12.4210035
O -2.2611664 -3.8411951 4.1106309
H -1.6837036 -4.4655874 4.5957463
H -2.0613410 -2.9997237 4.5730873
O 2.0240006 13.4070038 -13.3950037
H 1.9780006 12.7280036 -14.1940040
H 2.2760006 12.8670036 -12.6300035
O 3.0815787 9.6561098 1.4704470
H 2.6614983 10.2966121 0.8566512
H 2.4489735 9.7133504 2.2169585
O -13.7560038 -6.9130019 6.4590018
H -13.8890039 -6.6340019 5.5430016
H -12.7600036 -6.7030019 6.6220019
O -15.2230043 12.0830034 1.8070005
H -15.4620043 11.1670031 1.7550005
H -14.6620041 12.2900034 1.0720003
O 3.9400011 -10.0760028 -13.2540037
H 3.1540009 -9.5340027 -13.0520037
H 4.3300012 -9.5300027 -13.9240039
O 2.3675825 -9.0412278 2.1223226
H 1.9458378 -9.4761240 1.3512649
H 2.9548714 -9.7642691 2.4291700
O 4.7270013 9.2660026 -14.4390040
H 4.8180013 10.2050029 -14.7900041
H 5.6740016 9.0520025 -14.3520040
O 5.6041106 9.3613745 2.5632917
H 4.8354579 9.5403929 1.9777473
H 5.1064203 9.3368419 3.4137859
O -14.8510042 -10.0700028 6.0640017
H -14.2080040 -9.4560026 6.4050018
H -15.0470042 -9.5110027 5.2100015
O -7.4090021 9.3760026 -12.6130035
H -7.3800021 10.2840029 -12.9810036
H -6.6260019 8.9770025 -13.0970037
O -13.3520037 12.9590036 -0.0480000
H -12.4370035 13.0170036 0.1390000
H -13.3200037 13.1620037 -1.0200003
O 3.9090011 -8.8700025 -16.3320046
H 4.5320013 -9.2130026 -16.9830048
H 3.5810010 -9.7440027 -16.0590045
O 3.9025590 -11.1715499 3.1096912
H 4.8448110 -11.0020768 3.3341417
H 3.9057798 -12.1507268 3.0599097
O 5.5235813 5.4357281 -12.3229772
H 6.3235355 5.4149673 -12.8648980
H 5.8731874 5.1926114 -11.4422627
O 6.1330017 13.0420037 4.5460013
H 5.2580015 12.6690035 4.6640013
H 5.8700016 14.0000039 4.3810012
O -4.3109636 -10.6732836 -0.3021358
H -4.5470376 -10.2859854 0.5676564
H -4.2074169 -11.6136797 -0.0464769
O -4.4610012 -11.8770033 14.4810041
H -3.9880011 -11.0380031 14.3200040
H -3.7200010 -12.4300035 14.8540042
O -3.8910011 8.0070022 -16.2830046
H -2.9990008 8.3400023 -16.4600046
H -3.7370010 7.0400020 -16.2350045
O -3.4133666 6.3486063 -0.2750174
H -4.2328195 6.7666871 -0.6123430
H -2.9508346 7.1574422 0.0475664
O 10.0350028 -13.0860037 -0.5340001
H 10.4080029 -13.6520038 0.0940000
H 9.8260028 -13.6880038 -1.2330003
O 12.3770035 9.4940027 -0.6120002
H 12.1200034 10.4290029 -0.7690002
H 12.2560034 9.4610026 0.4060001
O -3.7390010 -13.2150037 0.6890002
H -3.4530010 -13.8580039 0.0080000
H -2.9590008 -13.3020037 1.3260004
O -1.3590004 9.0370025 -16.8340047
H -1.0550003 9.0140025 -17.7900050
H -1.0780003 9.9220028 -16.5890046
O -2.2355617 8.6530583 0.5231372
H -1.7157218 8.4742302 1.3340435
H -1.8310275 9.4879628 0.2154284
O 15.1340042 7.8960022 -0.0410000
H 15.8700044 7.9910022 0.5700002
H 14.9230042 8.8550025 -0.1290000
O -18.5280052 6.2630018 2.4970007
H -17.6520049 6.1360017 3.0200008
H -18.1290051 6.2530018 1.6270005
O -1.0920003 -11.0120031 -15.7360044
H -0.9120003 -11.8220033 -15.2410043
H -0.8310002 -10.4110029 -15.0750042
O -1.8140005 -14.2830040 2.5960007
H -1.3320004 -15.1050042 2.1650006
H -1.8130005 -14.4940041 3.5190010
O 0.3570001 8.9070025 -13.5840038
H -0.4500001 9.4460026 -13.6630038
H 1.0830003 9.4770027 -13.2750037
O 1.6609898 10.9975490 -0.4356739
H 1.7253215 10.2750046 -1.0967827
H 2.1274019 11.7212038 -0.8955592
O 12.9570036 -10.0560028 2.3720007
H 12.6290035 -10.8280030 2.8550008
H 13.7710039 -10.4290029 1.9990006
O 1.8820005 -7.0700020 -16.4330046
H 1.2320003 -7.7590022 -16.6700047
H 2.6680007 -7.6500021 -16.5910046
O -1.7861564 -5.7975578 -2.7281048
H -1.3814400 -5.4266770 -3.5400219
H -2.4089191 -6.4346913 -3.1290379
O 4.0790011 13.1720037 0.8580002
H 4.7820013 13.7710039 1.0330003
H 3.6250010 13.0380036 1.7080005
O 15.0380042 -4.6540013 0.8590002
H 15.2720043 -4.4620012 -0.0140000
H 14.3770040 -5.2910015 0.7770002
O -12.6030035 -5.1850015 -1.4830004
H -12.6020035 -5.0810014 -0.5460002
H -13.3480037 -4.5910013 -1.7730005
O -10.8540030 8.4970024 -0.1070000
H -11.0580031 8.5790024 -1.1010003
H -11.3940032 9.2610026 0.2450001
O 5.4700015 -6.5940018 -16.5050046
H 5.1370014 -7.4710021 -16.2600046
H 4.8370014 -6.3650018 -17.2230048
O 7.9532409 -9.3628485 -1.7080506
H 7.4098461 -8.9827865 -0.9941994
H 7.8970286 -8.6537679 -2.3810678
O 7.4230021 15.6750044 -2.1520006
H 6.9910020 14.7950041 -2.1810006
H 7.2850020 15.8850044 -1.1540003
O -6.8211476 -7.6445700 2.5068866
H -7.2389911 -6.7808284 2.3233439
H -6.0671250 -7.3402199 3.0560185
O -4.3579504 11.7970093 -2.4979447
H -3.5588778 11.6085642 -3.0302661
H -5.0600127 11.7296063 -3.1669968
O 7.9039259 -7.0915455 -3.2719388
H 7.9932803 -6.8348583 -4.2218231
H 8.6808820 -6.6414102 -2.8905010
O 9.8130027 -2.0280006 12.7670036
H 9.0650025 -1.5500004 12.3180034
H 9.7580027 -1.5340004 13.6710038
O 9.3563620 8.4954948 -0.8308540
H 9.5899804 9.2164102 -0.2070118
H 8.6125410 8.1098686 -0.3293669
O -6.4850018 -12.6270035 -1.4980004
H -7.3370021 -12.1580034 -1.6780005
H -5.9750017 -12.4050035 -2.3240007
O -7.3780021 -7.9480022 15.9800045
H -7.7090022 -8.8570025 15.8840044
H -7.9140022 -7.6400021 15.2910043
O -3.3916570 8.4379487 -3.2887839
H -3.9812648 7.8853192 -3.8461762
H -3.8900883 8.4153193 -2.4571740
O -7.8410022 9.2650026 14.2530040
H -7.8790022 9.4620026 15.1970043
H -7.8640022 8.2950023 14.3040040
O 10.4430029 -8.6420024 -3.7960011
H 10.4460029 -9.2780026 -3.0840009
H 10.3850029 -7.8080022 -3.3560009
O 12.9460036 8.6840024 -4.3160012
H 12.0610034 8.5070024 -4.0430011
H 13.4290038 8.0440023 -3.7950011
O -9.8060027 -6.8160019 -5.4200015
H -9.0520025 -6.1820017 -5.4030015
H -10.4060029 -6.5170018 -4.7250013
O -7.4190021 -7.8320022 10.9260031
H -6.5220018 -7.8810022 11.2720032
H -7.7930022 -7.2770020 11.5720032
O -5.7577147 9.4120499 -6.0347049
H -5.5745143 8.6334580 -5.4600459
H -5.1512633 9.1823680 -6.7677067
O -7.6260021 11.2030031 9.0480025
H -7.3410021 11.8850033 8.3460023
H -7.2380020 11.6220033 9.8260028
O 12.8000036 -6.6760019 -6.8830019
H 13.7730039 -6.9340019 -6.8100019
H 12.4150035 -7.5870021 -6.6120019
O 10.5330029 10.7380030 -7.5680021
H 11.3300032 11.2270031 -7.8300022
H 10.3610029 10.9930031 -6.6430019
O 8.4060024 12.9940036 9.4440026
H 9.2060026 12.5560035 9.8910028
H 8.3760023 13.7000038 10.0700028
O -13.3720037 6.6340019 -0.5010001
H -13.9190039 7.2090020 -1.1490003
H -12.7400036 6.1660017 -1.0230003
O -0.7337218 -9.0056525 -1.2656455
H -1.0355829 -8.5541277 -0.4508374
H 0.0176211 -9.4978755 -0.8780386
O -2.3570007 -10.6970030 13.4100038
H -2.0530006 -11.6290033 13.5500038
H -1.7030005 -10.0890028 13.7720039
O -1.1351674 11.1060940 -0.2350472
H -1.0477221 11.8123281 -0.9069330
H -0.1835626 10.9871484 -0.0405502
O -1.5900004 11.1710031 14.4090040
H -0.9930003 11.7810033 14.8080041
H -2.2520006 10.9010031 15.1770042
O 15.3930043 10.3240029 -2.8200008
H 15.7090044 9.3920026 -2.9950008
H 15.5840044 10.4430029 -1.8650005
O -17.0060048 -8.4730024 -2.0390006
H -17.0330048 -8.5470024 -3.0050008
H -16.0980045 -8.0500023 -2.0280006
O -13.4830038 10.5850030 -2.9220008
H -12.5260035 10.4120029 -2.9750008
H -13.6250038 11.5390032 -3.0810009
O 4.0695383 -8.6213882 -1.6241025
H 4.4150741 -8.1865092 -2.4355569
H 3.1347278 -8.3852586 -1.6789214
O 2.0040006 -7.6460021 15.7080044
H 2.6630007 -6.9610019 15.9030045
H 1.3120004 -7.6910022 16.3690046
O 6.4750018 13.3350037 -1.8570005
H 6.4480018 12.6170035 -1.2110003
H 6.0380017 12.8680036 -2.6220007
O -11.4830032 -8.8050025 -5.0370014
H -12.0610034 -8.0510023 -4.9750014
H -10.6880030 -8.3000023 -5.4380015
O -10.2100029 10.9980031 -6.8950019
H -10.8920030 10.4410029 -7.2530020
H -9.6730027 10.3950029 -6.3840018
O 5.2574642 -7.3286466 -3.7106400
H 5.3107651 -7.6928913 -4.6159140
H 6.2153682 -7.2299403 -3.5155096
O 1.7751797 -5.7818323 10.1624357
H 1.0413301 -5.1377032 10.0598697
H 1.4438866 -6.5353586 9.6287116
O 5.3390015 13.2920037 -4.8190013
H 5.0880014 12.4900035 -5.2750015
H 4.7640013 13.9100039 -5.3040015
O 2.3180006 10.2840029 14.0620039
H 2.5490007 11.1390031 13.6690038
H 2.7610008 10.3700029 14.9140042
O -7.4860021 -9.9090028 -4.8330014
H -7.5680021 -9.9240028 -5.8070016
H -7.9290022 -10.7490030 -4.6030013
O -8.8970025 -12.0910034 12.6900036
H -9.7970027 -12.0580034 12.2850034
H -8.3750023 -12.2250034 11.8810033
O -2.6008635 6.4550012 -6.0701496
H -2.5185938 5.6979214 -5.4492905
H -1.7796046 6.9536888 -5.8672039
O -8.1780023 6.6270019 15.1950043
H -8.8730025 6.6060018 15.8090044
H -8.7100024 6.5110018 14.3940040
O 7.5790021 -11.9280033 -6.7680019
H 6.8250019 -11.5260032 -7.2030020
H 7.7770022 -11.2220031 -6.1330017
O 10.8580030 5.8230016 -6.1080017
H 10.2840029 6.5110018 -6.4670018
H 11.7480033 6.0070017 -6.3890018
O -3.6985243 -4.7237447 -6.8253669
H -4.1371844 -4.5524085 -5.9644178
H -3.1391522 -3.9308219 -6.9094528
O -5.0800014 -7.7070022 12.0540034
H -4.3330012 -8.0290022 11.4460032
H -4.5720013 -7.3000020 12.7540036
O -3.9128078 10.7104269 -8.4920775
H -3.8308975 9.7338678 -8.5365272
H -3.8644845 10.9873538 -9.4286693
O -5.9090017 12.0580034 11.0460031
H -5.8470016 11.4150032 11.7990033
H -5.0770014 11.9600033 10.5520030
O 15.9380045 -6.9120019 -8.1570023
H 15.7880044 -6.3230018 -8.9230025
H 16.6370047 -6.4960018 -7.6310021
O 11.8990033 -7.6500021 10.8090030
H 11.8190033 -7.8810022 9.8870028
H 12.7600036 -7.2190020 10.8010030
O 10.9910031 11.9890034 9.6780027
H 11.3290032 11.1290031 9.4020026
H 11.3310032 12.0300034 10.5990030
O -1.1464576 -8.7753403 -4.2423797
H -2.0431366 -8.4186838 -4.1315634
H -0.7861547 -8.6502005 -3.3444405
O -2.6239837 -4.8260011 10.7372814
H -2.3486027 -5.1442910 11.6206324
H -1.8258183 -4.3223406 10.4726790
O -0.2000762 13.1639253 -1.8694348
H 0.5428289 13.3777833 -1.2601528
H 0.2612097 12.8103852 -2.6536143
O 15.9160045 -6.6980019 -4.6690013
H 15.4380043 -5.8180016 -4.8200013
H 15.3830043 -6.9350019 -3.8810011
O 9.2150026 -8.5960024 14.5960041
H 9.0730025 -9.4510026 14.2750040
H 9.3310026 -8.1740023 13.7020038
O -17.0560048 7.9180022 -6.1490017
H -16.4260046 7.3550021 -5.7440016
H -16.6480047 8.8070025 -6.1490017
O 2.3931263 -9.3796904 -6.8606246
H 1.8498569 -9.5379865 -7.6626691
H 2.4707367 -8.4053659 -6.9318573
O -1.9001320 -11.1820248 9.1194196
H -1.6008247 -11.8606837 8.4842964
H -2.1353729 -10.4469594 8.5122829
O 2.5903064 10.1495649 -4.5108170
H 1.8766047 10.8215443 -4.4742674
H 3.1889601 10.5641297 -5.1687675
O 1.2840004 11.4190032 11.1520031
H 0.5900002 11.1570031 11.7820033
H 1.8410005 10.6000030 11.1210031
O -10.1590028 -10.9930031 -3.8910011
H -10.9080031 -11.6380033 -3.8370011
H -10.7320030 -10.2350029 -4.1600012
O -11.3070032 6.6050018 -4.7410013
H -10.7060030 6.1910017 -5.4150015
H -11.1660031 5.8980017 -4.0990011
O -12.2470034 5.9810017 11.6920033
H -12.8640036 5.2250015 11.8720033
H -12.8070036 6.7470019 11.4460032
O 9.2770026 -12.9260036 -4.6940013
H 8.6780024 -12.5130035 -5.3030015
H 8.9000025 -13.7660039 -4.7150013
O 3.3390009 -9.7610027 12.7000036
H 4.0020011 -10.1450028 12.1090034
H 3.9620011 -9.2610026 13.2640037
O 6.6356891 9.2123169 -4.0446513
H 5.8151817 8.6969579 -4.2012700
H 7.3178057 8.5093414 -4.1361782
O 7.9660022 11.7810033 12.8410036
H 7.0690020 12.1630034 12.6700035
H 7.7870022 11.0550031 12.1820034
O -5.5224195 -8.3116743 -8.7272749
H -6.1107905 -7.5335059 -8.6012075
H -4.7957977 -8.0679483 -8.1126780
O -7.7616239 -9.0891508 5.5635450
H -7.9475064 -9.4785630 4.6817385
H -7.6225954 -9.9114343 6.0782330
O -4.3060012 12.6650035 -10.5150029
H -3.8570011 13.4720038 -10.1190028
H -5.2240015 12.9370036 -10.5240029
O -3.8992903 10.2084498 8.6370262
H -3.7807589 11.1496523 8.8814939
H -3.7466464 10.2712855 7.6742818
O 13.5740038 -8.3370023 7.2710020
H 12.9980036 -8.9180025 6.6880019
H 13.8640039 -8.9530025 7.9410022
O 10.6730030 7.5020021 8.1240023
H 11.2130031 6.9390019 7.6040021
H 11.0630031 8.4060024 8.0900023
O -1.3225641 -9.1238669 -7.0494976
H -1.1193943 -9.0144940 -6.1006814
H -2.0814548 -8.5174263 -7.1484327
O -2.3170006 -8.9610025 11.2540031
H -1.4110004 -9.1560026 11.0030031
H -2.3860007 -9.5790027 12.0440034
O -4.0296297 8.0317742 -7.8595268
H -3.9038005 7.4152246 -8.5980155
H -3.5643271 7.5400812 -7.1480850
O -2.7032417 10.4445023 6.1073871
H -2.7727005 11.1524399 5.4235576
H -1.9637812 10.7938563 6.6376011
O 14.2380040 -6.1100017 10.3710029
H 15.0380042 -6.1350017 10.9100031
H 14.0000039 -5.1690014 10.2130029
O 12.2030034 9.8900028 8.5920024
H 12.4180035 10.1900029 7.6800021
H 13.0350036 9.5570027 9.0790025
O -5.3120015 -11.8790033 -6.7480019
H -5.0120014 -12.3440035 -7.4980021
H -5.9740017 -11.2950032 -7.1990020
O -5.7920016 -13.6140038 12.4840035
H -5.1840015 -13.4260038 11.7520033
H -5.4840015 -12.8670036 13.0970037
O -2.2005835 4.1545534 -4.5755421
H -2.7852773 3.8488219 -3.8459410
H -1.3187155 3.8982756 -4.2418925
O -4.8950014 8.4260024 10.5160029
H -4.5230013 8.9270025 9.7600027
H -5.3150015 9.0860025 11.0520031
O 9.9370028 -11.0980031 9.4260026
H 10.5550030 -11.8210033 9.4730027
H 9.1310026 -11.6300033 9.1330026
O 13.0860037 9.2060026 -9.4280026
H 12.9400036 8.9830025 -8.5150024
H 14.0260039 9.0670025 -9.4880027
O 11.9690033 8.7900025 11.8260033
H 12.3960035 8.0680023 11.4240032
H 12.4010035 8.7940025 12.6940036
O -12.5720035 -7.1800020 -7.9840022
H -13.3660037 -7.5500021 -7.5330021
H -12.1830034 -8.0230022 -8.3260023
O -14.1610040 8.7110024 8.0260022
H -14.2950040 9.1020025 8.9490025
H -13.3070037 8.2040023 8.0930023
O 9.1500026 -10.3610029 -10.8170030
H 8.2560023 -10.1020028 -10.4610029
H 9.7320027 -10.0960028 -10.1320028
O 2.7167821 -10.4697928 5.5072587
H 3.4040057 -10.1010251 6.1083138
H 3.2074992 -10.4876064 4.6613451
O 5.8399634 9.4194986 -8.3287326
H 5.7002095 8.5813887 -7.8459271
H 6.5597255 9.8175979 -7.8020050
O 3.5910010 10.6670030 8.9460025
H 3.0740009 11.3470032 9.3850026
H 3.2510009 9.9020028 9.4070026
O -10.7540030 -9.3790026 5.9810017
H -11.4240032 -9.1310026 6.6350019
H -10.0170028 -8.9930025 6.5080018
O -11.6120032 6.6380019 -9.8680028
H -10.9440031 7.2240020 -9.4600026
H -12.1320034 6.4380018 -9.0910025
O -13.4140038 8.3310023 4.5310013
H -14.2630040 8.8130025 4.4260012
H -12.8510036 9.0370025 4.8320014
O 6.1546927 -11.5650959 6.6235233
H 5.6379345 -10.7474437 6.8021078
H 6.2264560 -11.5035322 5.6521924
O 6.4792109 4.3977558 -9.9444407
H 6.1224445 4.2642929 -9.0464220
H 7.3495584 4.7984190 -9.7202964
O 4.2877880 6.5570195 7.1783375
H 4.6465247 7.4561453 7.0511999
H 3.6265062 6.7585392 7.8786510
