26
singlet biradical 1BRyy; verbatim CASSCF(14,12)/ANO-S coordinates from ACS SI
H -0.000020 -1.553108 -1.963020
H -0.000099 1.544858 -1.970455
H 2.421282 -2.468752 -0.112071
H -2.421188 -2.468825 -0.111959
H 2.421253 2.469458 -0.124130
H -2.421244 2.469383 -0.123667
H 4.474487 -1.232392 0.498133
H -4.474550 -1.232521 0.497924
H 4.474536 1.236091 0.491938
H -4.474466 1.235963 0.492404
C 0.000000 -1.444843 -0.868969
C -0.000037 1.441850 -0.875896
C 1.260788 -0.701098 -0.459105
C -1.260771 -0.701126 -0.459038
C 1.260772 0.700112 -0.462503
C -1.260792 0.700087 -0.462367
C 2.423921 -1.390627 -0.117727
C -2.423874 -1.390703 -0.117655
C 2.423905 1.391321 -0.124545
C -2.423907 1.391244 -0.124232
C 3.579348 -0.689416 0.226816
C -3.579354 -0.689520 0.226848
C 3.579364 0.691796 0.223388
C -3.579332 0.691693 0.223677
O 0.000017 -2.757755 -0.436655
O -0.000005 2.756824 -0.449896
