19
2a (NH) triplet; source-verbatim CASSCF(14,12) optimized coordinates from JA043988W SI
C        3.056589      -0.696165      -0.287439
C        3.142700       0.652890       0.138605
C        1.840647       1.036254       0.309137
C       -0.336872      -0.175201       0.051837
C       -0.891160      -1.431401       0.314960
C       -2.268277      -1.593271       0.378968
C       -3.126256      -0.492001       0.190495
C       -2.608217       0.735512      -0.069076
C       -1.198290       0.936238      -0.162002
N        1.808494      -1.095620      -0.366709
N        1.062955      -0.039135      -0.010788
N       -0.747693       2.161507      -0.469483
H       -4.190818      -0.626277       0.250514
H       -2.677854      -2.564310       0.585781
H       -0.234694      -2.264709       0.462143
H        3.848482      -1.371660      -0.537005
H        4.020274       1.242702       0.296409
H        1.417532       1.960951       0.629896
H       -3.244092       1.587288      -0.224705
