12
Dewar benzene TCSCF/6-31G* disrotatory second-order saddle; verbatim ACS SI coordinates (angstrom)
H  1.3169677499  2.0278196237 -0.7017530405
H -1.3169677499  2.0278196237 -0.7017530405
H  1.3169677499 -2.0278196237 -0.7017530405
H -1.3169677499 -2.0278196237 -0.7017530405
C -0.6573481308 -1.2847279066 -0.2866162849
C  0.6573481308 -1.2847279066 -0.2866162849
C -0.6573481308  1.2847279066 -0.2866162849
C  0.6573481308  1.2847279066 -0.2866162849
C -1.1282483676  0.0000000000  0.3392581764
C  1.1282483676  0.0000000000  0.3392581764
H  1.5349082131  0.0000000000  1.3358730992
H -1.5349082131  0.0000000000  1.3358730992
