26
triplet biradical 3BRxx; verbatim CASSCF(14,12)/ANO-S coordinates from ACS SI
H -0.057722 -2.416755 -0.332197
H -0.057721 2.416756 -0.332203
H 2.377221 -2.469309 -0.403285
H 2.377220 2.469309 -0.403295
H -2.490573 -2.468758 -0.491757
H -2.490573 2.468757 -0.491769
H 4.461679 -1.233951 -0.899206
H -4.559905 -1.233716 -1.046211
H 4.461703 1.233952 -0.899104
H -4.559898 1.233711 -1.046241
C -0.069244 -1.466500 0.203508
C -0.069245 1.466502 0.203503
C 1.196964 -0.700593 -0.124617
C -1.322212 -0.701215 -0.159468
C 1.196965 0.700594 -0.124617
C -1.322212 0.701216 -0.159471
C 2.376677 -1.388600 -0.403267
C -2.489838 -1.387549 -0.482967
C 2.376679 1.388600 -0.403261
C -2.489838 1.387548 -0.482976
C 3.552547 -0.690505 -0.681388
C -3.658895 -0.689750 -0.797777
C 3.552554 0.690506 -0.681356
C -3.658893 0.689748 -0.797788
O -0.024065 -1.716176 1.576628
O -0.024067 1.716180 1.576623
