10
Exact ACS SI CASSCF(6,6)/6-31G* geometry for 10 (3A"); DOI 10.1021/jo0256991
C       0.9520042      0.0256783      0.0000000
C       0.1850199      1.1906136      0.0000000
C      -0.9214909     -1.2182599      0.0000000
C      -1.6989767     -0.0306503      0.0000000
N       2.3094067      0.0873235      0.0000000
N       0.3674809     -1.1966931      0.0000000
N      -1.1508866      1.1450475      0.0000000
H       0.6505088      2.1576153      0.0000000
H      -1.4066475     -2.1783351      0.0000000
H      -2.7724426     -0.0863839      0.0000000
