17
Source-verbatim SI TS-5-5 (R/U)B3LYP/6-31+G(d) geometry
C -2.55505 -0.80423 -0.62672
C -2.17578 0.38813 -0.02875
C -0.96614 0.67245 0.60721
C 0.16967 -0.28591 0.80965
C 1.44598 -0.01355 -0.00413
C 1.67736 1.22271 -0.59164
C 2.37382 -1.04978 -0.11144
H 2.20356 -2.01867 0.34987
H 3.29862 -0.91837 -0.66640
H 0.45344 -0.27181 1.87416
H -0.15592 -1.31101 0.60400
H -2.90103 1.20222 -0.05914
H -1.90467 -1.67300 -0.66194
H -0.83840 1.67520 1.01107
H 0.96003 2.03369 -0.53788
H 2.59454 1.40681 -1.14446
H -3.52940 -0.90400 -1.09439
