3329
4-thiothymidine S1S0-MIN; verbatim full 3329-atom QM/MM coordinates from ACS SI
N 0.7274241 -0.4360005 -0.9413850
C -0.4231697 -0.4154904 -1.8322355
C -0.2546184 0.5582623 -2.9831157
C 0.3551336 1.6427740 -2.6174863
N 1.2399774 1.7204313 -1.5110392
C 1.6241850 0.6067127 -0.8996289
C -2.1015714 -1.2734357 1.6959707
H -2.7924169 -1.4554001 0.8691957
H -2.6167192 -1.5011623 2.6316118
C -0.8644138 -2.1783836 1.5760578
H -1.1894190 -3.1857798 1.8296504
O -0.3653865 -2.2638429 0.2222327
C 0.8541526 -1.4871920 0.1256341
H 1.6823619 -2.1754128 -0.1638449
H -1.3631472 -0.3810915 -1.3149843
C -1.0101827 0.3142747 -4.2589031
H -1.3930746 1.2438714 -4.6679478
H -0.4073508 -0.1796073 -5.0127435
H -1.8849550 -0.2919525 -4.0764559
H 1.6869421 2.6323033 -1.2314088
O 2.7204170 0.4767256 -0.3335466
C 0.2827020 -1.7520918 2.4733386
H -0.0538648 -1.1693388 3.3319832
C 1.1236465 -0.9093778 1.5414614
H 0.7268065 0.1086089 1.5881575
O 0.9661096 -2.9158996 2.9959398
O 2.5257344 -0.8069742 1.8696626
H 2.8623375 -0.2848643 1.0757519
H 1.0213610 -3.6021736 2.2850096
O -1.8160690 0.1275981 1.7185328
H -2.5943323 0.5255428 2.1840293
S 0.5263181 3.3366793 -3.6296271
O -13.2220037 2.3610007 -3.2990009
H -13.2790037 2.6980008 -4.1580012
H -14.1220040 2.0690006 -3.0750009
O 1.2560004 -15.7570044 -1.4500004
H 0.9160003 -15.7940044 -2.3930007
H 0.5620002 -15.1610042 -1.1050003
O 4.3299161 -3.2429119 0.1638515
H 4.6898068 -3.0655456 -0.7319158
H 4.1022303 -4.1791143 0.0594674
O 3.0790009 2.5840007 16.4080046
H 3.6480010 3.3420009 16.1760045
H 2.2090006 2.9160008 16.3270046
O 1.8570005 19.4680054 -2.9100008
H 1.0590003 18.9360053 -2.9230008
H 2.5190007 18.9570053 -3.4510010
O -15.6390044 0.8660002 -2.5550007
H -16.3330046 0.5060001 -2.0000006
H -16.2250045 0.9490003 -3.3350009
O 3.5110010 -14.7870041 0.0920000
H 2.7030008 -15.1600042 0.4820001
H 3.3340009 -15.1010042 -0.8120002
O 2.2820006 0.2210001 -19.1820054
H 2.3510007 0.7400002 -18.3970051
H 2.0940006 -0.7160002 -18.8820053
O -8.0660023 -16.6670047 1.8350005
H -8.3200023 -17.4640049 1.3500004
H -8.0450023 -15.9360045 1.1740003
O -6.9333200 3.2543994 2.0996136
H -7.1867482 4.0299940 1.5603462
H -6.7074643 3.6999612 2.9373761
O 11.1174645 -0.2645586 0.8831731
H 11.6311143 -0.7352303 1.5790011
H 11.0908528 0.6249757 1.2585770
O -14.4160040 3.3100009 -0.3490001
H -13.4700038 3.5680010 -0.3200001
H -14.8050041 3.4420010 -1.2650004
O 7.3190020 -14.5080041 -1.1390003
H 6.8100019 -14.4100040 -0.3040001
H 7.2660020 -13.5580038 -1.5450004
O 7.9200022 0.9820003 -17.6480049
H 8.0760023 0.0290000 -17.4910049
H 8.8040025 1.3000004 -17.3330049
O 2.1854793 4.0316226 -0.9177818
H 2.7558118 4.3247079 -0.1675773
H 1.7506968 4.8977892 -1.1152688
O 0.9831290 0.3681525 11.3263442
H 0.0978359 0.3805391 11.7391927
H 0.8769736 1.0914623 10.6616724
O -2.3940007 -14.7170041 -1.4440004
H -1.8350005 -15.4330043 -1.8090005
H -1.7480005 -14.1310040 -0.9410003
O -3.6560010 5.1860015 -17.6390049
H -3.6850010 4.3930012 -18.2250051
H -3.7500010 4.9520014 -16.7040047
O -6.4504277 1.8779705 -1.1190299
H -5.9728715 2.6453530 -0.7420419
H -6.2389591 1.2046606 -0.4364868
O 10.8570030 -15.2270043 -2.7490008
H 11.7160033 -15.1520042 -2.2770006
H 10.9020031 -14.5920041 -3.4690010
O 13.3630037 3.8550011 1.6850005
H 13.4890038 2.9280008 2.1630006
H 14.2750040 4.1680012 1.5700004
O -9.1875242 -1.7190380 -5.3266732
H -8.5496198 -1.3100163 -5.9525173
H -9.9433001 -1.8523815 -5.9420179
O -8.9420025 -5.9920017 12.3410035
H -8.6070024 -5.6600016 13.2350037
H -8.5070024 -5.3400015 11.7390033
O 9.7455123 -3.4107536 -5.0019811
H 10.5831744 -3.9055053 -4.9080547
H 9.8133093 -3.1575089 -5.9492806
O 9.7860027 0.1920001 14.5570041
H 8.8640025 0.3450001 15.0050042
H 9.7020027 0.9100003 13.8840039
O -4.5520013 0.3510001 -18.6490052
H -4.7830013 -0.5720002 -18.8840053
H -3.6500010 0.4980001 -19.0090053
O -8.9499085 1.8870006 0.8621641
H -8.2146520 2.2981735 1.3642184
H -8.7888941 0.9433362 1.0209939
O 8.5450024 -1.4890004 -16.5020046
H 9.2190026 -2.2050006 -16.6950047
H 8.2660023 -1.7790005 -15.5900044
O 10.8398813 0.4491453 -1.8903797
H 10.2796684 -0.2521582 -2.2849545
H 10.9361636 0.1404386 -0.9688224
O -18.7610053 -6.3820018 -1.4570004
H -18.3970051 -7.2910020 -1.4930004
H -18.0480051 -5.8470016 -0.9820003
O -11.7153164 4.2095761 -0.6023361
H -11.5151314 3.2523610 -0.4972126
H -11.4141362 4.3420380 -1.5213570
O 1.1067171 -10.5376960 0.1629880
H 0.6975270 -11.1101457 0.8501089
H 1.3668530 -11.1931875 -0.5089129
O 0.7408285 5.4507569 2.2805715
H 0.2076022 5.2999670 1.4688958
H 1.6541971 5.4120864 1.9188257
O 0.6400002 6.1370017 17.3010048
H 0.3720001 6.3830018 18.1220051
H 1.4950004 5.7600016 17.5540049
O -16.8320047 3.3460009 1.1310003
H -17.4500049 3.7350010 0.5020001
H -16.0480045 3.2180009 0.5580002
O 1.8020005 -18.0550051 1.7210005
H 2.0870006 -17.7560050 2.5900007
H 1.6380005 -19.0430053 1.9460005
O 0.1790001 3.1610009 -17.0310048
H 0.0250000 4.0810011 -17.4470049
H 0.7140002 3.4640010 -16.2400045
O -1.0221965 4.8806830 0.1798829
H -1.2355656 3.9230149 0.0759802
H -1.9120280 5.2755772 0.0743289
O 17.7410050 1.7230005 -1.9780006
H 18.3480051 1.1930003 -2.4890007
H 17.0520048 1.1080003 -1.7660005
O -6.5590018 -6.9800020 -12.4030035
H -5.9000017 -6.2920018 -12.4010035
H -6.2540018 -7.6100021 -13.1090037
O -7.7708968 -5.0680747 3.0551792
H -7.3781985 -4.2999334 3.5179932
H -8.3071553 -4.5998437 2.3791465
O -6.9880020 11.7150033 -13.8220039
H -6.9770020 12.4740035 -13.3070037
H -6.1750017 11.7680033 -14.2810040
O -7.5300021 16.3790046 -0.7660002
H -6.8580019 15.8030044 -0.3520001
H -7.4810021 15.8290044 -1.6200005
O 9.3877882 -6.6880516 1.9833909
H 10.2572618 -7.0456342 2.2461160
H 9.2251794 -6.0457613 2.7056888
O 10.9890031 12.2640034 -1.2580004
H 10.7160030 13.1540037 -0.9770003
H 10.6630030 12.2160034 -2.1780006
O -15.0590042 -3.7000010 -1.5480004
H -15.7440044 -3.6270010 -2.2360006
H -15.0710042 -2.6890008 -1.2730004
O 2.2470006 -2.2720006 -18.1530051
H 1.8080005 -3.1660009 -17.9430050
H 2.9350008 -2.5990007 -18.7430052
O 3.1818921 -6.3754201 1.9942363
H 2.9370666 -7.3214200 1.9601697
H 2.3331457 -5.9439635 1.7651130
O -0.0380000 -4.3410012 17.5470049
H 0.2170001 -4.4020012 16.6370047
H -0.8050002 -4.9430014 17.6360049
O 3.5720010 17.8050050 -4.1120012
H 4.5470013 17.7970050 -4.1570012
H 3.4240010 16.9230047 -3.6500010
O -2.7680008 -5.8890016 -17.9160050
H -1.9280005 -5.6120016 -18.3510051
H -2.7260008 -6.8960019 -18.0800051
O -5.4305444 -6.6696155 -1.4653351
H -5.7390578 -6.8826060 -2.3693000
H -5.7763903 -7.4694927 -1.0152352
O -7.7830022 -4.7940013 14.3360040
H -7.4310021 -4.8730014 15.2010043
H -7.2610020 -3.9900011 14.1550040
O -3.8890011 15.0050042 -2.1220006
H -4.1890012 15.9380045 -2.2300006
H -4.2450012 14.5910041 -2.8410008
O 15.2830043 -2.7450008 -4.4390012
H 15.8410044 -1.9120005 -4.3270012
H 14.4610040 -2.5930007 -3.9380011
O -14.7820041 -7.0280020 -2.1460006
H -14.5000041 -6.6220019 -1.3420004
H -14.0330039 -7.5740021 -2.2810006
O -13.0630037 13.3900037 -2.9660008
H -12.4810035 12.9610036 -3.6420010
H -13.2990037 14.1460040 -3.5320010
O 4.4518791 -5.5043217 -1.7532700
H 5.2753827 -5.5003567 -1.2193648
H 4.7202548 -6.0729988 -2.5017628
O 2.8160008 -1.7670005 16.3250046
H 2.9320008 -2.1720006 17.2220048
H 3.2180009 -2.3680007 15.6650044
O 6.1610017 17.4020049 -3.8660011
H 6.4530018 16.6980047 -3.2620009
H 6.3600018 17.0880048 -4.7370013
O -4.9510014 -2.3400007 -18.9020053
H -5.3340015 -3.1830009 -18.9740053
H -4.4070012 -2.4870007 -18.1140051
O -8.3858206 -0.9530762 1.1996716
H -8.2122314 -0.7391789 2.1416091
H -7.5748631 -1.4660160 0.9979678
O -4.1510012 19.0830053 0.4430001
H -3.8220011 19.3080054 -0.4300001
H -5.1130014 19.2780054 0.3800001
O 12.7100036 0.2510001 -4.0510011
H 12.5370035 -0.7410002 -3.7980011
H 12.0320034 0.6590002 -3.5060010
O -2.2080006 -18.0080050 -0.3020001
H -2.7660008 -18.8190053 -0.1540000
H -2.2990006 -17.7980050 -1.3060004
O -3.7196225 -2.2795979 -1.5365640
H -3.6302613 -3.1319749 -1.0590654
H -4.6162795 -2.3935544 -1.9266633
O -7.1420020 -1.3160004 17.3150048
H -6.4210018 -1.6400005 16.8060047
H -7.8430022 -1.1380003 16.5990046
O 18.1500051 -2.2520006 -1.7830005
H 18.9000053 -1.7270005 -1.6350005
H 17.9500050 -1.8280005 -2.6090007
O -7.7920022 -4.1490012 -12.5320035
H -7.8490022 -3.5440010 -13.2920037
H -8.6080024 -4.8160013 -12.6390035
O -9.8198444 -2.5473019 6.5750920
H -10.2829481 -1.7624023 6.2184739
H -10.5879374 -3.0678678 6.8867065
O -9.5630027 13.9430039 2.8650008
H -10.2170029 14.7090041 2.9770008
H -9.9800028 13.2980037 3.4970010
O 9.0130025 -4.6630013 -13.2630037
H 8.4100024 -4.7070013 -14.0780039
H 8.6090024 -5.3950015 -12.7530036
O 9.5468251 -5.1239449 4.2531727
H 8.9824140 -4.6488821 4.8964751
H 9.7566352 -5.9258482 4.7639020
O 8.8020025 16.7050047 4.7590013
H 7.8470022 16.7150047 4.4780013
H 8.9110025 15.7470044 4.8090013
O -3.5270010 -3.7980011 -14.1270040
H -2.6640007 -4.3430012 -14.1830040
H -4.0620011 -4.3400012 -13.5190038
O -4.9114876 -6.5707104 4.1471802
H -4.9181020 -5.6594758 3.7915729
H -5.3472040 -6.4816435 5.0160248
O -7.1440020 13.9400039 1.8020005
H -7.4750021 13.3210037 1.1560003
H -7.9300022 13.9510039 2.4060007
O 13.7900039 -5.3760015 -2.4890007
H 13.2940037 -5.6660016 -1.6650005
H 14.6620041 -5.1250014 -2.1140006
O 14.0230039 13.0250036 0.8850002
H 14.7370041 13.4770038 0.4480001
H 13.9180039 13.6090038 1.6030004
O -15.9460045 4.4580012 -2.4050007
H -16.4020046 3.9350011 -3.1320009
H -15.1900043 4.9850014 -2.7210008
O 2.2180006 -16.9780048 -5.1200014
H 1.8810005 -17.1470048 -6.0190017
H 2.2420006 -17.8190050 -4.6700013
O -0.0560000 -13.6800038 12.4980035
H 0.0220000 -14.4210040 13.1220037
H 0.8500002 -13.2740037 12.7570036
O -0.0325568 3.6396487 12.6680761
H 0.1467607 4.3854501 13.2820154
H -0.9887795 3.5015715 12.7630642
O -18.5520052 2.9300008 3.7940011
H -17.9840050 3.1780009 3.0810009
H -18.0630051 2.1400006 4.1940012
O -4.8240014 -16.7640047 0.4300001
H -4.8370014 -16.2180045 1.2170003
H -4.0400011 -16.4990046 -0.0160000
O -1.8070005 1.5020004 -17.4900049
H -2.0570006 1.2400003 -16.5590046
H -1.0580003 2.1260006 -17.4290049
O -2.5110007 19.0510053 2.6990008
H -3.1350009 19.1360054 1.8620005
H -3.0680009 19.3230054 3.4840010
O 16.4920046 3.9830011 3.3480009
H 17.3590049 3.7670011 2.8630008
H 16.4560046 4.8620014 2.8930008
O -14.8940042 -5.6620016 0.6570002
H -15.1510042 -4.9500014 0.0880000
H -14.7850041 -5.1440014 1.5240004
O 6.6448263 -5.5611506 -0.1403753
H 6.6456507 -5.1240507 0.7447657
H 7.5532270 -5.3309532 -0.4181205
O -5.2010015 -4.9240014 -18.4350052
H -5.4200015 -4.8350014 -17.5020049
H -4.4080012 -5.4010015 -18.3160051
O -6.0889617 -2.5132250 1.0429894
H -5.5743766 -3.0691833 1.6628477
H -6.4249408 -3.2234331 0.4425296
O -3.0720009 14.7530041 0.9880003
H -3.0890009 13.8330039 0.7280002
H -3.0300008 15.1750042 0.1050000
O 13.4170038 -2.4810007 -0.9530003
H 13.3060037 -3.3940009 -0.5410002
H 13.4510038 -1.9040005 -0.1890001
O -5.7220016 -15.3570043 2.6700007
H -6.0890017 -14.4810041 2.6190007
H -6.4090018 -15.8680044 2.2550006
O -4.2250012 5.3950015 -15.0470042
H -4.6400013 4.6080013 -14.5650041
H -3.2600009 5.2460015 -14.8950042
O -3.7785369 3.8551204 2.4040963
H -2.8397036 3.7733754 2.6784364
H -4.0066251 4.7232981 2.8008023
O 11.8810033 -14.1840040 2.1090006
H 11.3470032 -14.9260042 2.4310007
H 12.7990036 -14.5440041 2.0890006
O 16.6280047 8.2530023 3.2120009
H 17.4000049 7.7030022 3.2600009
H 17.1360048 9.0680025 3.3800009
O -6.4313102 3.3481127 -4.4716003
H -5.6837688 3.1708524 -3.8711719
H -6.0498423 3.9931782 -5.0957424
O -9.5660027 6.5370018 12.7180036
H -9.0680025 7.1420020 12.0870034
H -10.4390029 6.5470018 12.2640034
O 12.9370036 -13.8750039 -4.1800012
H 13.7530038 -13.9040039 -3.6610010
H 12.8400036 -12.8940036 -4.3910012
O 10.9030271 2.9550103 -2.9698125
H 11.5871005 3.2015246 -2.3122358
H 10.6660022 2.0709491 -2.6144254
O 7.2780020 3.6230010 15.3510043
H 7.1360020 3.9330011 16.2500045
H 6.9940020 2.6930008 15.4460043
O -14.5390041 -10.2520029 -0.3070001
H -14.8730042 -9.5330027 0.2280001
H -14.9120042 -10.9050031 0.3420001
O -9.6979478 6.1026090 3.7090191
H -10.2589777 6.0252463 2.9060982
H -9.0005351 6.6873475 3.3636892
O 7.7580022 -14.8240041 2.3460007
H 7.1890020 -15.5800044 2.3960007
H 7.0310020 -14.1660040 1.9950006
O 6.0588023 7.3378051 -1.3399281
H 5.0971906 7.4347634 -1.1625004
H 6.1905109 7.9510084 -2.0869321
O -10.9977086 -5.6026330 2.8560012
H -10.5135172 -4.8902714 2.3933005
H -10.3147888 -5.9497917 3.4598406
O -10.3060029 13.4760038 -0.2670001
H -10.6470030 14.0130039 0.4880001
H -9.7410027 12.7630036 0.1930001
O 7.1978731 -8.3930957 2.6824410
H 6.7270679 -8.3387257 1.8265360
H 8.0558632 -7.9983818 2.4271311
O 9.0340025 14.7620041 1.9870006
H 9.9980028 14.9100042 1.8300005
H 9.0750025 14.2920040 2.8740008
O -17.4190049 7.3950021 -0.0480000
H -16.8920047 7.8060022 -0.7210002
H -18.1870051 8.0560023 -0.0930000
O -0.4460001 -9.1550026 -17.4820049
H -0.4360001 -9.8370028 -16.7780047
H -1.3430004 -8.9670025 -17.6490049
O -1.1727042 -8.0747474 1.3649869
H -1.5631116 -7.1761576 1.4043475
H -0.5392015 -8.0059559 2.1085273
O -3.0990009 -9.1880026 16.4430046
H -3.7470010 -8.6730024 15.9640045
H -2.2920006 -9.1510026 15.8820044
O 1.5210004 14.0460039 0.0620000
H 2.4390007 13.8720039 0.3370001
H 1.1920003 14.4860041 0.8540002
O 15.3060043 -8.2090023 2.8280008
H 15.6150044 -9.1660026 2.8620008
H 15.4000043 -7.9880022 3.7690011
O 15.4460043 10.7520030 -0.1100000
H 16.0220045 11.1870031 0.5030001
H 14.6660041 11.3470032 -0.0430000
O -13.5510038 7.8710022 -5.9490017
H -12.6470035 7.4420021 -5.7960016
H -14.0260039 7.0720020 -6.3110018
O 3.4380010 -12.9130036 -4.9810014
H 4.2160012 -13.3870037 -4.6520013
H 3.4340010 -12.1870034 -4.3000012
O 1.6960005 -10.7140030 16.5440046
H 2.3710007 -10.5890030 15.8370044
H 1.9250005 -9.9760028 17.1230048
O 3.5496939 3.3055211 -4.0464173
H 2.6358074 3.0752820 -4.3049347
H 3.4773946 4.2636043 -3.8813360
O 0.6620002 5.4570015 14.6310041
H 1.4770004 6.0670017 14.6520041
H 0.5090001 5.4470015 15.5530044
O -10.9150031 -11.3250032 -0.5910002
H -11.3450032 -12.0570034 -0.9550003
H -11.1880031 -11.3930032 0.3100001
O -11.6715554 1.4869237 -0.6776585
H -11.9580075 1.1275347 0.1914690
H -12.4169754 1.2709566 -1.2571708
O 5.5280015 -14.0410039 -3.8830011
H 5.9610017 -13.2910037 -3.4380010
H 5.2830015 -14.5600041 -3.0940009
O 2.1830006 -12.2310034 12.2510034
H 2.5070007 -11.2960032 12.5190035
H 3.0830009 -12.6880036 12.2720034
O 2.2020006 5.3150015 -17.7290050
H 1.4090004 5.6970016 -18.1560051
H 2.3190006 5.9390017 -16.9560047
O 5.9289682 1.7287295 -2.9090626
H 5.2748496 1.0160053 -2.7360801
H 5.3346100 2.4497029 -3.1652436
O 4.6650013 4.5740013 15.3250043
H 5.4230015 4.8110013 15.8730044
H 4.0990011 5.3860015 15.2970043
O -13.1250037 -12.7670036 3.7570011
H -13.6670038 -12.7800036 4.5140013
H -12.2870034 -13.2400037 4.1270012
O -8.0230022 0.5440002 -16.5310046
H -8.2080023 -0.4560001 -16.4490046
H -8.2920023 0.6250002 -17.4190049
O -12.9070036 5.7040016 4.3420012
H -13.0100036 6.6160019 4.6610013
H -13.0750037 5.7980016 3.3940009
O 7.8080022 2.5930007 -13.0480037
H 7.4150021 1.9830006 -13.7350038
H 7.7250022 3.4740010 -13.4160038
O 3.9871424 4.5154007 5.2577485
H 3.0218530 4.6018320 5.1269985
H 4.1336988 5.2661263 5.8702353
O -17.4810049 3.1720009 -4.0950011
H -17.2990048 2.4780007 -4.7910013
H -18.3520051 2.9010008 -3.7370010
O -0.6370002 -19.4900055 -4.3850012
H -1.4890004 -19.3230054 -3.9520011
H -0.5220001 -18.6040052 -4.8050013
O 2.6703874 -0.0493335 -4.9321810
H 3.0837034 -0.0815685 -4.0420431
H 2.5722435 -1.0111367 -5.1049763
O -0.5335659 -2.3900859 12.3630333
H 0.0203289 -2.3183483 13.1650284
H -1.0121062 -1.5451476 12.4033277
O 15.1860043 -1.0580003 9.8340028
H 15.0100042 -0.7410002 8.9340025
H 14.6470041 -0.5070001 10.4560029
O -15.3760043 -1.4580004 -10.2100029
H -14.9430042 -0.5990002 -10.3270029
H -14.7790041 -1.7550005 -9.5160027
O 5.6280545 0.5133261 -8.1158963
H 5.2903783 0.8218532 -7.2476802
H 6.1231384 -0.2840695 -7.8366271
O -0.0976811 -3.7914337 10.1125457
H 0.2745727 -3.1351085 9.4929687
H -0.1779242 -3.2504304 10.9353679
O -10.3821357 2.0944199 6.5009320
H -9.7587010 2.6087685 5.9430945
H -10.4851272 2.6680376 7.2876945
O 5.7860016 1.3240004 -14.8120041
H 5.1400014 2.0170006 -15.1040042
H 6.3240018 1.3390004 -15.5550044
O 8.2643622 2.7350284 1.8100415
H 8.0302764 2.1927717 1.0205648
H 7.4511286 3.2618796 1.8910484
O -9.2860280 0.6332602 -3.9480348
H -9.4751983 0.4066067 -3.0064109
H -9.3663420 -0.2512769 -4.3611553
O 4.0595761 -0.2332360 -2.4945733
H 4.4589036 -1.1178048 -2.3568525
H 3.6851129 -0.0382739 -1.5886294
O 2.6445762 0.4338233 13.4927309
H 3.3034527 1.1510214 13.5765199
H 2.2268423 0.6388031 12.6295839
O -11.1510031 -0.3150001 -14.0320039
H -11.2490031 0.4060001 -14.6780041
H -11.9410033 -0.8500002 -14.3040040
O -14.8860042 0.1630000 2.9420008
H -15.8530044 0.1200000 3.1370009
H -14.4940041 -0.3660001 3.6630010
O 3.1910009 -16.4360046 4.5060013
H 3.4040010 -17.3870049 4.5080013
H 2.3860007 -16.3830046 5.0600014
O 5.2320015 -3.3520009 -14.8320042
H 5.0230014 -2.4060007 -14.7610041
H 4.4230012 -3.8390011 -14.6980041
O 4.7527954 -1.9520198 5.4144176
H 5.2827737 -1.2516400 4.9782418
H 4.4328623 -2.4079476 4.6081437
O -2.9520008 -17.9980050 -3.3370009
H -3.9040011 -18.0270050 -3.5310010
H -2.7520008 -17.1140048 -3.6600010
O -3.5697998 0.4953667 -1.4098311
H -3.5876394 -0.4631174 -1.6158187
H -4.2039406 0.4783561 -0.6578356
O 15.2030043 0.2980001 -5.2660015
H 14.8930042 0.5390002 -6.1010017
H 14.3110040 0.1440000 -4.8250014
O 12.3990035 -0.6230002 14.9750042
H 11.4190032 -0.3930001 14.9410042
H 12.4560035 -1.4670004 14.4680040
O -0.1460000 -13.7020038 -0.3430001
H 0.3940001 -13.1370037 -0.9680003
H 0.1420000 -13.2930037 0.4610001
O -1.2270003 6.6530019 -15.5920044
H -0.7210002 6.2200017 -14.9090042
H -0.9150003 7.5990021 -15.4790043
O -0.6271077 8.0253950 2.6716142
H 0.0531727 8.7109979 2.8490192
H -0.0898490 7.2137374 2.6217412
O 14.9960042 -8.3460023 -2.4940007
H 14.3790040 -9.1540026 -2.5750007
H 14.8970042 -8.1580023 -1.5010004
O 16.4060046 3.9830011 -1.4080004
H 15.6720044 3.7760011 -1.9390005
H 16.8300047 3.0720009 -1.4430004
O -5.4520015 0.8830002 -15.7750044
H -6.3210018 0.7800002 -16.1870045
H -5.0180014 0.5610002 -16.6070046
O 15.2660043 -0.4270001 -1.3780004
H 14.6800041 -1.1510003 -1.6490005
H 15.2620043 -0.4920001 -0.3600001
O -15.6860044 -8.2440023 1.4930004
H -15.3520043 -7.5590021 0.9070003
H -16.6100046 -7.9390022 1.7500005
O -13.2690037 9.3680026 0.8700002
H -14.2360040 9.4020026 0.9040003
H -13.1410037 8.4720024 0.6320002
O 0.1221594 -12.3431887 1.9988546
H -0.6732311 -12.8462425 2.2698575
H 0.6331531 -12.3760815 2.8359738
O 2.7280008 6.8740019 -15.5300043
H 3.7220010 6.9520019 -15.5790044
H 2.4020007 7.6210021 -14.9180042
O 4.5230254 1.8064549 0.8277653
H 5.0816755 1.0046863 0.8031625
H 3.7444285 1.3986979 0.3395609
O 18.1660051 5.8390016 -2.2490006
H 18.1290051 6.4940018 -1.4960004
H 17.6840049 5.0560014 -1.8200005
O -3.7130010 -15.7530044 -10.3330029
H -3.1880009 -16.1640045 -11.0710031
H -3.1930009 -16.0270045 -9.5500027
O -3.8460011 -16.0270045 4.6380013
H -4.4780013 -16.3200046 5.3410015
H -4.5150013 -15.5820044 3.9800011
O -2.1691793 0.5238619 -11.3627057
H -1.3291565 0.7639717 -10.9159781
H -2.4020554 1.3656800 -11.8063232
O -2.3437410 2.2684551 7.1475366
H -2.8480577 3.0234962 6.7823506
H -1.7964904 1.9936746 6.3809206
O -0.2950001 18.6790052 4.3190012
H -0.6480002 18.4000051 5.1700014
H -1.1730003 18.7250052 3.7710011
O 15.3150043 3.2070009 5.6350016
H 15.7300044 3.2660009 4.7690013
H 14.6130041 2.6240007 5.3120015
O -12.3620035 0.5440002 -7.8660022
H -13.3290037 0.8050002 -7.8110022
H -12.0380034 1.2490003 -7.2880020
O -15.5090043 -0.7790002 11.4150032
H -15.3490043 -1.4120004 10.7110030
H -15.0710042 -1.1920003 12.2390034
O 7.2805487 -1.3415352 -6.8496247
H 8.1331176 -1.7498560 -7.0908207
H 7.5365857 -0.7592637 -6.1038699
O 0.6286789 2.3840343 9.5863517
H -0.1892016 2.9159668 9.6235428
H 1.0713855 2.7716403 8.8086481
O -2.9590748 1.2834603 -14.6358302
H -3.8708101 1.2465771 -14.9925736
H -3.0589055 1.9117027 -13.8947086
O -6.6538506 4.9551823 4.3031350
H -5.7810246 5.3518928 4.1030400
H -6.8639889 5.4211398 5.1376940
O -4.3990012 16.5470046 5.4800015
H -4.5430013 16.0690045 4.6210013
H -5.3920015 16.6770047 5.6990016
O 9.6813101 1.8440786 4.1158969
H 9.3301923 2.4622950 4.7894630
H 9.2259962 2.1524883 3.3062693
O -13.6570038 5.6980016 -3.5030010
H -12.9960036 6.3340018 -3.7740011
H -13.9460039 5.2900015 -4.3330012
O 1.4660004 -12.3200034 -1.9990006
H 1.0270003 -11.8670033 -2.7730008
H 2.4040007 -12.0420034 -2.1590006
O 3.4866561 7.6764543 -0.4505941
H 2.8613298 8.0192745 -1.1250851
H 3.3731930 8.3534473 0.2514842
O -1.0910003 7.8050022 15.6270044
H -0.4980001 7.2150020 16.1290045
H -0.5700002 8.0020022 14.8010041
O -3.3280009 -11.7420033 -13.2320037
H -3.1460009 -11.4460032 -12.3520035
H -3.4140010 -10.8770030 -13.7060038
O -5.9520017 -13.6930038 6.5220018
H -6.3660018 -12.7940036 6.3720018
H -6.7990019 -14.2520040 6.6080018
O -3.2277298 2.9050372 -12.3129504
H -2.6928142 3.7257151 -12.2221775
H -4.0319462 3.1772006 -11.8250167
O -3.8524499 4.5065626 6.5635835
H -4.6408910 3.9171581 6.4882235
H -4.2109634 5.1754541 7.1828560
O 14.1310040 5.9080017 -11.9960034
H 14.2920040 5.9910017 -11.0520031
H 13.4300038 5.2050015 -12.0440034
O 14.1570040 7.5580021 3.9630011
H 14.5940041 6.9160019 4.5260013
H 14.9370042 7.9000022 3.5040010
O -12.2070034 -10.7100030 -6.8700019
H -11.5750032 -11.4460032 -6.7060019
H -11.9490033 -10.0620028 -6.1740017
O -12.7310036 -11.2510031 7.6670021
H -13.3770037 -11.3480032 8.3710023
H -12.3880035 -10.3550029 7.9180022
O -8.1370023 10.1770028 -2.6820008
H -7.4000021 10.6770030 -3.0430009
H -8.6900024 11.0070031 -2.5310007
O 5.6020016 -11.0070031 -8.4050024
H 4.7170013 -11.4730032 -8.2520023
H 5.5260015 -10.6520030 -9.2830026
O 6.1853948 -5.9625148 9.7110524
H 5.4439988 -5.4505992 9.3340503
H 5.8954451 -6.8638359 9.5122908
O 7.2532042 10.4044457 -6.0131605
H 7.0037585 10.0100394 -5.1602392
H 8.1365284 10.7666762 -5.7898516
O 5.7160016 13.2040037 12.0880034
H 4.9180014 13.4300038 12.6230035
H 5.2740015 12.9030036 11.2440031
O -3.9033321 -1.7015495 -5.6131161
H -4.5507877 -0.9902271 -5.7866125
H -3.4639570 -1.7948035 -6.4779766
O -4.5940013 1.8110005 14.8890042
H -4.2610012 1.2970004 15.6630044
H -5.3440015 2.3450007 15.1810042
O 15.6680044 0.4620001 -8.5420024
H 15.6040044 -0.4250001 -8.9570025
H 15.1020042 1.0870003 -9.0310025
O 11.6590033 2.6950008 11.8360033
H 10.7470030 2.3800007 12.1020034
H 11.7810033 3.2680009 12.5980035
O -10.3930029 -13.1260037 -6.5510018
H -9.7610027 -13.4480038 -5.8340016
H -9.9820028 -13.3590037 -7.4090021
O -10.9890031 -11.8530033 10.6610030
H -11.7020033 -12.4180035 10.2330029
H -11.5280032 -11.1860031 11.2030031
O -10.0010028 8.0530023 -8.0560023
H -9.8620028 7.6750021 -7.2150020
H -9.1740026 8.4140024 -8.1720023
O -12.9030036 5.0150014 7.0770020
H -12.8850036 5.1970015 6.1150017
H -13.6990038 5.3540015 7.4210021
O 11.5190032 -12.6940036 -8.2620023
H 10.8850030 -13.1220037 -7.7420022
H 10.9010031 -11.9900034 -8.5940024
O 6.6470019 -9.5540027 11.6620033
H 6.6750019 -10.2250029 12.4160035
H 7.6260021 -9.5820027 11.4440032
O 8.7469574 5.4712048 -8.9023734
H 9.2555594 6.3029221 -8.8998888
H 8.4253685 5.4632836 -7.9849027
O 8.2133837 6.2096093 7.8188159
H 8.1854351 6.1238848 6.8432266
H 9.1240201 6.5490978 7.9492301
O -8.8730025 -15.2040043 4.0870011
H -8.8990025 -14.3900040 3.5520010
H -8.6300024 -15.8630044 3.4230010
O -7.1734559 6.4174421 6.6534369
H -7.0862050 7.3207495 7.0319572
H -6.5318841 5.9659198 7.2369932
O 11.2520031 4.1300012 -15.6760044
H 10.5260029 4.6500013 -16.0550045
H 11.0990031 3.2770009 -16.1750045
O 9.9418186 4.3125451 0.2590130
H 9.1470319 4.5925793 -0.2384259
H 9.5195950 3.7007167 0.8962101
O -8.6640024 -9.5580027 -14.7320041
H -7.7770022 -9.9310028 -14.5880041
H -8.5040024 -8.6110024 -14.8890042
O -8.7700025 -12.6810035 3.0200008
H -7.8520022 -12.4880035 2.7990008
H -8.9810025 -11.7750033 3.1840009
O -5.8050016 6.9870020 -17.7680050
H -5.1110014 6.3140018 -17.8590050
H -5.2790015 7.7730022 -17.5660049
O -4.6486093 3.8200595 -0.2353449
H -4.2342695 4.7054525 -0.2962018
H -4.4934148 3.6525041 0.7195210
O 8.6020024 -16.7130047 -1.8570005
H 9.2420026 -16.0780045 -2.3150006
H 8.0480023 -16.0750045 -1.4410004
O 7.3950021 4.6560013 -14.5760041
H 8.0500023 5.0610014 -15.2450043
H 6.5860018 5.0650014 -14.9680042
O 11.6042222 7.1485219 -1.6935708
H 12.0812121 7.9492666 -1.3729335
H 10.7268180 7.3968137 -1.3406805
O -10.3120029 -11.9100033 6.3330018
H -11.1180031 -11.9670033 6.8060019
H -10.3590029 -10.9730031 6.0470017
O -8.7850025 5.0080014 -13.4550038
H -8.7190024 4.3340012 -14.1980040
H -8.9020025 5.8580016 -13.8040039
O -9.9060028 9.5040027 5.7030016
H -10.8300030 9.7960027 5.8150016
H -10.1180028 8.5080024 5.9710017
O 7.9020022 -12.7240036 8.5810024
H 7.8950022 -13.6060038 8.1620023
H 7.2710020 -12.2310034 8.0330022
O 9.9870028 5.2490015 -11.6770033
H 9.6680027 4.7340013 -10.9250031
H 9.3150026 5.9700017 -11.7230033
O 7.9671143 5.7762770 5.0932646
H 8.5360398 6.1884060 4.4035772
H 7.1025052 5.8318711 4.6685226
O 0.1590000 -13.2930037 -14.1310040
H 0.3560001 -12.4260035 -13.7110038
H -0.3970001 -13.6290038 -13.4270038
O -1.4910004 -14.8980042 5.5800016
H -2.0240006 -14.1940040 5.9490017
H -2.1530006 -15.6180044 5.3190015
O 2.2141462 1.0155034 -11.2067465
H 1.3286921 1.1541992 -10.8105626
H 2.1377398 0.0670459 -11.4503799
O -1.4789614 5.3754996 5.4942899
H -1.6837810 6.3320614 5.4153226
H -2.2966670 5.0736586 5.9485968
O 15.7830044 5.4940015 0.9350003
H 16.2160045 5.1390014 0.1040000
H 15.3810043 6.2900018 0.5780002
O -14.9660042 8.6900024 -1.5750004
H -15.8570044 8.8240025 -2.0170006
H -14.5230041 9.5650027 -1.7910005
O 2.2948626 -8.9038124 -4.1362126
H 1.9664927 -7.9815998 -4.1790343
H 2.1902987 -9.1799875 -5.0676155
O 0.0350000 -11.0440031 11.0450031
H -0.6740002 -11.1730031 10.4110029
H 0.0600000 -11.8970033 11.5290032
O 1.8383525 8.9964361 -2.2785341
H 2.1558983 9.4406956 -3.0952563
H 0.9508847 8.6936783 -2.5645621
O 0.0150000 7.6320021 11.1670031
H -0.9190003 7.4600021 11.2370031
H 0.2120001 7.8650022 12.0950034
O -5.3110015 -15.0220042 -1.6750005
H -5.6190016 -14.0870039 -1.7840005
H -4.3420012 -14.9340042 -1.9200005
O -4.1332547 2.8573392 -2.7615775
H -4.3790191 3.2380693 -1.8898368
H -3.9830248 1.9297319 -2.4804136
O -5.7810016 6.2460017 16.3830046
H -5.9470017 6.4520018 17.3130048
H -6.6050018 6.4950018 15.9140045
O 13.2810037 -10.4440029 -1.7990005
H 14.0060039 -11.0530031 -1.5890004
H 12.5760035 -11.1300031 -1.7170005
O 14.2670040 7.0230020 -2.5910007
H 14.7850041 7.1500020 -1.7530005
H 13.3500037 6.8040019 -2.2880006
O -14.5530041 -8.8390025 -6.8440019
H -13.8960039 -9.4220026 -7.3410021
H -14.5370041 -9.2200026 -5.9890017
O -11.0440031 9.3140026 11.1830031
H -10.8320030 9.0340025 10.2630029
H -10.3570029 9.9090028 11.4420032
O 3.4090010 -11.8860033 -7.4740021
H 3.0930009 -11.1060031 -7.0240020
H 3.4600010 -12.4940035 -6.7430019
O 2.0543159 -9.9457546 9.5813455
H 1.3336510 -10.2478430 10.1655914
H 1.7090778 -9.0873227 9.2716589
O 5.1850940 7.1516358 -7.0193557
H 4.7962257 7.4091964 -6.1565936
H 4.3640711 7.0195011 -7.5451931
O 2.8030008 9.1880026 11.3370032
H 3.6540010 8.7800025 11.5150032
H 2.4500007 9.2910026 12.2620034
O -14.2470040 -10.1500028 -4.3180012
H -14.0600039 -11.1130031 -4.0830011
H -13.3650037 -9.7120027 -4.1310012
O -15.6110044 9.9300028 -5.2900015
H -15.3270043 10.2290029 -4.3570012
H -14.7550041 9.4570026 -5.4920015
O -14.6430041 7.0770020 10.7770030
H -15.1190042 6.3810018 11.2910032
H -14.5760041 6.6880019 9.8620028
O 3.6040349 -10.9942968 -3.0145786
H 4.0881353 -10.4492586 -2.3675039
H 3.0951373 -10.2727501 -3.4560513
O 0.6770002 -8.8780025 12.5090035
H 1.5930004 -8.7060024 12.7050036
H 0.7570002 -9.7360027 12.1340034
O 3.3538926 12.8234434 -1.8900703
H 3.9181161 12.0835389 -2.2070110
H 3.7732195 12.9984065 -1.0241661
O 0.0510000 8.9590025 13.5990038
H 0.9530003 9.1110025 13.7460038
H -0.4840001 9.7170027 14.0220039
O -11.8190033 -2.2580006 -11.6470033
H -11.3130032 -1.8410005 -12.3960035
H -12.0570034 -3.0470009 -12.1200034
O -14.3210040 -3.2050009 10.3560029
H -13.5610038 -3.1730009 10.9660031
H -13.9120039 -3.9060011 9.7360027
O 7.6070021 -6.9860020 -12.1660034
H 7.2490020 -7.8740022 -12.1920034
H 7.9310022 -6.9890020 -11.2180031
O 5.8721649 -3.2579125 7.5829007
H 5.4905451 -2.7328097 6.8448458
H 5.0943261 -3.7908032 7.8546232
O 5.1670014 16.0490045 7.2770020
H 5.6440016 16.5010046 7.9590022
H 4.3080012 16.6110046 7.3420021
O -7.6550021 -15.8090044 6.5100018
H -6.9340019 -16.4110046 6.1460017
H -8.1250023 -15.5900044 5.7080016
O -5.7180016 3.4910010 -13.9580039
H -5.5340015 2.7290008 -13.4190038
H -6.4600018 3.0490009 -14.5340041
O -5.9687994 2.8222418 6.7270676
H -6.4673482 3.0370143 7.5462155
H -6.2110484 1.8912231 6.5782473
O 11.4880032 -12.1060034 3.7520011
H 11.8090033 -12.4800035 4.5900013
H 11.7610033 -12.8000036 3.1540009
O 12.1730034 3.7020010 -13.3150037
H 11.3020032 3.8760011 -12.9170036
H 11.9340033 3.9340011 -14.1990040
O 11.5563018 6.0162844 1.6974002
H 12.2352089 5.3368485 1.8820117
H 10.9730370 5.5047847 1.1007975
O -3.3940009 -9.1400026 -14.1780040
H -2.9130008 -8.5620024 -13.6380038
H -4.0980011 -8.5600024 -14.6410041
O -3.4083158 -4.9292142 -0.6967178
H -2.7800863 -5.2297358 -1.3871298
H -4.1541664 -5.5445325 -0.8720155
O -5.2770015 -6.7170019 17.0740048
H -6.0510017 -7.3190020 16.8490047
H -4.9820014 -7.1100020 17.9340050
O -2.5090007 9.6440027 -13.7350038
H -2.5800007 9.5430027 -14.6670041
H -2.6270007 10.6520030 -13.5730038
O -3.7730011 12.0210034 0.2040001
H -2.9660008 11.4660032 0.1700000
H -3.9030011 12.1610034 -0.7580002
O 17.2670048 -6.2800018 1.5500004
H 16.5510046 -5.6420016 1.5700004
H 16.8230047 -7.0980020 1.6770005
O -17.4310049 -2.4460007 4.9520014
H -17.1650048 -3.3950010 4.6550013
H -16.7400047 -2.4070007 5.5620016
O 1.7019248 -6.9541326 -10.0903586
H 1.4702220 -7.8370949 -9.7255294
H 1.2466932 -6.3782805 -9.4454936
O -0.8963445 -5.9302781 5.3822700
H -0.3043471 -6.2870678 4.6887569
H -1.5414350 -6.6723149 5.4133649
O 2.8050008 11.9890034 -11.0020031
H 2.6600007 11.3520032 -10.2760029
H 2.5890007 12.8020036 -10.6130030
O 2.3290007 15.2780043 2.7610008
H 1.8680005 14.8110041 3.4970010
H 1.7620005 16.0670045 2.7160008
O -12.5950035 -4.5360013 -12.7470036
H -13.1010037 -4.8940014 -11.9280033
H -13.1470037 -4.7490013 -13.4420038
O -13.6480038 -1.3910004 4.8870014
H -13.9720039 -2.0160006 5.4800015
H -12.8420036 -1.0100003 5.2930015
O 7.5570021 -5.0600014 -15.6130044
H 6.9850020 -4.4060012 -15.2240043
H 6.8980019 -5.6980016 -15.9830045
O 1.6648849 -5.1926660 6.6502139
H 1.3846550 -4.3223968 6.2984980
H 0.8318945 -5.6781173 6.5309437
O 5.9320017 16.0170045 4.7230013
H 5.5560016 15.9300045 5.6560016
H 5.9270017 16.9830048 4.7090013
O -11.3138051 2.9454032 -7.0130258
H -10.9267945 3.4071322 -7.7896617
H -10.5291495 2.9012860 -6.4296510
O -14.6530041 -0.2880001 8.3190023
H -14.4090040 0.3590001 7.5950021
H -15.1620042 0.2840001 8.8950025
O 4.1102497 -2.5910998 -10.5955880
H 4.7644058 -1.8635324 -10.6948756
H 4.6344592 -3.3583780 -10.8901283
O 4.6193027 0.3110503 8.8426989
H 4.3834827 1.2211768 9.1243425
H 4.2166242 -0.2285401 9.5494511
O 4.4250012 -8.5980024 -10.3310029
H 4.2610012 -7.8110022 -10.8910030
H 5.2650015 -9.1080025 -10.5760030
O 1.0006438 -1.9763834 8.2265576
H 0.8581132 -2.4777219 7.3938198
H 1.5910059 -1.2839666 7.8516527
O 0.4096907 12.0048898 -4.3849566
H 0.4109139 12.4242377 -5.2675074
H -0.5110974 11.6902475 -4.3023550
O -0.6720002 15.5460044 10.7860030
H 0.1620000 15.0540042 10.5560030
H -0.7680002 15.3170043 11.7760033
O -3.4040010 -2.2010006 -16.7250047
H -3.6370010 -2.2340006 -15.8120044
H -2.5390007 -2.6470007 -16.7910047
O -4.2024708 1.1726856 2.8734029
H -4.1839706 2.1405690 2.6977825
H -4.6171087 1.1519513 3.7455522
O -0.2500001 16.6230047 1.3770004
H -1.1300003 17.0220048 1.5520004
H -0.2680001 16.7100047 0.4480001
O 12.4480035 -5.1930015 0.0900000
H 12.3970035 -6.1390017 0.2170001
H 11.8490033 -4.9150014 0.8280002
O -5.0146852 -4.6631600 -4.3926684
H -5.9127280 -4.8904113 -4.7002559
H -5.2025306 -3.8465682 -3.8848659
O -8.8980025 -1.6510005 15.3000043
H -8.6730024 -1.2080003 14.4670040
H -9.5580027 -2.3640007 15.1210042
O -2.1740006 16.9150047 -6.5670018
H -2.5900007 17.4640049 -5.8890016
H -2.3570007 17.4950049 -7.3520021
O 17.4300049 -0.7820002 -4.3570012
H 16.7540047 -0.2330001 -4.8310014
H 18.2570051 -0.5430002 -4.8640014
O 12.7380036 -3.1410009 13.6830038
H 12.1430034 -3.7730011 13.2280037
H 13.4540038 -3.0880009 13.0100036
O -13.0890037 -0.4790001 -4.2080012
H -12.4790035 0.1370000 -4.6740013
H -13.5270038 -0.8840002 -4.9910014
O 2.6082503 -2.7450757 -5.3423502
H 3.5016238 -2.9373221 -5.7007637
H 2.6211973 -3.2426308 -4.4920790
O -1.5810004 -0.6090002 15.1950043
H -0.5700002 -0.7360002 15.0600042
H -1.6670005 -0.2550001 14.3020040
O 3.3130009 14.4290040 -6.0850017
H 3.3180009 15.0780042 -6.7960019
H 2.6360007 13.7900039 -6.4140018
O -17.2580048 0.6430002 4.6940013
H -17.3130048 -0.2610001 4.4270012
H -16.9860048 0.6040002 5.6270016
O 2.8944467 -1.5878329 -8.2103245
H 3.5842043 -1.9824805 -7.6423295
H 3.1884920 -1.9157318 -9.0801771
O -1.7550403 -1.3188194 5.2225650
H -1.4451477 -0.4100877 5.0111331
H -2.5055532 -1.0857747 5.8036686
O -0.0980000 15.9520045 8.1770023
H 0.7750002 15.5650044 8.4000024
H -0.5750002 15.7770044 9.0310025
O 17.6160049 -4.0290011 7.7500022
H 17.5400049 -3.2940009 8.4490024
H 17.4600049 -4.8100013 8.2780023
O -13.8010039 -1.0060003 -1.5750004
H -14.6110041 -0.4600001 -1.5780004
H -13.3990037 -0.7980002 -2.4230007
O 0.2824693 -4.5527382 -1.3623756
H -0.4134517 -5.0869991 -1.8005063
H -0.2039282 -3.7434862 -1.1273115
O 0.8350002 -1.4380004 14.5470041
H 1.2820004 -0.8150002 13.9080039
H 1.4770004 -1.3290004 15.2500043
O 0.5640002 16.0110045 -4.7950013
H 0.5120001 15.1770042 -5.2630015
H 1.1920003 15.9160045 -4.0210011
O -5.5250015 -4.4190012 -15.7350044
H -6.3240018 -3.9870011 -15.3920043
H -4.8450014 -3.9740011 -15.1890043
O -11.2571888 -0.3429367 5.7056419
H -10.9973742 0.4526059 6.2226577
H -10.9396916 -0.0339462 4.8295789
O -2.5020007 14.9500042 -9.7500027
H -2.4200007 15.8820044 -10.1460028
H -3.3070009 15.1570042 -9.1430026
O -4.7840013 15.3660043 3.1330009
H -5.4260015 14.7330041 2.7940008
H -4.1390012 15.3130043 2.3490007
O 11.2753733 -4.1961551 2.3075076
H 11.4201014 -3.2449089 2.4798271
H 10.6611281 -4.4334850 3.0370428
O 13.5450038 13.6440038 3.4620010
H 14.2580040 12.9990036 3.8480011
H 13.1830037 13.9230039 4.3860012
O 0.2554740 -5.5069241 -8.2792717
H 0.1641568 -4.5972827 -7.9392487
H -0.5336395 -5.6091492 -8.8454807
O -5.0514976 -4.0316591 9.7083672
H -4.1985120 -4.2997467 10.1209918
H -4.8826200 -4.2558639 8.7724656
O -0.1550000 13.3830037 -9.5350027
H -0.9360003 14.0040039 -9.5800027
H 0.6530002 13.8660039 -9.8440028
O -0.7620002 12.2300034 7.6840022
H -1.1640003 12.8800036 7.0030020
H 0.0660000 12.7570036 7.9630022
O 15.1710042 -4.3760012 6.2870018
H 15.9690045 -3.9480011 6.5310018
H 14.5120041 -3.9430011 6.8450019
O -8.5902062 -6.7916433 -0.6763478
H -8.1157928 -7.6374240 -0.7255225
H -9.3677734 -6.9466115 -1.2521135
O -9.2370026 12.7670036 -2.6620007
H -10.0120028 12.6300035 -3.2230009
H -9.6350027 13.1240037 -1.9180005
O 10.3762486 -6.2459228 -2.3039510
H 10.0621119 -5.6614589 -1.5717144
H 10.8870697 -5.6218945 -2.8461831
O 6.9150019 -2.8570008 16.1870045
H 6.7520019 -3.4000010 16.9180047
H 7.8480022 -2.7380008 16.2890046
O 9.3280026 13.4410038 -3.1740009
H 9.6050027 14.1780040 -3.7570011
H 8.6210024 13.8190039 -2.5750007
O -7.4971071 -5.2161144 -5.5940437
H -7.3837429 -4.3478817 -6.0521748
H -7.3002997 -5.7734870 -6.3787905
O -7.5268251 -4.2132184 10.8601999
H -6.7029130 -4.1408304 10.3318209
H -8.1465837 -3.6394989 10.3883807
O -5.9540017 16.3770046 -5.7620016
H -6.0190017 17.1600048 -5.2000015
H -6.5090018 16.6240047 -6.5460018
O 10.1030028 -5.8530016 -7.5080021
H 10.9850031 -6.3800018 -7.5780021
H 10.1960029 -5.3020015 -8.3040023
O 12.4440035 -3.8350011 10.2750029
H 11.9740034 -3.0480009 9.8280028
H 11.7670033 -4.4940013 10.2160029
O 9.7250027 15.3230043 -5.1600014
H 10.3230029 14.8590042 -5.7220016
H 9.2020026 15.7920044 -5.8510016
O -17.6530049 -0.9360003 -1.0040003
H -18.6760052 -0.8670002 -1.0980003
H -17.5280049 -0.5510002 -0.1360000
O 2.3890007 -18.2730051 -0.9480003
H 2.1690006 -17.3260048 -1.3030004
H 2.4110007 -18.1830051 0.0730000
O 2.9410008 -0.5280001 -15.8100044
H 3.7040010 -0.8090002 -16.2980046
H 3.3140009 -0.4650001 -14.8740042
O 4.0141340 -2.9344620 2.9410672
H 4.2452246 -3.1139237 2.0069775
H 3.3365613 -2.2405259 2.7904370
O -0.3900001 -2.0270006 18.6680052
H -0.0300000 -1.2580004 18.1970051
H -0.0220000 -2.7890008 18.2050051
O 2.1300006 18.8340053 0.1270000
H 2.4510007 19.4190054 -0.5660002
H 2.1160006 17.9840050 -0.3110001
O 18.1510051 -1.2260003 3.3700009
H 18.4080052 -1.8380005 2.6110007
H 18.0860051 -1.9480005 4.0470011
O 1.3660004 -4.8160013 -17.7050050
H 0.6050002 -5.2830015 -18.1710051
H 1.7560005 -5.5650016 -17.1920048
O -2.2522497 -2.7959978 -3.7901611
H -2.9131162 -2.4232263 -4.4162012
H -2.6910797 -2.6233041 -2.9349717
O -2.6140007 -5.4430015 16.6760047
H -3.4940010 -5.7160016 17.0050048
H -2.8130008 -4.4600012 16.3510046
O -1.4400004 15.6000044 -1.4120004
H -2.3410007 15.3370043 -1.7520005
H -0.9260003 14.7790041 -1.5190004
O 16.0680045 -4.1350012 -1.6470005
H 16.7230047 -4.7930013 -1.9660006
H 16.5920046 -3.2920009 -1.7140005
O -6.0553441 -2.4786023 -2.9184015
H -6.9585150 -2.8071325 -2.7390900
H -6.2359495 -1.5406307 -3.1394349
O -7.8800022 -1.1860003 12.7690036
H -8.0720023 -1.6440005 11.9560033
H -7.0140020 -0.6690002 12.6070035
O -4.7340013 17.5420049 -2.4170007
H -5.4110015 18.1370051 -2.7590008
H -4.0650011 18.2100051 -2.2900006
O 12.1770034 -2.4110007 -3.3700009
H 12.2830034 -3.3220009 -3.5960010
H 12.3000034 -2.4570007 -2.3600007
O -17.3010048 0.4350001 -4.8700014
H -17.7980050 -0.3010001 -4.4690013
H -17.2360048 0.0490000 -5.7610016
O -0.5665718 -4.5541890 -4.8920045
H -0.1983991 -4.0579311 -5.6485018
H -1.1275539 -3.8513820 -4.4846158
O -4.9220014 -2.7900008 15.6770044
H -3.9140011 -2.8990008 15.6080044
H -5.1920015 -2.9000008 14.7340041
O 0.6960002 13.5120038 -6.8050019
H -0.1360000 13.9920039 -6.7370019
H 0.8070002 13.6400038 -7.7720022
O 14.8240041 -3.5160010 11.1820031
H 15.2270043 -2.8360008 10.6400030
H 13.8940039 -3.5850010 10.8680030
O -17.5800049 -4.0380011 0.4240001
H -17.5020049 -3.1310009 0.3910001
H -18.4780052 -4.2710012 0.1560000
O 2.5240007 -5.3990015 -14.3900040
H 2.5640007 -5.8310016 -13.5260038
H 2.4930007 -6.1180017 -15.0570042
O 6.1123784 -8.2241356 0.1231983
H 5.2787364 -8.2997485 -0.3972565
H 6.2661491 -7.2533085 0.0625982
O 7.1090020 16.1620045 0.6600002
H 7.9640022 15.7490044 1.0420003
H 6.4380018 15.7850044 1.2470003
O -16.8870047 -0.7860002 -7.1630020
H -17.1720048 -1.7110005 -7.0890020
H -17.2710048 -0.5910002 -8.0390022
O -2.1792459 -2.3410071 -7.6635742
H -2.1989148 -2.6938813 -8.5805835
H -1.2506558 -2.5523794 -7.4226300
O -5.3141531 -1.3276174 10.0871562
H -6.2541291 -1.1779777 9.8706263
H -5.2477556 -2.3022970 10.0412152
O 15.3670043 -1.8230005 -9.8670028
H 14.6530041 -2.4120007 -9.6100027
H 15.8600044 -2.3360007 -10.4330029
O 13.8450039 -2.2550006 7.3320021
H 12.9310036 -2.2880006 7.6180021
H 14.0480039 -1.4620004 6.9320019
O -11.3280032 -9.1880026 -9.5670027
H -10.7050030 -8.9270025 -10.2730029
H -10.9710031 -10.0310028 -9.2530026
O -11.9760034 -8.6760024 8.4280024
H -12.2530034 -8.6880024 9.3390026
H -11.1400031 -8.1420023 8.4750024
O -12.5660035 9.3310026 -10.7020030
H -11.9880034 10.1110028 -10.7160030
H -11.9990034 8.6250024 -11.0080031
O -12.3210034 10.1150028 6.5980018
H -11.8380033 10.6630030 7.2940020
H -13.1450037 9.9330028 7.0510020
O 4.7007304 -9.2909917 6.9312352
H 4.4199526 -8.3936028 6.6311301
H 5.1710370 -9.0745377 7.7668052
O 6.0819560 8.8862816 -10.9438698
H 6.0314048 9.0763316 -9.9891939
H 6.3391796 9.7591618 -11.2885136
O 6.7760019 7.8680022 9.4080026
H 7.2050020 8.6830024 9.1750026
H 7.3580021 7.3200020 8.8640025
O -6.5501329 1.0191108 -12.6467423
H -7.3537788 0.4734929 -12.7101009
H -6.0928077 0.5919240 -11.9095956
O -7.8950022 7.3520021 10.5790030
H -7.1600020 7.8060022 10.1000028
H -8.3030023 6.8790019 9.8110027
O 10.8420030 -14.6440041 5.7740016
H 10.0450028 -14.6990041 6.2830018
H 10.6220030 -15.0420042 4.9170014
O 12.8790036 2.1070006 5.5830016
H 13.0910037 2.0090006 6.5370018
H 11.8810033 2.1100006 5.4890015
O -0.5650002 -3.3180009 -16.2490045
H 0.3230001 -3.5310010 -16.5020046
H -0.5250001 -2.3740007 -16.0220045
O -1.9845833 -5.4982160 1.6269909
H -2.5978118 -5.2352004 0.9067845
H -2.3467738 -5.0112247 2.3867470
O -3.3790009 0.3310001 17.0170048
H -3.3590009 -0.3490001 17.6640049
H -2.7730008 -0.1810001 16.4340046
O -1.0110003 17.9290050 -3.3620009
H -0.5150001 17.3120048 -3.9410011
H -1.4410004 17.3130048 -2.7340008
O -6.3590459 -7.6035654 -3.9263670
H -6.7040127 -8.5099663 -4.1173661
H -7.0466739 -7.0738153 -4.3510104
O -5.5560016 -4.1340012 12.9760036
H -6.1940017 -4.4080012 12.3060034
H -4.8510014 -4.7830013 12.7710036
O -2.3003204 10.9270885 -4.1499250
H -2.2155863 10.8999224 -5.1239741
H -2.5730224 10.0123987 -3.9330004
O 12.1690034 -4.9550014 -4.6280013
H 12.8990036 -5.2750015 -4.0230011
H 12.2470034 -5.5590016 -5.4110015
O 10.5240029 -4.7060013 13.0740037
H 10.1480028 -3.8550011 12.7050036
H 9.7100027 -5.2650015 12.9190036
O 12.6400035 11.5500032 -3.3930009
H 13.6250038 11.4220032 -3.2070009
H 12.4510035 10.6350030 -3.6160010
O 10.8630030 7.1210020 14.6950041
H 10.4390029 7.0680020 13.7410038
H 10.4250029 6.3240018 15.0410042
O -1.5830004 -5.7960016 -15.1960043
H -2.2730006 -6.1040017 -15.8330044
H -1.3250004 -4.9150014 -15.6030044
O -6.7913822 -2.8484255 4.4065430
H -6.9092599 -2.7451066 5.3713555
H -7.1767579 -1.9998476 4.0960172
O -6.7260019 -4.3980012 17.1410048
H -6.2300017 -5.2080015 16.8280047
H -6.1550017 -3.7310010 16.8450047
O 1.9780006 16.4530046 -1.3700004
H 1.8170005 15.6310044 -0.9220003
H 2.4860007 16.1430045 -2.1250006
O 17.8070050 -2.9750008 1.2190003
H 17.4540049 -2.9810008 0.3430001
H 18.7650053 -3.1210009 1.0210003
O -0.7520002 -17.1290048 -5.9010017
H -1.4950004 -17.3320049 -6.5000018
H -0.0140000 -17.2430048 -6.5950018
O 1.0149504 0.3153154 -7.3699709
H 1.6007675 -0.3305882 -7.8274187
H 1.5258154 0.4182176 -6.5454034
O -1.5293407 0.2972064 12.5594658
H -2.0790439 0.1329704 11.7560079
H -1.8823015 1.1843353 12.8008685
O -10.2324718 0.9187404 3.4929357
H -10.9061497 0.8687499 2.7818412
H -10.0400488 1.8719083 3.5171079
O 6.2440017 -16.7970047 3.7920011
H 5.3940015 -17.1920048 3.6970010
H 6.1110017 -16.2740046 4.6550013
O 4.5340013 2.9500008 -16.7930047
H 3.6180010 3.1260009 -16.8280047
H 4.7160013 2.3500007 -17.4890049
O 5.8570982 4.1835160 0.9886057
H 6.4324804 4.3296036 0.2102302
H 5.4534039 3.3064785 0.7950187
O 1.6280005 1.9530005 19.1370054
H 1.3400004 1.3040004 18.5300052
H 0.9000003 2.6290007 18.8830053
O -15.1260042 -4.4050012 -7.2470020
H -15.9240045 -3.7480010 -7.2500020
H -15.1430042 -4.8930014 -6.3530018
O 5.6300016 -8.5420024 -6.2630018
H 5.3050015 -7.8600022 -6.8680019
H 4.9570014 -9.2040026 -6.3070018
O 2.2057579 -4.8559714 12.7228279
H 2.1467685 -5.2883870 11.8462984
H 2.9842770 -4.2858994 12.5641074
O 4.1979877 11.2496616 -6.5882313
H 3.6733431 11.1772023 -7.4075686
H 5.0178551 10.8217755 -6.8930693
O -16.1750045 3.9660011 5.9950017
H -15.8320044 3.1400009 6.2200017
H -17.1540048 4.0380011 6.0730017
O -0.6140002 -13.8930039 -11.4460032
H -0.2170001 -14.2860040 -10.6680030
H -1.0360003 -14.7140041 -11.7060033
O -0.6770002 -18.7140052 6.2110017
H 0.1540000 -18.4190052 6.4800018
H -0.8660002 -18.2750051 5.3740015
O 4.8350014 -0.9180003 -13.6690038
H 5.0680014 -0.9600003 -12.7890036
H 5.3490015 -0.1410000 -14.0230039
O -1.0020783 1.3361269 4.8824394
H -0.0180228 1.2364495 4.9046278
H -1.0857885 2.0458144 4.2140269
O 3.4610010 19.3370054 2.4380007
H 2.9510008 18.9450053 1.6390005
H 4.3590012 18.9500053 2.3870007
O -14.2500040 -1.4810004 -6.4920018
H -14.9420042 -0.9020003 -6.8740019
H -13.9180039 -2.0430006 -7.2300020
O -11.4710032 12.6340035 -4.9380014
H -10.9130031 13.2590037 -5.3840015
H -11.4940032 11.9060033 -5.5980016
O 5.5725720 -2.5692615 -2.2196665
H 5.9884881 -3.1294297 -2.9127999
H 6.3664128 -2.1332711 -1.8537087
O 4.3871875 -3.2849365 11.6554765
H 3.8390498 -2.5964451 11.2250755
H 5.2215000 -3.1724879 11.1614319
O 2.9740008 16.3710046 -8.1520023
H 2.1730006 16.9750048 -8.3040023
H 3.5980010 17.0310048 -8.5090024
O -0.5720002 -16.6810047 1.4560004
H 0.3030001 -17.1390048 1.4520004
H -1.0050003 -17.1690048 0.7060002
O -5.3204380 0.0951528 0.6075320
H -5.5339247 -0.8473795 0.7844129
H -5.0298276 0.4077109 1.4916120
O 13.6800038 1.4760004 2.9460008
H 14.5200041 1.3490004 3.3760009
H 13.1030037 1.6930005 3.7180010
O -14.9700042 1.3950004 -7.9430022
H -15.5410043 1.8840005 -8.5920024
H -15.4350043 1.5840004 -7.1340020
O 1.1780003 -14.3580040 -4.9820014
H 1.9080005 -13.8760039 -4.5220013
H 1.6190005 -15.2060043 -5.0350014
O 4.6295858 1.6010402 -5.8521229
H 4.3670514 2.2741541 -5.1900720
H 3.9827502 0.9021190 -5.6152152
O -2.8250008 2.6630007 13.0670037
H -3.5140010 2.4270007 13.7290038
H -3.3230009 3.3510009 12.6010035
O -6.0430017 -1.3960004 -14.1140040
H -6.0240017 -1.3880004 -13.1380037
H -5.8450016 -0.4420001 -14.3150040
O -10.1370028 0.5840002 10.0780028
H -10.8720030 0.0570000 9.6680027
H -10.5720030 1.4480004 9.9420028
O 12.6370035 0.8320002 -13.5610038
H 12.3670035 1.6860005 -13.1910037
H 12.8850036 0.2780001 -12.7700036
O 8.8583675 -0.4729891 5.4077975
H 8.1256325 -0.2253448 6.0188483
H 9.0441672 0.3817608 4.9655208
O 1.8251632 -1.6231031 -11.7123498
H 1.7303083 -1.9780060 -12.6221907
H 2.6418278 -2.0731440 -11.4050386
O -1.8180418 -1.7115584 8.3850897
H -1.9908654 -2.6201498 8.0418802
H -0.8436138 -1.6818824 8.3461296
O -3.9920011 15.1030042 8.9760025
H -4.8330014 14.6470041 8.8050025
H -3.4640010 14.2790040 9.0930025
O 16.2790046 0.5810002 4.1550012
H 16.8490047 -0.1870001 4.0630011
H 16.7780047 1.2380003 3.6600010
O -12.2330034 5.8710016 -12.3480035
H -11.6360033 5.0890014 -12.3900035
H -12.0540034 6.3000018 -11.5180032
O -14.6460041 10.6040030 4.3230012
H -15.2150043 10.8920030 3.5380010
H -14.9710042 11.1730031 5.0250014
O 3.4240010 -12.8380036 -13.2910037
H 3.8360011 -11.9680033 -13.5290038
H 3.1520009 -12.6540035 -12.3640035
O 1.1700003 -16.1410045 6.3610018
H 0.3060001 -15.7400044 6.0950017
H 0.8410002 -16.5740046 7.2200020
O 3.2899803 2.9665714 -12.7450738
H 2.8353301 2.2288150 -12.2828135
H 4.2031719 2.8012132 -12.4421179
O 1.2453561 4.9926234 5.0778266
H 1.1742757 5.1962972 4.1270567
H 0.3314238 5.1996126 5.3664258
O 18.9190053 1.3450004 2.7960008
H 18.5880052 0.5060001 3.1380009
H 19.4080054 1.1390003 2.0280006
O -11.2510031 -1.8240005 -7.0430020
H -11.5870032 -2.5470007 -7.6080021
H -11.3390032 -0.9440003 -7.5190021
O -11.9940034 -3.2150009 12.6320035
H -11.6630033 -3.6260010 13.5390038
H -12.6100035 -2.5090007 12.9330036
O -9.5260027 14.5750041 -5.4300015
H -9.3330026 15.3360043 -4.8460014
H -9.2890026 15.1210042 -6.2060017
O 10.0230028 -2.4520007 -7.5720021
H 10.2910029 -3.0280008 -8.3040023
H 10.5580030 -1.6290005 -7.7030022
O 7.6630021 -0.7490002 11.8860033
H 7.4320021 -1.3310004 11.1830031
H 6.7700019 -0.6330002 12.3780035
O -8.6940024 -0.9460003 -13.0360036
H -8.5800024 -1.7190005 -13.6520038
H -9.5110027 -0.5070001 -13.4220038
O -9.3070919 5.5984427 8.8290542
H -9.9557216 4.8614703 8.8662895
H -9.5027336 5.9680038 7.9499243
O 9.9750028 -15.7950044 3.2190009
H 9.5520027 -16.6400047 3.0560009
H 9.3040026 -15.2240043 2.8940008
O 10.1600028 1.6750005 -11.6550033
H 9.2650026 2.0010006 -11.9770034
H 10.2650029 0.7650002 -12.1790034
O 9.1867003 7.0576710 3.0014052
H 8.6904406 7.2245298 2.1718475
H 10.0783816 6.8487822 2.6540523
O -12.3840035 -12.3370035 -3.5350010
H -12.0670034 -12.9850036 -2.9040008
H -13.3080037 -12.8110036 -3.4830010
O -9.2653932 5.5081133 -6.1714299
H -9.1801885 4.5477851 -5.9785764
H -8.7551438 5.5776357 -7.0060045
O -13.9110039 3.9780011 12.1700034
H -13.8440039 3.3780009 12.9340036
H -14.8240041 4.2540012 12.1490034
O 8.0550023 -15.4260043 -5.0740014
H 7.2670020 -15.1690042 -4.5250013
H 7.6290021 -15.5270043 -5.9350017
O 8.3705455 7.0979821 -4.5186248
H 8.8808263 6.4601555 -3.9694595
H 8.1018273 6.5103857 -5.2520153
O 7.3280021 5.6620016 13.3570037
H 8.1830023 5.7730016 12.8460036
H 7.4210021 4.7990013 13.8110039
O -15.2290043 -12.5620035 2.1650006
H -14.3700040 -12.8650036 2.5610007
H -15.5400043 -11.8540033 2.7220008
O -12.3817500 0.3412320 1.7146289
H -13.2586686 0.4306795 2.1440182
H -12.3876035 -0.6036008 1.4602041
O 6.1580017 -17.4430049 0.7700002
H 6.0520017 -16.9440047 -0.0270000
H 5.7690016 -18.2550051 0.5710002
O 5.5945633 -0.7738348 0.8415989
H 4.9871569 -1.5182932 0.6638938
H 6.3021501 -0.9495061 0.1938637
O -3.5310010 2.3260007 18.9870053
H -3.5340010 1.7450005 18.1130051
H -4.4610012 2.1330006 19.1840054
O -18.0120050 4.9980014 -0.8700002
H -17.1890048 4.9210014 -1.4510004
H -17.8310050 5.9040017 -0.4810001
O -0.7020002 -15.9480045 -3.4170010
H -0.3280001 -15.2040043 -3.8870011
H -1.0260003 -16.4980046 -4.1420012
O -0.6510002 5.7120016 -17.9450050
H -0.8290002 6.1470017 -17.0860048
H -1.5210004 5.8240016 -18.2750051
O 0.6537469 6.1619411 -1.5782053
H -0.0176719 5.7684228 -0.9783857
H 0.1151903 6.8491984 -2.0252026
O -0.9320003 3.1660009 18.5590052
H -1.1990003 3.7740011 17.8970050
H -1.7000005 2.6190007 18.6220052
O 14.4080040 2.2360006 -2.3870007
H 14.4040040 1.3890004 -1.8580005
H 13.7480038 2.8710008 -2.0000006
O 12.0960034 4.2730012 14.1200040
H 12.8830036 4.8190013 14.2540040
H 11.3160032 4.7170013 14.5650041
O -4.5270990 3.3097331 -8.1909348
H -4.1671339 2.9756877 -7.3376284
H -4.4641025 2.4582380 -8.6905943
O -6.1110017 0.7540002 12.7640036
H -6.7210019 1.5580004 12.7370036
H -5.4660015 0.9900003 13.4390038
O 12.1580034 -0.5230001 -8.3250023
H 12.7650036 0.0570000 -7.7830022
H 11.6440033 0.2290001 -8.6380024
O 9.9930028 0.5320001 9.6150027
H 9.0020025 0.5370002 9.5700027
H 10.1960029 1.1810003 10.3220029
O -3.5270010 -15.4840043 -4.3260012
H -4.4260012 -15.0780042 -4.2400012
H -3.0370008 -14.7480041 -4.6760013
O -1.6620419 2.2219446 -0.1313300
H -2.3213364 1.7479012 -0.6661523
H -1.5234304 1.5803624 0.5907888
O 0.5330001 2.1110006 15.0860042
H 1.1340003 2.0040006 14.3240040
H -0.1240000 2.7900008 14.7510041
O 16.0470045 2.8360008 -4.6070013
H 15.4890043 2.6630007 -3.7780011
H 16.0120045 1.8850005 -5.0290014
O -17.1730048 8.2340023 4.0720011
H -17.0830048 8.2160023 5.0830014
H -16.6610047 7.4640021 3.9020011
O 0.1730000 -10.6150030 -13.2690037
H 0.8270002 -10.0750028 -12.8660036
H -0.5750002 -10.5040029 -12.5230035
O -0.5778903 -11.3429491 5.7850323
H -0.0963121 -11.8374819 5.0989177
H -0.4902321 -11.9556298 6.5387759
O 0.2595303 6.2160170 -13.3005548
H 1.1729564 5.9207906 -13.1022485
H 0.3740171 7.1920648 -13.2949764
O -2.4280489 7.8764071 4.8091338
H -2.4520098 8.7108282 5.3164487
H -1.8229886 8.0962494 4.0713059
O -2.5977110 -10.6753702 -2.3991451
H -3.2509958 -10.6211962 -1.6642280
H -1.9102300 -10.0693275 -2.0499688
O -8.3480023 -9.0120025 13.4690038
H -8.0380022 -9.9170028 13.6630038
H -8.3550023 -8.8790025 12.4720035
O -0.5912867 7.9865130 -3.1784716
H -0.4548942 7.8340763 -4.1401555
H -1.5556336 8.1594911 -3.1566636
O -2.7680008 8.6140024 13.8640039
H -2.3270007 8.3740023 14.6720041
H -2.1430006 9.2530026 13.5890038
O 11.7250033 -9.1760026 -6.4400018
H 11.4530032 -9.0900025 -5.4770015
H 12.0870034 -10.1140028 -6.3890018
O 16.7530047 7.9590022 -3.4810010
H 17.1170048 7.0770020 -3.1870009
H 15.7900044 7.6120021 -3.3390009
O 9.5980027 4.9270014 15.4950043
H 8.6650024 4.7290013 15.3320043
H 9.5500027 5.0250014 16.4620046
O -13.9880039 5.6310016 1.9490005
H -13.7670039 6.0490017 1.0430003
H -14.2560040 4.7650013 1.7790005
O 3.8260011 -13.9840039 3.3100009
H 4.3010012 -14.4810041 2.6340007
H 3.5660010 -14.7580041 3.8680011
O 1.9910006 4.0360011 -15.0200042
H 2.3340007 3.6180010 -14.2200040
H 2.5240007 4.8580014 -15.0180042
O -1.2203895 3.6823438 3.3848621
H -0.4774922 4.1239463 2.9372647
H -1.3202205 4.2598326 4.1737737
O -13.6280038 3.8050011 -5.6880016
H -13.0410036 3.5950010 -6.4430018
H -14.5150041 3.6620010 -6.1430017
O -15.7790044 2.1920006 9.2170026
H -16.3500046 2.5960007 9.9080028
H -16.4730046 1.8460005 8.5420024
O 4.6620013 -15.8140044 -5.9060017
H 3.9260011 -16.3930046 -5.6440016
H 4.6700013 -15.0780042 -5.2240015
O 4.8160013 -13.5550038 8.1700023
H 5.1050014 -12.8590036 7.5570021
H 3.9010011 -13.1700037 8.3720023
O 5.4042374 3.6183485 -7.5366473
H 4.6734445 3.3443238 -8.1266264
H 5.3124512 2.9199684 -6.8576846
O 3.8456448 2.9608199 9.2686616
H 4.5896292 3.5778300 9.1225155
H 3.1856819 3.3009998 8.6275932
O -9.9100028 8.3690023 -11.7480033
H -10.5100029 8.8210025 -12.2890034
H -9.0760025 8.8580025 -11.9710034
O -12.4860035 10.9560031 2.8690008
H -12.6410035 10.3110029 2.1880006
H -13.2630037 10.9860031 3.4070010
O 1.4777818 -12.6280964 4.3478084
H 1.9170460 -11.8993396 4.8358415
H 2.2506864 -13.1411840 4.0483158
O 2.8102336 5.6336793 -12.3419847
H 3.7745290 5.8351966 -12.3876040
H 2.8861423 4.6584745 -12.4128247
O 4.0908171 9.4925471 4.8484213
H 4.6017735 9.4071071 5.6821016
H 3.1863701 9.3936252 5.2125505
O -8.5900024 -13.7090038 -4.1450012
H -8.7930025 -14.4100040 -3.4720010
H -8.8920025 -12.9170036 -3.7590011
O -8.5070024 9.3220026 -5.3120015
H -8.4910024 8.4690024 -4.8180013
H -7.5590021 9.3650026 -5.5630016
O -11.2390031 11.4530032 8.5570024
H -10.3610029 11.3530032 8.7840025
H -11.6200033 11.4490032 9.4080026
O 8.3870023 -13.8100039 -8.8040025
H 8.3470023 -13.3350037 -7.9140022
H 7.4170021 -13.9130039 -8.8390025
O 5.7640016 -7.7810022 13.9260039
H 6.3880018 -8.0210022 13.2950037
H 6.0700017 -6.8940019 14.2700040
O 9.9460028 7.9440022 -8.0430023
H 10.4100029 8.2360023 -8.7970025
H 9.6950027 8.7650025 -7.5970021
O 7.5950021 9.5270027 11.4730032
H 8.4920024 9.1400026 11.2070031
H 7.0330020 8.8480025 11.0970031
O -5.1347584 -4.7275791 -12.1023692
H -6.0561442 -4.4005495 -12.1729701
H -4.9988994 -4.6920812 -11.1310807
O -6.1936801 -7.1047786 6.6389205
H -6.0411263 -7.6395578 7.4389398
H -6.7978528 -7.7260766 6.1774356
O -0.8640002 11.3890032 -11.3040032
H -0.6370002 12.1010034 -10.7090030
H -0.7510002 10.5740030 -10.7490030
O -3.8320011 13.5570038 6.6310019
H -3.3480009 13.4620038 5.7560016
H -3.4510010 14.4090040 6.9800020
O 11.5400032 -3.7070010 -12.6990036
H 10.6040030 -3.9610011 -12.9290036
H 11.8450033 -4.5940013 -12.5620035
O 11.5890032 -6.0850017 7.1840020
H 11.2780032 -6.8000019 6.6080018
H 12.5230035 -6.4300018 7.4250021
O 8.2550023 9.9150028 -13.4280038
H 8.4780024 10.5770030 -14.1100039
H 7.8210022 10.4450029 -12.7210036
O -11.2920032 -13.7810039 -1.4470004
H -10.7430030 -13.9600039 -0.6600002
H -10.9410031 -14.5080041 -2.0360006
O -10.8571120 4.2333826 -3.2329366
H -10.1050136 3.7065825 -2.8822045
H -11.5348495 3.5435418 -3.3596662
O 3.7790011 -16.0220045 -2.8370008
H 4.4970013 -16.6150047 -2.7730008
H 3.2210009 -16.4950046 -3.5420010
O 4.4920013 -13.5820038 12.4550035
H 4.6770013 -14.5510041 12.4000035
H 5.3490015 -13.1360037 12.2210034
O 7.7679307 0.5294760 -4.8148845
H 7.1191527 0.9194059 -4.1945091
H 8.0802291 1.3403925 -5.2701333
O 2.8456027 -1.3762808 10.3396728
H 2.2830426 -1.7517411 9.6403059
H 2.2004894 -0.7759289 10.7744064
O -6.0810017 -11.3940032 -14.3630040
H -5.6080016 -12.1820034 -14.0670039
H -6.1250017 -10.8960030 -13.5330038
O -5.9500017 -12.5750035 2.4990007
H -5.1240014 -12.4470035 2.9780008
H -5.6210016 -12.7070036 1.6270005
O -6.0888681 5.8129044 -12.4618873
H -5.7677574 5.2024605 -11.7647821
H -6.2116528 5.1472727 -13.1665127
O -8.1279363 7.9692262 2.2187564
H -8.0895499 8.2276152 1.2721502
H -8.8410134 8.5778650 2.5307161
O 10.0330028 -9.8010027 2.7220008
H 10.5860030 -10.4510029 3.2050009
H 10.7630030 -9.3260026 2.2040006
O 12.3600035 8.6370024 2.1880006
H 13.0810037 8.3910023 2.7880008
H 12.3030034 7.7080022 1.8180005
O -14.6590041 5.0770014 -9.7970027
H -15.0810042 5.3540015 -10.6530030
H -14.3980040 4.1800012 -10.1200028
O -3.3740009 -13.1960037 7.5540021
H -3.8080011 -12.3560035 7.7590022
H -4.0980011 -13.7130038 7.1560020
O -0.0700455 1.4570641 -9.8050948
H 0.2829205 1.1772814 -8.9384498
H -0.2132402 2.4196359 -9.6791321
O 0.0679476 7.7202701 6.9735062
H 0.2824660 6.9563341 7.5344886
H -0.8050596 7.9423685 7.3696610
O -3.1600009 -15.7620044 -7.2070020
H -2.7870008 -16.6180047 -7.5130021
H -3.5760010 -16.1660045 -6.4320018
O -2.6140007 -15.4080043 9.1790026
H -2.6600007 -15.0780042 10.0460028
H -2.6750007 -14.5120041 8.7740025
O 1.4393327 5.1742426 -5.9174217
H 1.3588308 4.2790035 -5.5313231
H 1.6709235 4.9472256 -6.8470338
O -2.1370006 4.3900012 15.9180045
H -3.0390009 4.1240012 15.6300044
H -1.9080005 5.0710014 15.2760043
O 16.2560045 5.2620015 -5.6980016
H 15.7270044 4.6150013 -5.1550014
H 17.0300048 4.6200013 -5.8070016
O 15.3040043 5.2850015 9.3830026
H 15.9800045 4.6950013 8.9500025
H 14.9580042 4.5410013 9.8260028
O -5.2650015 -17.5070049 -6.0490017
H -5.9320017 -17.0750048 -6.5540018
H -5.6990016 -17.3060048 -5.1950015
O -5.4671910 0.5523396 -5.8649711
H -5.8098998 0.5558424 -4.9438053
H -4.8112696 1.2768321 -5.8341676
O -7.7280022 2.7990008 13.5460038
H -8.6610024 3.0640009 13.6810038
H -7.3980021 2.6710007 14.4500040
O 13.2130037 1.2870004 -6.6200019
H 12.7800036 0.7990002 -5.8370016
H 12.9760036 2.1930006 -6.3990018
O 9.2330026 1.6670005 12.3760035
H 8.8520025 0.9170003 12.0270034
H 8.4260024 2.2380006 12.3440035
O 3.7349428 -6.3068226 -11.8317210
H 4.3782404 -5.5753512 -11.7597162
H 3.1044570 -6.1422871 -11.1034953
O 0.8061185 -5.1219783 1.2690851
H -0.1169998 -5.3734522 1.4683772
H 0.7594677 -5.0159263 0.2959430
O 3.4850010 12.0140034 3.8290011
H 2.5430007 12.2110034 3.9410011
H 3.5940010 11.0880031 4.1260012
O 18.4580052 -5.9760017 4.1250012
H 17.7280050 -6.4310018 4.5680013
H 18.0960051 -6.0240017 3.2450009
O -12.6760035 -6.2990018 -4.8780014
H -12.6070035 -5.3350015 -4.6060013
H -13.5020038 -6.4650018 -4.4100012
O 2.4704948 -4.1595069 -3.0055159
H 3.2305046 -4.5137492 -2.4896137
H 1.7547610 -4.2022097 -2.3371778
O 0.7920002 -5.0050014 15.0740042
H 1.2700004 -4.8510014 14.2040040
H 0.8580002 -5.9960017 15.0940042
O 5.1607442 10.7871459 -2.2070515
H 5.7219945 10.7562159 -1.4043412
H 5.6394520 10.1677604 -2.7928171
O 3.1070009 13.0990037 13.7850039
H 3.8380011 13.0890037 14.3960040
H 2.9160008 14.0590039 13.8710039
O -16.2080045 3.6790010 -6.5310018
H -16.6130046 3.6240010 -7.4440021
H -16.9370047 3.7800011 -5.9110017
O 0.1925273 -11.3198535 -4.2289076
H -0.5557052 -11.9125321 -4.4129447
H -0.2057512 -10.4355561 -4.3369356
O -2.7420008 -13.7770039 11.6760033
H -3.0430009 -13.6220038 12.5290035
H -1.7960005 -13.7920039 11.8560033
O 4.1360472 7.9601816 -4.6462199
H 3.6336659 7.2594384 -4.1772544
H 3.5050355 8.7112766 -4.6219559
O 0.2840484 5.8568145 9.0598972
H -0.4547820 5.2116909 9.1491282
H 0.1053520 6.4300232 9.8393879
O -16.8740047 -2.8900008 -3.5400010
H -16.6110046 -2.9760008 -4.5020013
H -17.4800049 -2.0970006 -3.5510010
O 0.4258764 -3.0107423 -7.0112873
H 0.6755419 -2.5954742 -7.8711763
H 1.2448275 -2.8331623 -6.4908179
O -2.3080006 -3.1550009 15.2930043
H -2.0230006 -2.2570006 15.2470043
H -1.4340004 -3.6290010 15.1480042
O -2.0230006 14.2850040 -6.1270017
H -2.0460006 15.2990043 -6.3200018
H -2.6740007 14.1120039 -5.3880015
O 18.1760051 -4.0540011 -5.0550014
H 17.4960049 -3.4180010 -4.8300014
H 18.0030050 -4.6610013 -4.3130012
O 13.4520038 0.2040001 11.4890032
H 12.9010036 1.0440003 11.6310033
H 12.8100036 -0.4630001 11.7050033
O -17.1540048 0.6530002 1.0540003
H -17.2540048 1.5760004 1.4240004
H -16.2150045 0.7060002 0.8970003
O 1.5420004 -2.7040008 -14.2210040
H 1.9070005 -2.2090006 -15.0060042
H 1.8390005 -3.5890010 -14.5070041
O -3.6132879 -0.1765265 6.9632013
H -3.1229399 -0.7148416 7.6186146
H -3.2511219 0.7137275 7.1632708
O 4.9720014 15.3230043 2.2750006
H 4.0290011 15.3380043 2.3560007
H 5.2340015 15.6800044 3.1440009
O 18.3110051 -3.2280009 5.1360014
H 18.0690051 -3.5260010 6.0690017
H 18.3200051 -4.1730012 4.8750014
O -16.2400045 -5.6370016 -4.1580012
H -15.7280044 -5.9630017 -3.3530009
H -16.7990047 -4.9410014 -3.8100011
O 1.5147095 -6.2699099 -4.4510725
H 1.9753319 -5.5859133 -3.9210660
H 0.6622745 -5.8073353 -4.5974455
O -0.5350001 -9.1820026 15.0460042
H 0.3530001 -9.3950026 15.4680043
H -0.1380000 -8.9430025 14.2170040
O 2.9800008 15.1970043 -3.4600010
H 3.1060009 14.3820040 -2.8840008
H 3.0610009 14.9090042 -4.2870012
O 1.6400005 14.0600039 11.1830031
H 2.4950007 14.1170040 11.5510032
H 1.2960004 13.1410037 11.1990031
O -2.1020006 -12.9230036 -3.8630011
H -2.0650006 -13.4840038 -3.0990009
H -2.1480006 -12.0500034 -3.4750010
O -4.3040012 -11.8100033 10.5040029
H -3.6470010 -11.2450031 10.0890028
H -3.6390010 -12.5580035 10.6190030
O 2.6048550 5.9674773 -3.5671441
H 2.0779628 5.8857557 -4.3895447
H 1.9279617 6.1917014 -2.8946254
O -5.2940015 10.1460028 13.0180036
H -4.6740013 9.5180027 13.4160038
H -6.2090017 10.0860028 13.4690038
O 11.7260033 5.5120015 10.2270029
H 12.2020034 5.9080017 9.4500026
H 11.7310033 4.5950013 9.8980028
O -3.6852450 -7.0927622 -4.2187865
H -4.5341283 -7.5461803 -4.0226172
H -4.0292441 -6.1709587 -4.2549882
O -3.6790010 -6.0560017 13.9640039
H -3.9410011 -5.7930016 14.8810042
H -2.7110008 -5.9930017 14.0530039
O -0.1234939 7.4479906 -5.7953152
H 0.5283606 6.7380971 -5.9832048
H 0.1597445 8.1526441 -6.4195332
O -1.5200004 12.7580036 11.8640033
H -1.6410005 12.2990034 12.7080036
H -1.8440005 13.6610038 12.1180034
O 15.3740043 -3.7410010 -7.0980020
H 16.1390045 -3.2840009 -7.4550021
H 15.5010043 -3.8020011 -6.1710017
O 11.6910033 -7.0420020 14.1090039
H 11.4510032 -6.3050018 13.5100038
H 11.2680032 -6.7480019 14.9610042
O -10.1200028 -5.7340016 -12.8480036
H -10.8760030 -5.1350014 -12.9340036
H -10.6630030 -6.4300018 -12.4240035
O -13.4110038 -5.8020016 4.1060011
H -13.7420038 -4.8980014 4.2450012
H -12.5770035 -5.6210016 3.6180010
O 7.7370022 -7.9650022 -15.3460043
H 7.8530022 -7.4420021 -14.5070041
H 7.8470022 -7.3720021 -16.0660045
O 3.7039578 -6.9365629 5.9882554
H 2.9310905 -6.3906563 6.2279412
H 4.1004855 -6.3954331 5.2818493
O 8.6640024 13.8340039 4.8770014
H 8.8590025 12.9460036 5.1340014
H 7.6770021 13.7700039 4.8180013
O -12.4789971 -2.1902926 0.5267127
H -12.9388505 -1.8059224 -0.2523564
H -11.6845752 -2.5588568 0.0942706
O 5.2710015 -0.6120002 -17.1120048
H 6.1820017 -0.9200003 -17.2510048
H 5.1890015 0.0900000 -17.8420050
O 4.7988991 -5.3879963 3.9095182
H 4.4673480 -4.4779045 3.7489303
H 4.2901969 -5.8490334 3.1975834
O 0.8620002 0.0750000 17.2950048
H 0.5690002 0.4880001 16.4330046
H 1.7950005 -0.2040001 17.1350048
O -6.2560018 -15.0960042 -5.1210014
H -6.7670019 -15.4110043 -5.8610016
H -6.8550019 -14.4200040 -4.7160013
O -6.8160019 -12.6300035 9.4980027
H -6.5340018 -13.5350038 9.2440026
H -5.9580017 -12.3000034 9.7500027
O -3.3571131 2.3409467 -5.9945758
H -2.8679604 2.9447241 -5.4038344
H -2.6681890 1.7328892 -6.3392978
O -3.7500010 5.8580016 14.4070040
H -3.9570011 6.6620019 13.9740039
H -4.2100012 5.9780017 15.2290043
O 13.6450038 5.9820017 -6.8240019
H 13.9170039 6.9330019 -6.9800020
H 14.5010041 5.7200016 -6.4580018
O 12.6590035 5.5020015 7.6250021
H 13.5260038 5.1100014 7.5490021
H 12.0090034 4.7590013 7.4360021
O -6.9037217 -3.1375250 -7.2226722
H -7.0754831 -2.1827842 -7.1180958
H -7.0269344 -3.2295134 -8.1865170
O -7.9661233 -1.1072283 9.4155071
H -8.3602766 -0.2143738 9.4312466
H -8.7292348 -1.5884841 9.8073945
O -4.6130013 15.3070043 -8.2400023
H -4.7760013 14.3420040 -8.1250023
H -4.8820014 15.6310044 -7.4000021
O 12.9740036 -3.2220009 -8.6030024
H 12.9720036 -2.3080006 -8.3350023
H 13.8640039 -3.5180010 -8.2260023
O 11.4550032 -1.6760005 8.9320025
H 10.8350030 -0.8840002 9.0730025
H 11.0630031 -2.2210006 8.1780023
O -8.5140024 -6.7220019 -14.7730041
H -7.6530021 -6.2660018 -14.4690040
H -9.1510026 -6.3090018 -14.0810039
O -11.4000032 -11.5590032 1.9900006
H -11.3070032 -10.5920030 2.2300006
H -12.0930034 -11.7870033 2.5660007
O -8.9450025 7.4990021 -14.4200040
H -9.4030026 7.9110022 -13.6710038
H -7.9730022 7.6060021 -14.2640040
O -10.6181618 6.0210603 1.1454188
H -11.1463920 5.3828919 0.6173490
H -10.8580577 6.8728011 0.7232241
O 5.6270016 -13.4880038 1.3180004
H 4.8150013 -13.6820038 0.7740002
H 5.6480016 -12.4950035 1.3490004
O 9.6973597 5.4121859 -2.8365570
H 10.4994025 5.8887933 -2.5386647
H 10.0656996 4.5144573 -2.9886250
O 4.7860013 8.3970024 15.4090043
H 4.4380012 8.9900025 16.0940045
H 5.7840016 8.4870024 15.5570044
O -6.6418355 -9.0979694 -0.8833386
H -7.3052011 -9.7476604 -1.1984989
H -5.8633312 -9.6798433 -0.7972789
O -5.7403461 7.4443893 -1.2681936
H -6.5246034 7.8890370 -0.8944695
H -6.1826850 6.6653609 -1.6573969
O 14.0010039 -7.6470021 0.2760001
H 14.4100040 -8.0470023 1.0370003
H 13.1430037 -8.0550023 0.2510001
O 13.6640038 13.8370039 -2.1020006
H 13.0480037 13.2360037 -2.5640007
H 13.0090036 14.0550039 -1.4090004
O -7.4650021 -14.6890041 0.0900000
H -7.3240020 -13.9910039 -0.5440002
H -6.4870018 -14.9990042 0.0700000
O -8.0975948 6.9068070 -4.0746022
H -8.5350430 6.2764345 -4.6822355
H -8.0390549 6.3780536 -3.2453232
O -6.5420018 3.4810010 16.1020045
H -7.1540020 3.3990010 16.8760047
H -6.4290018 4.4420012 15.9940045
O 11.4930032 -11.3860032 -4.7570013
H 11.2430031 -11.2030031 -3.8610011
H 10.8170030 -12.0570034 -4.9050014
O 11.2495411 3.1674825 -5.6616723
H 11.2295451 3.1171417 -4.6835231
H 11.2302434 4.1380221 -5.8102407
O 4.5840013 7.1010020 12.3450035
H 4.6050013 6.4410018 11.6120032
H 5.4470015 6.9570019 12.7390036
O -7.1920020 -10.0870028 -7.5660021
H -6.5600018 -9.4480026 -8.0450023
H -7.8090022 -10.3560029 -8.3390023
O -8.8400025 -10.4340029 9.5220027
H -9.4960027 -11.1360031 9.7950027
H -7.9720022 -10.8180030 9.7900027
O -7.5780456 6.0441580 -8.3242720
H -7.4387504 7.0061483 -8.4480316
H -7.8217786 5.7844477 -9.2382382
O -6.8669859 8.8036363 7.9437742
H -7.2134728 9.6197277 8.3698376
H -6.3281852 9.1963563 7.2262696
O 8.3053858 -7.0367890 7.3070779
H 9.0389983 -7.3282918 6.7377476
H 7.5785202 -7.0987589 6.6430117
O 11.7040033 8.1810023 -11.4610032
H 11.6700033 7.2600020 -11.1870031
H 12.0390034 8.6080024 -10.7040030
O 9.7120027 8.7640025 10.2080029
H 9.8920028 8.2150023 9.3680026
H 10.6330030 8.7280024 10.5970030
O -5.4270015 -13.9120039 -9.0610025
H -5.0970014 -14.4470040 -8.3220023
H -4.6260013 -14.0350039 -9.5650027
O -4.6690758 -10.8159434 6.8365475
H -4.0383744 -10.1112036 7.0838394
H -5.5003016 -10.4816829 7.2074796
O -2.6393142 5.2946653 -8.5512683
H -2.6004449 5.6171028 -7.6284679
H -3.3322008 4.6105733 -8.4987624
O -2.6391228 6.8948051 10.9025614
H -3.4385103 7.4407819 11.0467906
H -3.0209783 5.9986259 10.9722049
O 14.1850040 7.9000022 9.8470028
H 14.4640040 6.9670019 9.9260028
H 14.4370040 8.1330023 8.9400025
O -16.3750046 7.3470021 6.8350019
H -15.9250045 6.4780018 7.0370020
H -15.7180044 7.9680022 7.1240020
O 0.1410000 -13.2470037 -7.0790020
H 0.4840001 -13.6840038 -6.2700018
H 0.4700001 -12.3290035 -6.8340019
O -0.2680001 -13.1780037 7.7790022
H -0.7530002 -13.8480039 7.2530020
H 0.0530000 -13.7540038 8.5020024
O 1.6559757 7.5679593 -10.7578120
H 2.0226070 6.7927778 -11.2384063
H 2.0153511 8.2863289 -11.3249994
O 1.6053397 9.6908472 6.0054445
H 1.0764962 8.9119452 6.3141537
H 1.5459285 10.2568325 6.7864321
O 15.6070044 6.0500017 5.7300016
H 15.4580043 5.0880014 5.7680016
H 16.3620046 6.1260017 6.3180018
O -15.2710043 5.1690014 8.7660025
H -16.2210045 5.3430015 8.8880025
H -15.2500043 4.2520012 8.6470024
O 0.9770003 -14.6990041 -9.2740026
H 0.7320002 -14.3090040 -8.4130024
H 0.8380002 -15.6540044 -9.0990025
O 0.9520003 -14.4110040 10.0040028
H 0.7140002 -14.3190040 10.9110031
H 1.6930005 -13.8380039 10.0620028
O 2.7736602 6.9871315 -8.3215875
H 2.5765372 6.0290679 -8.3512574
H 2.3447610 7.2660254 -9.1559251
O 2.6245362 7.3524953 9.2035771
H 1.8158694 6.8093119 9.1686648
H 2.4511708 7.8802647 10.0034643
O -12.4230035 9.9530028 -8.0140022
H -13.2360037 9.5120027 -7.6680021
H -12.2080034 9.4620026 -8.8100025
O -11.7250033 7.6260021 8.3140023
H -11.2190031 7.4390021 7.4490021
H -11.5950032 6.7870019 8.8390025
O 5.8370016 -15.0540042 -9.3020026
H 4.9440014 -15.4680043 -9.4010026
H 6.3730018 -15.3650043 -10.0810028
O 2.5150007 -12.3870035 8.5100024
H 2.4110007 -11.5200032 8.9900025
H 1.8460005 -12.4430035 7.8090022
O 7.2379175 5.4174651 -6.5343733
H 6.6366620 4.6898434 -6.8044834
H 6.6236124 6.1626394 -6.7237315
O 2.6101868 3.0695020 11.8548254
H 2.7368539 2.9782084 10.8915762
H 1.6513698 3.2631675 11.9195803
O -7.6352546 2.6486670 -9.5702597
H -7.7282329 1.7001370 -9.7985885
H -7.9876379 2.6653779 -8.6755423
O -10.3430029 3.0870009 13.9330039
H -10.4670029 2.1570006 13.6770038
H -11.0110031 3.5800010 13.4700038
O 8.5340024 -14.0870039 11.1190031
H 9.3920026 -13.9460039 10.7030030
H 7.9600022 -13.9680039 10.3170029
O 13.4720038 2.4850007 -9.8160027
H 13.1860037 2.2640006 -10.6770030
H 12.6050035 2.3540007 -9.3570026
O 10.9130031 3.4250010 7.7140022
H 11.1500031 2.4940007 7.6930022
H 9.9600028 3.4030010 7.5120021
O -5.9470017 -15.3160043 9.2960026
H -5.5590016 -15.7310044 10.0780028
H -6.0090017 -16.0230045 8.7190024
O -3.8247422 0.9247739 -9.2072356
H -3.3835141 0.6700132 -10.0416688
H -3.1254394 0.7074755 -8.5636762
O -4.1660017 4.5567404 10.7157499
H -4.9584114 4.8140021 11.2459764
H -4.3625957 3.5921151 10.6092721
O 15.9570045 3.8590011 -9.0000025
H 15.0670042 3.3780009 -9.0380025
H 16.3160046 3.4720010 -9.8530028
O 12.9490036 1.0800003 8.3090023
H 13.3990037 0.8770002 7.4410021
H 12.4590035 0.2190001 8.4820024
O -3.3351710 -1.8948453 -11.9249262
H -2.8096399 -1.0639170 -11.8668274
H -3.1780042 -2.1658958 -12.8491009
O -1.6762427 3.9176960 9.2850734
H -2.5167278 4.0826735 9.7447553
H -1.9534808 3.2804631 8.5907893
O 16.9400047 3.7350010 7.8500022
H 16.4300046 3.5710010 7.0440020
H 17.4120049 2.9150008 7.8020022
O -14.9530042 5.9690017 -7.1940020
H -14.9910042 5.7650016 -8.1200023
H -15.3510043 5.1730014 -6.9080019
O 1.5860004 -17.0670048 -7.7650022
H 1.8060005 -17.9600050 -8.1010023
H 2.3970007 -16.6000046 -8.2100023
O 1.9747231 4.3494108 -8.4408648
H 1.1828777 4.2491007 -9.0122340
H 2.5169663 3.5756517 -8.7097072
O 1.8382087 4.0202816 7.6885012
H 1.3421720 4.7537833 8.1035495
H 1.6914301 4.2019537 6.7400333
O -8.4450024 3.0300008 -15.4250043
H -8.2830023 3.2890009 -16.3380046
H -8.3900023 2.0800006 -15.3540043
O -15.9150045 5.7330016 3.8540011
H -15.1350042 5.5520016 3.2590009
H -15.8970044 4.9860014 4.5390013
O 5.5250015 -15.5120043 6.3300018
H 4.9810014 -16.2570045 6.6260019
H 5.1430014 -14.8170041 6.9370019
O 5.7108707 2.1715996 -11.3805141
H 5.8357484 2.9209099 -10.7618887
H 6.4950105 2.3187399 -11.9491711
O 4.0058171 1.9999186 3.5977452
H 4.0805627 2.0882120 2.6245841
H 4.1001365 2.9160784 3.9070098
O 2.6840008 4.9850014 18.4910052
H 2.8150008 3.9660011 18.7090052
H 3.5380010 5.2100015 18.8230053
O -5.9151785 -1.4800139 -11.2096765
H -6.2025237 -2.2455507 -10.6767419
H -4.9552528 -1.6729429 -11.3314575
O -10.2490029 0.4360001 12.7550036
H -10.2470029 0.3830001 11.7650033
H -9.3490026 0.1040000 12.9850036
O -6.5390018 13.0630037 7.5350021
H -6.9970020 12.5880035 6.8040019
H -5.7720016 13.3510037 7.0430020
O 13.3100037 -0.0550000 -11.1490031
H 12.8120036 -0.4940001 -10.4370029
H 14.2360040 -0.3310001 -11.0060031
O 11.4686730 -1.2532878 5.4432708
H 10.5486749 -0.9137941 5.4507614
H 11.3384513 -2.0941478 5.9267716
O -1.7802175 0.4056724 -7.3483821
H -0.7990854 0.4128195 -7.3884839
H -1.9430881 -0.5531347 -7.4582226
O -4.6842676 1.9369907 10.6651235
H -5.2401126 1.3516704 11.2131116
H -3.9879523 1.3030389 10.3996030
O 18.1280051 0.7850002 -7.3650021
H 18.1940051 1.7400005 -7.3850021
H 17.2130048 0.6080002 -7.7400022
O 13.7240038 3.1080009 10.1180028
H 13.3150037 2.5850007 9.4570026
H 13.0480037 3.1820009 10.8670030
O -1.5963810 -1.0800775 -14.2977375
H -2.1233180 -0.2532456 -14.3053808
H -0.9522737 -0.8581855 -14.9945593
O -7.8270285 -0.3700800 3.8399819
H -8.6668184 0.1393259 3.8681568
H -7.3249483 0.0323927 4.5780657
O 2.2490006 19.2120054 4.9780014
H 1.2800004 19.1560054 4.7410013
H 2.7090008 19.2380054 4.1380012
O 12.2878715 -1.6825649 2.8973991
H 12.0426246 -1.4255909 3.8179999
H 13.1888158 -2.0412065 3.0483794
O 0.1617023 -2.2216017 -9.6188458
H -0.5409387 -2.6586649 -10.1224805
H 0.7472909 -1.9147075 -10.3421849
O -2.9286298 -0.1577215 10.3150247
H -2.4346503 -0.6887935 9.6541798
H -3.7979309 -0.6268514 10.2880930
O -3.7830011 17.7080050 7.7200022
H -3.7680011 17.0290048 8.4610024
H -3.9590011 17.2650048 6.8820019
O 15.0910042 0.3330001 6.5720018
H 15.4340043 0.3620001 5.6620016
H 15.9000044 0.6300002 7.0550020
O -13.6630038 2.3210006 -12.4830035
H -12.8010036 2.8260008 -12.2130034
H -13.7360038 1.5710004 -11.8880033
O -17.5570049 0.5350001 7.5420021
H -18.0520051 -0.3370001 7.5200021
H -18.3290051 1.2030003 7.4180021
O 0.2640001 -16.9500047 8.6390024
H 0.0750000 -17.5670049 9.3200026
H 0.2360001 -16.1520045 9.1420026
O 3.5881139 2.1895117 -9.1025630
H 3.2145571 1.7964388 -9.9194667
H 4.2465815 1.4995789 -8.8769208
O 1.6824507 1.0059486 4.8879120
H 2.0881239 0.4854258 5.6096659
H 2.4747203 1.2695100 4.3793996
O 17.6860049 1.0920003 7.6100021
H 18.5560052 1.1930003 7.2600020
H 17.8830050 0.9560003 8.5580024
O -13.3170037 0.3970001 -10.6440030
H -12.8220036 -0.4460001 -10.7740030
H -12.8060036 0.7380002 -9.9310028
O -12.9680036 2.3580007 9.8740028
H -13.0390036 2.7070008 10.8130030
H -13.8830039 2.0980006 9.6020027
O 8.5024349 -0.7400989 -10.1841988
H 9.2046864 -0.6054801 -10.8495591
H 8.5890470 0.0612134 -9.6266090
O 5.9048075 2.9136440 6.4779533
H 5.1837876 3.3011830 5.9396869
H 5.8392503 3.4639385 7.2847425
O -0.8159313 -3.3983188 -12.9218332
H -1.2066435 -2.6027181 -13.3361861
H 0.0850607 -3.3124923 -13.2808950
O -7.1962293 -2.4583090 7.1138845
H -8.1544633 -2.5854861 6.8949357
H -7.3098169 -2.0168706 7.9820813
O -1.2040003 14.3800040 5.9260017
H -1.0100003 14.6260041 5.0270014
H -0.8760002 15.0750042 6.4680018
O 13.0860037 -5.3680015 4.1080011
H 13.8910039 -4.9900014 4.4130012
H 12.9270036 -4.8110013 3.3710009
O -0.1440000 -6.9190019 -13.0190036
H -0.4570001 -6.8150019 -13.9740039
H -0.4550001 -6.0520017 -12.6850036
O -4.7375486 -3.9594346 3.0441877
H -3.8765440 -3.8164210 3.4949738
H -5.3643523 -3.4833330 3.6313434
O -3.1610009 -2.2470006 18.8060053
H -3.3000009 -3.2080009 18.8580053
H -2.2360006 -2.1130006 18.9310053
O -0.8300002 14.3160040 2.7940008
H -1.5790004 14.1840040 2.2200006
H -0.5190001 15.2170043 2.4980007
O 14.7390041 -2.9160008 2.9810008
H 15.6960044 -3.0840009 3.2480009
H 14.7550041 -3.4660010 2.1980006
O -1.6950005 -17.7210050 3.7530011
H -1.4630004 -17.4100049 2.8870008
H -2.4310007 -17.1480048 3.9440011
O 0.1260000 -0.6260002 -16.5090046
H 1.0950003 -0.5770002 -16.2560045
H -0.0440000 0.2570001 -16.8770047
O -6.2029178 0.0483106 6.1056216
H -5.2569672 -0.0093038 6.3729242
H -6.5435346 -0.7576340 6.5302302
O 15.0120042 -0.4680001 1.3810004
H 14.5440041 0.1290000 1.9830006
H 15.2890043 -1.2090003 1.9600005
O -13.0720037 -2.5770007 -9.1920026
H -12.7000036 -3.4040010 -8.9100025
H -12.7930036 -2.5370007 -10.0570028
O -16.0450045 -2.4250007 7.4830021
H -15.5990044 -1.7000005 7.9770022
H -16.8830047 -2.4960007 8.0020022
O 4.9927170 -2.8864682 -6.7873022
H 5.4590226 -3.6887616 -7.0973583
H 5.7726406 -2.3013955 -6.6804301
O 2.9107792 -0.5249369 6.8720103
H 3.5172561 -1.0879319 6.3436899
H 3.5473444 -0.1391604 7.5107068
O 5.4160015 13.4160038 -9.4260026
H 5.9380017 13.9540039 -10.0290028
H 5.8870016 13.5270038 -8.5480024
O -10.7890030 3.6840010 -11.6840033
H -10.0600028 3.9800011 -12.3230034
H -10.3770029 3.4100010 -10.8080030
O -12.6146040 2.8305230 4.9272134
H -11.7441206 2.7111306 5.3442056
H -12.5953010 3.7574568 4.6306980
O 5.8990303 -0.5992306 -11.1462811
H 5.7378057 0.3655733 -11.0483779
H 6.7954928 -0.6750587 -10.7531141
O 5.7420163 -0.2031961 3.5228946
H 5.5854999 -0.3676930 2.5674203
H 5.1708493 0.5793210 3.6642558
O -2.2331868 -3.6797358 -10.1152464
H -1.8977569 -4.5337868 -10.4680643
H -2.4845877 -3.2013404 -10.9372107
O -5.1314475 -4.5691690 6.9967847
H -5.6033646 -5.4244703 6.9000463
H -5.8610650 -3.9229018 6.9522739
O -1.8525680 11.4442107 -6.8081884
H -2.5682778 11.2584305 -7.4494566
H -1.8617842 12.4195987 -6.7710882
O -4.9350014 14.2060040 12.3870035
H -5.3340015 13.5080038 11.8600033
H -5.1890015 13.8840039 13.2750037
O 10.8069634 -3.4284460 6.9445059
H 9.8564900 -3.6504681 6.8265524
H 11.1906559 -4.3321667 6.9528180
O -1.3992827 -6.3165733 -10.4334704
H -0.7067202 -6.8007334 -10.9106491
H -2.0327958 -7.0523436 -10.2688712
O -2.7335153 -7.9235757 5.1400254
H -3.5207777 -7.4926691 4.7421059
H -2.5816737 -8.6322753 4.4727796
O -1.9210005 12.6190035 -13.3620037
H -1.6630005 12.3260034 -12.5290035
H -2.3360007 13.5160038 -13.1920037
O 0.9260003 12.7590036 4.0350011
H 0.9110003 12.9460036 5.0230014
H 0.0790000 13.1300037 3.7510010
O 15.7240044 -7.0860020 5.2250015
H 15.5690044 -6.3680018 5.8750016
H 15.2440043 -7.7880022 5.7230016
O -16.5510046 -5.4540015 5.7230016
H -17.4590049 -5.4030015 6.0180017
H -16.6340047 -5.5240015 4.7390013
O 2.3631636 -6.6642546 -6.9924151
H 2.1595128 -6.4744885 -6.0505032
H 1.5861317 -6.2480174 -7.4251834
O -2.3546209 -4.1388799 7.2453318
H -3.2871508 -4.3544297 7.0452222
H -1.8676520 -4.8215944 6.7552454
O 2.1660006 14.7020041 -10.1390028
H 1.7740005 15.5310043 -10.5040029
H 2.7280008 15.2720043 -9.5560027
O 1.6750005 13.6550038 8.3440023
H 2.2260006 13.8080039 9.1020025
H 2.4150007 13.5810038 7.6520021
O -14.6220041 -3.6110010 5.7160016
H -15.1600042 -4.4270012 5.5850016
H -15.1620042 -3.1350009 6.4150018
O 5.9340017 -4.5560013 -11.5360032
H 6.4140018 -5.3850015 -11.4730032
H 6.5150018 -3.7630011 -11.1940031
O 0.5074292 -2.8774547 5.7109888
H -0.2781344 -2.3024448 5.6032743
H 0.8323630 -2.8923232 4.7837738
O 4.9720014 13.9570039 -12.2350034
H 4.4650012 13.4030038 -11.6050032
H 4.3670012 14.0120039 -13.0330036
O 0.8310002 16.4030046 5.3400015
H 0.5090001 17.2060048 4.8720014
H 1.3730004 16.7580047 6.0630017
O -13.7390038 -5.3720015 -10.1660028
H -13.5450038 -6.2090017 -9.6480027
H -14.0780039 -4.8520014 -9.4310026
O -16.2260045 -7.3690021 7.5970021
H -16.4310046 -6.4490018 7.6820021
H -15.2950043 -7.2550020 7.2750020
O 4.7483433 -6.8168247 -8.2874611
H 4.5644509 -7.5186200 -8.9491439
H 3.8527570 -6.6644496 -7.9134223
O 0.5887172 -7.7525826 8.6265139
H 0.5839891 -8.0833580 7.7010090
H -0.3448857 -7.4834095 8.7409396
O 7.2020020 13.6600038 -7.2990020
H 7.2480020 13.3700037 -6.3840018
H 7.3720021 14.5830041 -7.1320020
O 3.8870011 13.1170037 6.5870018
H 4.5820013 12.4740035 6.7860019
H 4.4490012 13.8990039 6.7250019
O -3.5426449 -7.3933280 -6.9705955
H -3.5986084 -7.4279194 -5.9951835
H -3.5000070 -6.4204797 -7.0910842
O -6.0140017 -9.0390025 8.7960025
H -6.4960018 -8.6510024 9.4870027
H -5.1380014 -9.0530025 9.1850026
O -5.2320015 12.7280036 -7.2940020
H -6.1480017 12.5170035 -7.0590020
H -4.8090013 11.8840033 -7.6780021
O -5.4490015 12.1400034 3.1830009
H -5.8190016 12.9810036 2.8370008
H -6.0080017 11.4710032 2.7620008
O 9.5610027 -9.0370025 11.4920032
H 9.7750027 -9.7290027 10.8540030
H 10.2750029 -8.4190024 11.2570032
O 11.4400032 11.9390033 -10.2840029
H 11.2990032 11.2850032 -9.6250027
H 12.1270034 11.5240032 -10.8150030
O 10.6200030 13.4320038 7.4690021
H 9.7340027 13.0290036 7.3610021
H 10.9330031 12.8650036 8.1280023
O -17.0490048 -5.0560014 3.1780009
H -17.2880048 -5.9660017 2.8730008
H -17.4790049 -4.5570013 2.4140007
O -3.0970009 -11.1220031 -9.0500025
H -2.9730008 -12.0960034 -8.8630025
H -3.3090009 -10.9030031 -8.1040023
O -2.7895220 -9.0285876 7.6194755
H -2.6835119 -8.6642770 6.7104429
H -2.5219300 -8.2479429 8.1500036
O -0.7151753 8.8758857 -10.0609788
H 0.0621854 8.3377512 -10.3300416
H -1.4350971 8.4224851 -10.5472061
O -5.6424733 8.7050217 3.0514182
H -5.5186138 9.3268400 2.3129361
H -6.5462644 8.3754058 2.8605260
O 0.6042302 -9.2621374 -9.0020479
H 0.2758889 -9.8968218 -9.6730595
H -0.1570462 -9.2307517 -8.3799343
O -2.0124439 -7.0673737 9.2923994
H -2.1978533 -7.6072911 10.0888845
H -2.2536515 -6.1758614 9.6218923
O 0.1502031 9.5902911 -7.5601373
H -0.2449854 9.3354208 -8.4229346
H -0.4705312 10.2841180 -7.2604397
O -2.9760008 12.7120036 9.3800026
H -2.2220006 12.3110034 8.9330025
H -2.4160007 12.9800036 10.1810028
O -2.3480007 -13.5580038 -8.2350023
H -1.4580004 -13.4730038 -7.7760022
H -2.6660007 -14.3400040 -7.7330022
O -1.1440003 -6.1330017 12.7720036
H -0.7690002 -7.0120020 12.6740035
H -0.3620001 -5.6060016 12.6140035
O -0.4603800 4.1818284 -9.7578989
H -0.7433042 4.4667810 -10.6489918
H -1.1703447 4.6262341 -9.2438316
O -2.1568087 8.0634273 8.4355472
H -2.7335774 8.8370018 8.5587227
H -2.2469266 7.6034623 9.2913849
O 13.9540039 8.6430024 -6.8040019
H 13.6650038 8.8690025 -5.9270017
H 14.6100041 9.2920026 -6.9930020
O -7.5180021 -16.0440045 -7.3960021
H -7.3800021 -16.3280046 -8.3410023
H -8.1950023 -15.3480043 -7.5530021
O -5.7611381 5.1090616 -6.5147465
H -5.3355608 4.4840564 -7.1353340
H -6.4360661 5.4894142 -7.1180387
O -6.5170018 5.0580014 11.9770034
H -7.0730020 5.8570016 12.0020034
H -6.9490019 4.4130012 12.5660035
O 12.8380036 5.6510016 -9.3620026
H 13.2030037 5.9290017 -8.4960024
H 12.4480035 4.8530014 -9.0790025
O 9.9130028 6.4610018 12.1490034
H 10.6070030 5.9170017 11.7100033
H 9.4290026 6.8810019 11.4150032
O -8.5090024 -10.9290031 -1.7730005
H -9.3500026 -11.0870031 -1.2580004
H -8.9870025 -10.6650030 -2.6120007
O -5.3918586 7.1196231 -4.6469255
H -5.3373028 6.3705843 -5.2797224
H -6.3007241 6.9977738 -4.3030586
O 10.3010029 -10.7320030 -1.9200005
H 9.4890027 -10.2780029 -1.6380005
H 10.2890029 -11.5210032 -1.3120004
O 10.0852305 9.1996732 -3.4725799
H 9.8735029 9.0215768 -2.5351774
H 9.5486729 8.5211537 -3.9192792
O -4.8450014 -11.8810033 -3.6070010
H -4.8610014 -11.7770033 -4.6100013
H -4.0750011 -11.3940032 -3.3800009
O -7.9371379 5.5163725 0.9026205
H -7.7389982 6.2741906 1.4806585
H -8.9171659 5.5135764 0.9668938
O 6.9180019 -12.0940034 -2.3150006
H 6.3620018 -11.6730033 -1.6250005
H 7.5830021 -11.3460032 -2.4780007
O 12.4153765 3.6490262 -0.8492228
H 11.5225883 3.9288580 -0.5529350
H 12.8708981 3.7061540 0.0159841
O -8.3819780 -9.8464451 3.0008956
H -9.2944463 -9.5690283 2.7723270
H -7.8756704 -9.0826238 2.6528978
O -5.9500017 8.0080022 -14.3920040
H -5.1030014 8.1000023 -14.8900042
H -5.8050016 7.0420020 -14.2130040
O -8.1315264 8.6482169 -0.4410374
H -8.1076565 9.1780164 -1.2702322
H -9.1016520 8.5104626 -0.3575483
O 8.6570024 -11.1900031 0.8070002
H 9.1690026 -10.6160030 1.4730004
H 9.1840026 -11.9970034 0.6090002
O 9.3760026 10.4250029 1.1300003
H 8.6990024 10.8910030 1.6340005
H 10.2310029 10.8270030 1.4840004
O -9.0570025 -9.2070026 -11.7240033
H -9.3330026 -8.7900025 -12.5550035
H -9.1300026 -10.1230028 -11.9730034
O -11.1320031 -14.0880039 5.0540014
H -10.5250029 -13.3560037 5.3530015
H -10.5290029 -14.7000041 4.5240013
O -8.6660024 5.5860016 -10.8490030
H -8.9840025 6.4650018 -11.0070031
H -8.3810023 5.3760015 -11.7500033
O -9.8998859 6.8062709 6.3300101
H -10.0701281 6.4549469 5.4254187
H -8.9213888 6.7004064 6.3509570
O 9.0200025 -10.2270029 5.5240015
H 8.7220024 -10.7890030 4.7120013
H 8.2480023 -10.2960029 6.1330017
O 8.4620024 7.5410021 -11.8220033
H 7.5150021 7.7260022 -11.6440033
H 8.7550025 8.3090023 -12.3230034
O 7.7755943 9.0481639 4.3527477
H 8.3827894 8.3765520 3.9797510
H 7.0503202 9.0325403 3.7069178
O -9.0040025 -14.0890039 9.4230026
H -8.3330023 -13.3780037 9.4250026
H -9.7110027 -13.4770038 9.7710027
O -10.1960029 4.2740012 -9.1590026
H -10.8370030 4.7880013 -9.6700027
H -9.3150026 4.4640012 -9.5100027
O -11.2120031 3.6370010 8.5920024
H -11.7440033 3.0840009 9.2770026
H -11.9220033 4.0920011 8.1000023
O 6.8330019 -16.6130046 -7.2560020
H 5.9480017 -16.5600046 -6.8430019
H 6.6060018 -15.9600045 -7.9390022
O 6.3340018 -15.3370043 9.7070027
H 5.7840016 -14.7640041 9.0960025
H 5.7440016 -15.4750043 10.4430029
O 8.1544703 1.5206354 -8.5359371
H 7.1995629 1.3124161 -8.5326240
H 8.2343431 2.0053846 -7.6875989
O 5.8609018 4.7584208 8.5127459
H 6.7485081 5.1700310 8.4764701
H 5.3243560 5.4729892 8.1076431
O -9.7860027 -15.7380044 -2.7630008
H -9.9170028 -16.2920046 -3.5220010
H -9.5540027 -16.4610046 -2.1290006
O -8.9210485 2.8504197 -5.5168984
H -9.1476017 2.0587654 -4.9765807
H -8.0161504 3.0032536 -5.1584832
O 8.5788610 2.8289621 -6.1649802
H 8.3441416 3.7716070 -6.1171411
H 9.5573742 2.8763316 -6.0593590
O 4.6640013 2.5050007 13.4810038
H 4.5250013 3.2810009 14.0940039
H 4.0210011 2.7230008 12.7690036
O -6.5798955 0.2599525 -3.3561934
H -7.5145524 0.4521319 -3.5674340
H -6.4643240 0.8306661 -2.5664906
O 5.6510016 -17.9360050 -2.4890007
H 5.2880015 -18.8140053 -2.7450008
H 6.5570018 -18.0650051 -2.8280008
O 7.4698428 1.5461947 -0.5294065
H 7.5728852 0.5926751 -0.6966507
H 7.0023189 1.8157695 -1.3433637
O 6.7560019 0.8760002 15.3770043
H 5.9020017 0.8220002 14.8660042
H 6.4240018 0.6070002 16.2550045
O -10.0710028 -14.0290039 0.8400002
H -9.1460026 -14.3240040 0.7170002
H -9.9160028 -13.2600037 1.4380004
O -7.6325017 5.4562156 -1.8123510
H -8.0303467 4.5695859 -1.9404357
H -7.6816999 5.4951867 -0.8314229
O 7.5879295 5.0613221 -1.0767533
H 8.2137463 5.1438374 -1.8259730
H 7.0233690 5.8484469 -1.2236465
O 4.5550013 0.4670001 17.4120049
H 4.2240012 -0.3190001 17.0650048
H 3.9160011 1.0710003 17.0500048
O -14.7900041 -8.5760024 3.9190011
H -14.0980039 -7.8890022 3.9930011
H -15.0050042 -8.6430024 2.9920008
O -9.1042896 3.5638049 4.5909352
H -9.4270239 4.4222893 4.2482722
H -8.1452935 3.7408768 4.5606433
O 8.5360024 -12.5340035 3.8600011
H 8.2790023 -13.3890037 3.5150010
H 9.4600026 -12.6890036 3.8230011
O 4.9670014 5.3870015 -15.9340045
H 5.0950014 6.0170017 -16.7010047
H 4.8040013 4.5080013 -16.3940046
O 7.3644850 7.7576414 1.0266115
H 6.7213579 8.3021913 1.5186961
H 6.8284571 7.4872701 0.2523663
O -7.5960407 -0.5070542 -7.1916256
H -6.8218396 -0.0021419 -6.8535974
H -7.6546402 -0.2153760 -8.1231161
O -12.5660035 -0.9320003 13.8530039
H -12.8280036 -0.5410002 14.7160041
H -11.9100033 -0.2760001 13.5400038
O 8.0900023 -14.8850042 6.8390019
H 8.4810024 -15.7460044 7.0230020
H 7.2300020 -15.2080043 6.4750018
O 10.8500030 1.7360005 -9.0400025
H 10.7060030 1.8080005 -9.9810028
H 9.9540028 1.8780005 -8.7000024
O 6.9690020 3.1440009 11.9030033
H 6.1710017 3.0740009 12.4060035
H 6.7450019 3.9030011 11.4440032
O -9.5560027 -5.0690014 -8.9100025
H -10.4360029 -5.0160014 -8.5200024
H -9.6180027 -5.8300016 -9.5090027
O -9.9760028 -2.4400007 10.6080030
H -10.4180029 -2.7540008 11.4270032
H -10.6950030 -2.4560007 9.9530028
O -7.7610022 15.0020042 9.5160027
H -8.4170024 15.5970044 9.0430025
H -7.5340021 14.2580040 8.9100025
O 8.2130023 -3.5050010 -10.1450028
H 8.3190023 -2.4940007 -9.9980028
H 9.1320026 -3.7610011 -10.1510028
O 6.7569793 -2.7879075 10.1694381
H 7.4496393 -3.4602270 10.1536286
H 6.4662297 -2.7972893 9.2317968
O -9.5333287 -0.1520006 -1.3648172
H -10.2041886 0.4725262 -1.0209695
H -9.1797372 -0.5309664 -0.5417356
O 7.6478751 -1.2295224 -1.0098155
H 8.2195012 -1.2652513 -1.8126378
H 8.2176353 -1.7113855 -0.3666906
O 5.2480015 -0.5880002 13.2170037
H 5.1800014 -1.5190004 13.5770038
H 4.2860012 -0.4540001 13.1810037
O 9.9820028 16.3910046 -2.3540007
H 9.8660028 16.6380047 -3.2340009
H 9.0000025 16.1660045 -2.1850006
O -5.6650016 -17.2870048 -3.1200009
H -5.5430016 -16.5250046 -2.4950007
H -5.9640017 -17.9870050 -2.4690007
O -8.8932772 3.0150002 -1.6747017
H -8.0501513 2.5173000 -1.7103406
H -9.1990632 2.6780589 -0.8039376
O 9.2317938 -2.3131753 0.8928483
H 8.7953254 -2.2206648 1.7689621
H 9.9092420 -1.6078149 0.9371951
O -7.8901358 -0.0551155 -9.9511629
H -8.6000722 -0.4845443 -10.4488060
H -7.1180159 -0.5342380 -10.3203526
O -7.2633580 3.7066699 8.9962054
H -6.9761587 3.7482422 9.9154292
H -7.9310312 4.4172054 8.9619383
O 3.5890010 -17.0990048 7.9110022
H 2.7640008 -16.6180047 7.6460021
H 3.4100010 -17.3370049 8.8200025
O 10.1690028 -0.9610003 -12.5460035
H 10.8010030 -1.6940005 -12.5440035
H 9.3430026 -1.3570004 -12.9730036
O 3.3288009 5.3932960 1.1368390
H 4.2433787 5.0648961 1.2816646
H 3.4988298 6.2196459 0.6366473
O -7.6488177 -3.3787048 -9.9004116
H -8.3953718 -3.8719706 -9.4907621
H -7.7661023 -3.6460019 -10.8346404
O -12.0430034 -1.0570003 8.9840025
H -12.9490036 -0.8400002 8.7670025
H -12.0330034 -1.8260005 8.3530023
O 10.7390030 -4.4290012 -9.6380027
H 10.9140031 -4.9360014 -10.4730029
H 11.6280033 -4.0750011 -9.5440027
O 6.7717561 0.3603172 7.0227673
H 6.1218448 0.1479654 7.7197457
H 6.4307107 1.2317942 6.7383437
O -11.7880033 -4.6510013 -7.5880021
H -11.8370033 -4.6750013 -6.6330019
H -11.9460033 -5.6150016 -7.6880022
O -13.3110037 -5.5620016 9.1120026
H -12.8740036 -6.3110018 9.6840027
H -13.6320038 -6.0550017 8.4220024
O -10.6420030 12.9240036 -9.1070025
H -10.0680028 12.3840035 -8.4330024
H -10.8300030 13.7510038 -8.6870024
O 6.6517327 -4.8959405 -7.8599373
H 7.1153856 -4.5869429 -8.6588360
H 6.0193222 -5.5665525 -8.2011062
O 3.8134677 -4.8540095 8.5237927
H 3.1737934 -4.9922042 7.7982669
H 3.2438695 -5.1108007 9.2778626
O 8.2150023 11.3410032 -9.4320026
H 7.6250021 11.8030033 -8.8030025
H 8.8580025 10.9710031 -8.8150025
O 4.4000012 13.6380038 9.4960027
H 4.6980013 14.4510040 9.0560025
H 4.9390014 13.0030036 9.0300025
O -8.6724511 -3.4826459 -3.3131637
H -8.9044849 -2.8113329 -3.9924834
H -8.3750012 -4.2162138 -3.8700699
O -8.7230024 16.5410046 -3.7780011
H -8.1680023 15.9040045 -3.3440009
H -8.0920023 17.2570048 -4.0160011
O 7.1789216 -3.9658223 -4.0626531
H 7.0708481 -4.7368041 -4.6356009
H 8.0795517 -3.6884391 -4.3261262
O 4.8460014 -2.8390008 14.5830041
H 5.4870015 -2.7300008 15.3260043
H 5.2360015 -3.4460010 13.9320039
O -14.1130039 -3.5230010 2.5330007
H -13.4790038 -3.0120008 1.9700006
H -14.2210040 -2.9430008 3.3090009
O 6.9432348 -4.4041380 2.2963399
H 7.2981560 -3.5830185 2.6921034
H 6.3450862 -4.7196330 2.9932681
O 4.0090011 -6.3100018 17.3370049
H 4.9890014 -6.1510017 17.4520049
H 3.5980010 -5.4850015 17.3630049
O -8.0480023 -2.9720008 -14.8710042
H -8.3590023 -2.7550008 -15.7740044
H -7.2660020 -2.2690006 -14.9330042
O -14.5860041 1.4840004 6.2340017
H -14.6100041 0.7720002 5.5710016
H -13.7870039 1.9780006 5.9790017
O 7.6150021 -1.5980004 -13.4520038
H 6.9060019 -2.2450006 -13.4780038
H 7.1220020 -0.7370002 -13.3990037
O 7.8906898 -1.9639130 3.2967261
H 7.1188287 -1.3597870 3.3184869
H 8.3549105 -1.6329022 4.0942026
O -4.7270229 -4.5660934 -9.3657676
H -3.8451397 -4.2270288 -9.6195748
H -4.5791578 -4.6372094 -8.3995094
O -12.1970034 -3.5130010 7.5250021
H -12.2790034 -4.3650012 8.0670023
H -12.9770036 -3.6080010 6.9170019
O -9.7840027 13.2470037 6.7570019
H -10.3240029 13.3530037 5.9600017
H -9.1750026 12.5720035 6.4440018
O 11.9160033 -6.2570018 -11.2350031
H 11.8690033 -7.1860020 -11.2020031
H 12.8450036 -6.1400017 -11.5510032
O 8.2252607 -4.2884595 6.5578201
H 8.0314107 -5.1837820 6.8851957
H 7.4262312 -3.8067552 6.8643832
O -10.2760029 -11.8380033 -9.2220026
H -9.2900026 -12.0050034 -9.2440026
H -10.5570030 -12.1030034 -10.1500028
O -9.0670025 -8.0200022 8.4920024
H -8.7780025 -8.9550025 8.5210024
H -8.5270024 -7.7570022 9.2340026
O -7.2600020 8.7910025 -8.5890024
H -6.5690018 8.7260024 -9.3020026
H -6.9790020 9.5050027 -8.0830023
O -7.9340022 11.2740032 5.8970017
H -7.2030020 10.7290030 5.5680016
H -8.5710024 10.4940029 5.9940017
O 10.6740030 -9.4060026 -8.7570025
H 11.3760032 -9.1130026 -9.3790026
H 11.1640031 -9.4320026 -7.9000022
O 6.3720018 -8.9250025 9.0580025
H 6.4760018 -9.1380026 10.0390028
H 7.1770020 -8.4310024 8.8880025
O 7.7740022 9.9060028 7.4440021
H 8.4740024 10.3460029 6.9020019
H 7.2080020 9.5390027 6.7460019
O -10.8670030 -7.0520020 -2.2560006
H -11.5920032 -6.3990018 -2.0660006
H -11.3510032 -7.9280022 -2.3890007
O -6.8980019 14.5230041 -2.5090007
H -7.5640021 13.7950039 -2.5240007
H -6.2120017 14.1630040 -3.1120009
O 7.9910022 -6.3160018 -5.8430016
H 7.4650021 -5.9570017 -6.6020018
H 8.8880025 -6.1280017 -6.2350017
O 6.6340019 -5.3830015 14.1920040
H 6.9640019 -5.1720014 13.2980037
H 6.8690019 -4.6150013 14.7450041
O 9.6020027 11.4600032 -5.0760014
H 10.0820028 10.9310031 -4.3720012
H 9.3540026 12.2400034 -4.4800013
O -5.3700015 -7.4170021 -15.2640043
H -5.9770017 -7.8040022 -15.8850044
H -5.1670014 -6.4840018 -15.5930044
O -6.9600114 -4.6184139 -0.4096545
H -6.3058732 -5.2256380 -0.8024104
H -7.7277951 -5.2292658 -0.4093306
O -5.9688464 10.5127857 0.8379237
H -5.8023941 9.9275514 0.0871843
H -5.2188382 11.1469311 0.7371096
O 9.3264894 -4.9087124 -0.1702242
H 9.3593766 -4.0145220 0.2357203
H 9.3409701 -5.4795917 0.6282304
O -9.3640026 -4.7870013 -16.9110047
H -8.7830025 -5.2130015 -16.2570045
H -9.9560028 -4.2460012 -16.3680046
O -9.5106909 -3.5905064 1.5329912
H -9.3107617 -2.6381124 1.5404786
H -9.7413432 -3.6990176 0.5844030
O 9.1797007 -1.2721371 -3.2397809
H 9.5236951 -1.9934653 -3.8098545
H 8.7237480 -0.7040487 -3.8980462
O 11.5960032 14.9860042 -0.5270001
H 10.9700031 15.4230043 -1.1890003
H 11.8800033 15.6830044 0.1380000
O -6.9303553 -6.0514390 -8.1964052
H -7.8189246 -5.9438730 -8.5894367
H -6.4161725 -5.3932153 -8.6990708
O -11.0440031 -6.1870017 6.7710019
H -10.5720030 -5.9080017 5.9870017
H -10.3270029 -6.7530019 7.1180020
O -7.9100022 12.4600035 -6.5980018
H -8.7670025 12.0270034 -6.8770019
H -8.3230023 13.2510037 -6.2500017
O -11.6400033 13.2120037 4.6160013
H -12.1340034 13.5660038 3.8270011
H -12.3260034 12.6730035 4.9060014
O 6.8059857 -6.9832124 5.0540453
H 6.1038066 -6.3833255 4.7378418
H 6.9209022 -7.5490366 4.2644160
O 9.3460026 11.0550031 5.3520015
H 8.6900024 10.4630029 4.8570014
H 10.1530028 10.9060031 4.9280014
O -12.6810035 -3.5610010 -4.9410014
H -13.2700037 -3.2750009 -5.6570016
H -12.0710034 -2.7900008 -5.0460014
O -12.8010036 -7.5120021 11.1000031
H -12.0790034 -7.4020021 11.8190033
H -13.6080038 -7.4470021 11.6060032
O -6.5110018 11.4920032 -4.4060012
H -6.2080017 10.6830030 -4.9430014
H -7.0120020 11.8810033 -5.1340014
O 8.6790024 -7.5080021 -9.7740027
H 9.3230026 -8.2350023 -9.6440027
H 8.5830024 -7.2010020 -8.8670025
O 9.6930027 -5.3660015 9.3480026
H 10.5060029 -5.6990016 8.8710025
H 8.9550025 -5.8210016 8.8700025
O 6.5060018 12.4570035 7.3910021
H 7.2840020 12.8340036 7.8330022
H 6.6620019 11.5030032 7.3670021
O -10.3869877 -3.4777917 -1.0498273
H -10.9411716 -4.1550588 -1.4729130
H -9.7019626 -3.3533463 -1.7413833
O -11.0630031 -7.6730021 13.2180037
H -11.0080031 -7.9920022 14.1470040
H -10.3470029 -7.0150020 13.2100037
O -4.6220013 14.1770040 -4.7490013
H -5.1250014 14.9280042 -4.9980014
H -4.8810014 13.5120038 -5.4680015
O 8.2220023 -9.7200027 -5.1260014
H 8.8390025 -8.9660025 -4.8560014
H 7.3920021 -9.3290026 -5.4560015
O 8.1690023 -5.5450016 11.6100032
H 8.7480024 -5.5720016 10.7880030
H 7.3920021 -5.6580016 11.0620031
O 12.7150036 11.9090033 -6.2800018
H 12.7210036 11.8650033 -5.3210015
H 12.3000034 12.8250036 -6.3560018
O -12.6170035 -9.4280026 -1.9850006
H -13.4090038 -9.7800027 -1.4920004
H -11.9170033 -9.9870028 -1.5710004
O -10.6460030 8.7860025 -2.7820008
H -9.6340027 8.8370025 -2.9380008
H -10.9010031 8.2410023 -3.5520010
O 6.0434651 -11.0000339 0.1809762
H 5.9104410 -10.0378614 0.2526535
H 7.0072870 -11.0597785 0.3831080
O 4.6130013 -9.0710025 15.8540044
H 5.0620014 -8.3710023 15.3110043
H 3.9440011 -8.4340024 16.1230045
O 6.9144407 11.2014233 -0.1375736
H 6.8883888 11.6266388 0.7409942
H 7.8078615 10.8150995 -0.1172443
O 3.0280008 6.6770019 14.5070041
H 3.4710010 6.6380019 13.6560038
H 3.6350010 7.3720021 14.9370042
O -8.5880024 -6.9760020 -10.5810030
H -9.0560025 -7.7180022 -10.9950031
H -7.8320022 -6.8870019 -11.2430031
O -9.1953278 -6.7195087 4.6981179
H -8.7009338 -7.5142368 4.9720307
H -8.5157289 -6.2193541 4.1982939
O -6.8010019 14.0990039 -10.7370030
H -7.4730021 14.1820040 -11.4360032
H -6.8170019 14.9680042 -10.3550029
O -8.6200024 11.6500033 0.8800002
H -7.7970022 11.2520031 0.5000001
H -8.7190024 10.8950030 1.5330004
O 11.9500033 -9.1310026 -11.1190031
H 11.3620032 -9.4300026 -11.7920033
H 12.6280035 -9.8430028 -11.1400031
O 10.1420028 -7.7520022 5.2070015
H 9.7170027 -8.6100024 5.1360014
H 10.6530030 -7.7420022 4.3690012
O 11.5510032 11.9160033 1.3970004
H 11.2650032 12.1610034 0.4450001
H 12.4810035 12.1780034 1.3520004
O -7.4430021 -11.9530033 -9.6600027
H -7.3130020 -12.3150034 -10.5920030
H -7.0970020 -12.6830035 -9.1850026
O -7.6130021 -11.5940032 6.8910019
H -8.4330024 -11.8790033 6.6160019
H -7.5160021 -11.7710033 7.8410022
O -5.4222404 3.7993295 -10.7479375
H -6.2945247 3.3844755 -10.5662723
H -5.0698214 3.8113136 -9.8396938
O -5.0809977 6.0650136 8.5179220
H -5.1009896 6.9324422 8.9515181
H -4.8008597 5.4918358 9.2563507
O 11.8130033 -10.5700030 6.7920019
H 11.3510032 -10.4420029 7.6490021
H 11.1410031 -10.4400029 6.0890017
O 10.7620030 6.5770018 -14.1690040
H 10.6030030 5.8820016 -13.5110038
H 11.3530032 7.2040020 -13.7250038
O 8.5869536 3.3242711 6.1324561
H 7.6601130 3.0434534 6.2828820
H 8.4400662 4.2321985 5.7940479
O -0.8580002 -10.9610031 -10.7280030
H -1.6670005 -10.8770030 -10.1560028
H -0.8370002 -11.9430033 -10.8780030
O -3.9327179 -11.9131765 4.2578531
H -3.2601786 -11.2356790 4.0692266
H -4.1824621 -11.7006417 5.1771994
O -1.8578679 5.2467943 -11.9522259
H -2.2714937 6.1071606 -11.7361545
H -1.0977296 5.5502799 -12.5004103
O -4.3496778 6.3134794 3.5936891
H -4.7771037 7.1427020 3.2969311
H -3.6308022 6.7058298 4.1331134
O 12.9150036 -12.8120036 5.9410017
H 12.2900034 -13.4230038 6.3210018
H 12.7130036 -12.0760034 6.4840018
O 14.9660042 8.3950023 7.2770020
H 15.8770044 8.6920024 7.0880020
H 14.8080041 7.6300021 6.6950019
O 2.5000007 -12.6320035 -10.4220029
H 3.0510009 -12.6090035 -9.6020027
H 1.9140005 -13.3260037 -10.1130028
O 0.5418096 -8.9044094 6.1117357
H 1.3965746 -9.3706920 5.9865350
H -0.0625586 -9.6759977 6.0163496
O 2.5840007 9.5970027 -12.3290035
H 2.7760008 10.3440029 -11.6890033
H 3.3340009 9.7540027 -12.9740036
O 1.1191107 10.0293941 3.3474070
H 0.9249866 10.9869685 3.3674854
H 1.2572577 9.8636663 4.3063566
O 6.3760018 -9.8690028 -12.0080034
H 5.4280015 -10.0060028 -12.4270035
H 6.8960019 -10.5800030 -12.4650035
O 0.4446118 -7.7017922 3.6207640
H 0.4784689 -8.1515880 4.4903136
H 1.2164268 -8.1093222 3.1739282
O 2.5694939 10.2953309 -8.7751255
H 3.0611301 9.4597924 -8.7618299
H 1.7569525 10.0451301 -8.2864993
O 5.0700014 9.2110026 7.3730021
H 5.7230016 9.0370025 8.0830023
H 4.4010012 9.7270027 7.9060022
O -11.8910033 -7.6650021 -12.2760034
H -12.8380036 -7.4200021 -12.3680035
H -12.0420034 -8.6050024 -12.2620034
O -10.8830030 -8.7860025 2.7030008
H -11.2550031 -8.0410023 2.2300006
H -10.9270031 -8.4810024 3.6310010
O -11.0880031 11.4200032 -11.4590032
H -10.5360029 11.8270033 -12.2040034
H -10.9720031 12.0270034 -10.6850030
O -9.9790028 9.7930027 2.9440008
H -10.8190030 10.1990029 2.6590007
H -10.0090028 9.9110028 3.8940011
O 6.4640103 -10.7822606 3.8835645
H 6.7763951 -9.9378141 3.4850885
H 7.1961989 -11.3946368 3.6587850
O 6.7760019 11.4560032 -11.7330033
H 6.1630017 12.2320034 -11.7080033
H 7.2490020 11.6470033 -10.8720030
O 7.3030020 11.6440033 2.6210007
H 6.8080019 12.1090034 3.3270009
H 6.8400019 10.7820030 2.5310007
O -5.7540016 -10.2110029 -11.8610033
H -6.0360017 -9.4190026 -11.3940032
H -5.6020016 -10.8440030 -11.1620031
O -5.2184272 -9.8178631 2.0869721
H -5.8327150 -9.0535905 2.0973091
H -5.7731248 -10.5165678 2.4782874
O -5.7970016 8.0190022 -10.8860030
H -6.1460017 7.2960020 -11.4680032
H -6.3360018 8.6960024 -11.3610032
O -5.5526813 9.7094182 5.6417405
H -5.5300398 9.2854851 4.7585214
H -4.6316869 10.0108863 5.7180544
O 11.5790032 -8.2730023 -0.5820002
H 11.5090032 -9.1210026 -1.0440003
H 11.0400031 -7.5960021 -1.0500003
O 11.7530033 10.8030030 4.1460012
H 11.7630033 11.5460032 3.4660010
H 11.5940032 10.0710028 3.5030010
O -3.1200009 -8.4340024 -10.1370028
H -3.2480009 -9.0860025 -9.5080027
H -4.0560011 -8.1790023 -10.3170029
O -2.6708227 -9.6827184 3.0777407
H -3.5605161 -9.7299500 2.6664423
H -2.1393891 -9.3049824 2.3497960
O -2.8739314 7.8667958 -11.5651438
H -3.8356316 7.8819387 -11.4104962
H -2.7828184 8.4530190 -12.3475234
O -2.9312023 12.3622429 4.1981417
H -3.8393887 12.2618385 3.8264044
H -2.5582539 13.0487573 3.6352375
O 11.8690033 -7.6170021 2.9740008
H 12.4680035 -6.8630019 3.1810009
H 12.5430035 -8.3490023 2.6890008
O 13.4720038 10.7990030 6.1760017
H 13.0670037 10.8480030 5.3130015
H 14.0280039 10.0380028 6.0280017
O -15.8470044 8.9020025 1.6530005
H -16.4250046 8.2570023 1.1150003
H -16.2540045 8.7150024 2.5390007
O 1.9040005 -8.5840024 -12.3950035
H 2.2860006 -7.9500022 -11.7340033
H 1.0940003 -8.1060023 -12.4210035
O -2.2761693 -3.8439830 4.1300405
H -1.6939840 -4.4731114 4.6032918
H -2.0683409 -3.0057152 4.5939251
O 2.0240006 13.4070038 -13.3950037
H 1.9780006 12.7280036 -14.1940040
H 2.2760006 12.8670036 -12.6300035
O 3.0932880 9.6140309 1.4423100
H 2.6613705 10.2562047 0.8387213
H 2.4650126 9.6582994 2.1927643
O -13.7560038 -6.9130019 6.4590018
H -13.8890039 -6.6340019 5.5430016
H -12.7600036 -6.7030019 6.6220019
O -15.2230043 12.0830034 1.8070005
H -15.4620043 11.1670031 1.7550005
H -14.6620041 12.2900034 1.0720003
O 3.9400011 -10.0760028 -13.2540037
H 3.1540009 -9.5340027 -13.0520037
H 4.3300012 -9.5300027 -13.9240039
O 2.3712130 -9.0359444 2.1241619
H 1.9486493 -9.4715667 1.3538857
H 2.9597412 -9.7582449 2.4298232
O 4.7270013 9.2660026 -14.4390040
H 4.8180013 10.2050029 -14.7900041
H 5.6740016 9.0520025 -14.3520040
O 5.6098694 9.3563446 2.5721183
H 4.8417932 9.5080573 1.9781214
H 5.1087797 9.3439752 3.4211022
O -14.8510042 -10.0700028 6.0640017
H -14.2080040 -9.4560026 6.4050018
H -15.0470042 -9.5110027 5.2100015
O -7.4090021 9.3760026 -12.6130035
H -7.3800021 10.2840029 -12.9810036
H -6.6260019 8.9770025 -13.0970037
O -13.3520037 12.9590036 -0.0480000
H -12.4370035 13.0170036 0.1390000
H -13.3200037 13.1620037 -1.0200003
O 3.9090011 -8.8700025 -16.3320046
H 4.5320013 -9.2130026 -16.9830048
H 3.5810010 -9.7440027 -16.0590045
O 3.9044080 -11.1714898 3.1110207
H 4.8468310 -11.0027415 3.3351302
H 3.9069632 -12.1505399 3.0593348
O 5.5380116 5.4636067 -12.3376494
H 6.3383413 5.4050945 -12.8766481
H 5.8743902 5.2108621 -11.4540986
O 6.1330017 13.0420037 4.5460013
H 5.2580015 12.6690035 4.6640013
H 5.8700016 14.0000039 4.3810012
O -4.3123657 -10.6702851 -0.3036426
H -4.5482769 -10.2832022 0.5662180
H -4.2080566 -11.6105075 -0.0482369
O -4.4610012 -11.8770033 14.4810041
H -3.9880011 -11.0380031 14.3200040
H -3.7200010 -12.4300035 14.8540042
O -3.8910011 8.0070022 -16.2830046
H -2.9990008 8.3400023 -16.4600046
H -3.7370010 7.0400020 -16.2350045
O -3.4092804 6.2918517 -0.3513986
H -4.2364880 6.7122225 -0.6671537
H -2.9432828 7.0977394 -0.0254863
O 10.0350028 -13.0860037 -0.5340001
H 10.4080029 -13.6520038 0.0940000
H 9.8260028 -13.6880038 -1.2330003
O 12.3770035 9.4940027 -0.6120002
H 12.1200034 10.4290029 -0.7690002
H 12.2560034 9.4610026 0.4060001
O -3.7390010 -13.2150037 0.6890002
H -3.4530010 -13.8580039 0.0080000
H -2.9590008 -13.3020037 1.3260004
O -1.3590004 9.0370025 -16.8340047
H -1.0550003 9.0140025 -17.7900050
H -1.0780003 9.9220028 -16.5890046
O -2.2110591 8.5862989 0.4578201
H -1.7078604 8.4215218 1.2823711
H -1.8309429 9.4394759 0.1703188
O 15.1340042 7.8960022 -0.0410000
H 15.8700044 7.9910022 0.5700002
H 14.9230042 8.8550025 -0.1290000
O -18.5280052 6.2630018 2.4970007
H -17.6520049 6.1360017 3.0200008
H -18.1290051 6.2530018 1.6270005
O -1.0920003 -11.0120031 -15.7360044
H -0.9120003 -11.8220033 -15.2410043
H -0.8310002 -10.4110029 -15.0750042
O -1.8140005 -14.2830040 2.5960007
H -1.3320004 -15.1050042 2.1650006
H -1.8130005 -14.4940041 3.5190010
O 0.3570001 8.9070025 -13.5840038
H -0.4500001 9.4460026 -13.6630038
H 1.0830003 9.4770027 -13.2750037
O 1.6585391 10.9883851 -0.4316778
H 1.7425122 10.2915829 -1.1179392
H 2.1102836 11.7373496 -0.8629076
O 12.9570036 -10.0560028 2.3720007
H 12.6290035 -10.8280030 2.8550008
H 13.7710039 -10.4290029 1.9990006
O 1.8820005 -7.0700020 -16.4330046
H 1.2320003 -7.7590022 -16.6700047
H 2.6680007 -7.6500021 -16.5910046
O -1.7573088 -5.8032429 -2.7252529
H -1.3554350 -5.4205999 -3.5328387
H -2.3978949 -6.4173828 -3.1334922
O 4.0790011 13.1720037 0.8580002
H 4.7820013 13.7710039 1.0330003
H 3.6250010 13.0380036 1.7080005
O 15.0380042 -4.6540013 0.8590002
H 15.2720043 -4.4620012 -0.0140000
H 14.3770040 -5.2910015 0.7770002
O -12.6030035 -5.1850015 -1.4830004
H -12.6020035 -5.0810014 -0.5460002
H -13.3480037 -4.5910013 -1.7730005
O -10.8540030 8.4970024 -0.1070000
H -11.0580031 8.5790024 -1.1010003
H -11.3940032 9.2610026 0.2450001
O 5.4700015 -6.5940018 -16.5050046
H 5.1370014 -7.4710021 -16.2600046
H 4.8370014 -6.3650018 -17.2230048
O 7.9544883 -9.3628231 -1.7073791
H 7.4089309 -8.9854025 -0.9937217
H 7.8952686 -8.6540677 -2.3804584
O 7.4230021 15.6750044 -2.1520006
H 6.9910020 14.7950041 -2.1810006
H 7.2850020 15.8850044 -1.1540003
O -6.8247664 -7.6419210 2.5082262
H -7.2396112 -6.7780159 2.3202494
H -6.0701990 -7.3380714 3.0569678
O -4.3718789 11.7946500 -2.4945768
H -3.5734998 11.6233697 -3.0339176
H -5.0755150 11.7316237 -3.1627759
O 7.9014264 -7.0915124 -3.2729481
H 7.9884862 -6.8334294 -4.2227237
H 8.6794020 -6.6421454 -2.8929666
O 9.8130027 -2.0280006 12.7670036
H 9.0650025 -1.5500004 12.3180034
H 9.7580027 -1.5340004 13.6710038
O 9.3478087 8.4771415 -0.8117568
H 9.5849023 9.2109616 -0.2042763
H 8.6475261 8.0686527 -0.2698406
O -6.4850018 -12.6270035 -1.4980004
H -7.3370021 -12.1580034 -1.6780005
H -5.9750017 -12.4050035 -2.3240007
O -7.3780021 -7.9480022 15.9800045
H -7.7090022 -8.8570025 15.8840044
H -7.9140022 -7.6400021 15.2910043
O -3.3324524 8.4310987 -3.3438364
H -3.9576206 7.8838560 -3.8674094
H -3.7864539 8.4225911 -2.4874133
O -7.8410022 9.2650026 14.2530040
H -7.8790022 9.4620026 15.1970043
H -7.8640022 8.2950023 14.3040040
O 10.4430029 -8.6420024 -3.7960011
H 10.4460029 -9.2780026 -3.0840009
H 10.3850029 -7.8080022 -3.3560009
O 12.9460036 8.6840024 -4.3160012
H 12.0610034 8.5070024 -4.0430011
H 13.4290038 8.0440023 -3.7950011
O -9.8060027 -6.8160019 -5.4200015
H -9.0520025 -6.1820017 -5.4030015
H -10.4060029 -6.5170018 -4.7250013
O -7.4190021 -7.8320022 10.9260031
H -6.5220018 -7.8810022 11.2720032
H -7.7930022 -7.2770020 11.5720032
O -5.7574272 9.4074278 -6.0317216
H -5.5752056 8.6309740 -5.4543388
H -5.1453653 9.1776934 -6.7598966
O -7.6260021 11.2030031 9.0480025
H -7.3410021 11.8850033 8.3460023
H -7.2380020 11.6220033 9.8260028
O 12.8000036 -6.6760019 -6.8830019
H 13.7730039 -6.9340019 -6.8100019
H 12.4150035 -7.5870021 -6.6120019
O 10.5330029 10.7380030 -7.5680021
H 11.3300032 11.2270031 -7.8300022
H 10.3610029 10.9930031 -6.6430019
O 8.4060024 12.9940036 9.4440026
H 9.2060026 12.5560035 9.8910028
H 8.3760023 13.7000038 10.0700028
O -13.3720037 6.6340019 -0.5010001
H -13.9190039 7.2090020 -1.1490003
H -12.7400036 6.1660017 -1.0230003
O -0.7325380 -9.0116363 -1.2592535
H -1.0346319 -8.5515164 -0.4497397
H 0.0179687 -9.5009400 -0.8668326
O -2.3570007 -10.6970030 13.4100038
H -2.0530006 -11.6290033 13.5500038
H -1.7030005 -10.0890028 13.7720039
O -1.1459866 11.0813823 -0.2378359
H -1.0523947 11.7935881 -0.9028279
H -0.1965259 10.9625431 -0.0335180
O -1.5900004 11.1710031 14.4090040
H -0.9930003 11.7810033 14.8080041
H -2.2520006 10.9010031 15.1770042
O 15.3930043 10.3240029 -2.8200008
H 15.7090044 9.3920026 -2.9950008
H 15.5840044 10.4430029 -1.8650005
O -17.0060048 -8.4730024 -2.0390006
H -17.0330048 -8.5470024 -3.0050008
H -16.0980045 -8.0500023 -2.0280006
O -13.4830038 10.5850030 -2.9220008
H -12.5260035 10.4120029 -2.9750008
H -13.6250038 11.5390032 -3.0810009
O 4.0624270 -8.6263152 -1.6136423
H 4.4004637 -8.1950965 -2.4302683
H 3.1337420 -8.3630662 -1.6419634
O 2.0040006 -7.6460021 15.7080044
H 2.6630007 -6.9610019 15.9030045
H 1.3120004 -7.6910022 16.3690046
O 6.4750018 13.3350037 -1.8570005
H 6.4480018 12.6170035 -1.2110003
H 6.0380017 12.8680036 -2.6220007
O -11.4830032 -8.8050025 -5.0370014
H -12.0610034 -8.0510023 -4.9750014
H -10.6880030 -8.3000023 -5.4380015
O -10.2100029 10.9980031 -6.8950019
H -10.8920030 10.4410029 -7.2530020
H -9.6730027 10.3950029 -6.3840018
O 5.2533454 -7.3363764 -3.7023144
H 5.3017682 -7.6975178 -4.6088594
H 6.2120656 -7.2364071 -3.5123265
O 1.7769762 -5.7801762 10.1625730
H 1.0413893 -5.1381955 10.0595450
H 1.4471923 -6.5353405 9.6301195
O 5.3390015 13.2920037 -4.8190013
H 5.0880014 12.4900035 -5.2750015
H 4.7640013 13.9100039 -5.3040015
O 2.3180006 10.2840029 14.0620039
H 2.5490007 11.1390031 13.6690038
H 2.7610008 10.3700029 14.9140042
O -7.4860021 -9.9090028 -4.8330014
H -7.5680021 -9.9240028 -5.8070016
H -7.9290022 -10.7490030 -4.6030013
O -8.8970025 -12.0910034 12.6900036
H -9.7970027 -12.0580034 12.2850034
H -8.3750023 -12.2250034 11.8810033
O -2.6011440 6.3258768 -6.0442853
H -2.5901064 5.6536228 -5.3323511
H -1.7273006 6.7546726 -5.9066321
O -8.1780023 6.6270019 15.1950043
H -8.8730025 6.6060018 15.8090044
H -8.7100024 6.5110018 14.3940040
O 7.5790021 -11.9280033 -6.7680019
H 6.8250019 -11.5260032 -7.2030020
H 7.7770022 -11.2220031 -6.1330017
O 10.8580030 5.8230016 -6.1080017
H 10.2840029 6.5110018 -6.4670018
H 11.7480033 6.0070017 -6.3890018
O -3.6922474 -4.6445590 -6.8232599
H -4.1473031 -4.5090265 -5.9639950
H -3.1509375 -3.8380722 -6.8722671
O -5.0800014 -7.7070022 12.0540034
H -4.3330012 -8.0290022 11.4460032
H -4.5720013 -7.3000020 12.7540036
O -3.9201649 10.6904669 -8.4908447
H -3.8259899 9.7162536 -8.5422183
H -3.8672094 10.9750482 -9.4249453
O -5.9090017 12.0580034 11.0460031
H -5.8470016 11.4150032 11.7990033
H -5.0770014 11.9600033 10.5520030
O 15.9380045 -6.9120019 -8.1570023
H 15.7880044 -6.3230018 -8.9230025
H 16.6370047 -6.4960018 -7.6310021
O 11.8990033 -7.6500021 10.8090030
H 11.8190033 -7.8810022 9.8870028
H 12.7600036 -7.2190020 10.8010030
O 10.9910031 11.9890034 9.6780027
H 11.3290032 11.1290031 9.4020026
H 11.3310032 12.0300034 10.5990030
O -1.1468288 -8.7704370 -4.2515701
H -2.0350387 -8.3930144 -4.1425895
H -0.7801419 -8.6376128 -3.3576455
O -2.6249702 -4.8282308 10.7378038
H -2.3489099 -5.1472160 11.6206915
H -1.8264159 -4.3255099 10.4723870
O -0.2168093 13.1564949 -1.8527348
H 0.5332821 13.3759628 -1.2546098
H 0.2351706 12.8171377 -2.6489734
O 15.9160045 -6.6980019 -4.6690013
H 15.4380043 -5.8180016 -4.8200013
H 15.3830043 -6.9350019 -3.8810011
O 9.2150026 -8.5960024 14.5960041
H 9.0730025 -9.4510026 14.2750040
H 9.3310026 -8.1740023 13.7020038
O -17.0560048 7.9180022 -6.1490017
H -16.4260046 7.3550021 -5.7440016
H -16.6480047 8.8070025 -6.1490017
O 2.3871286 -9.3756882 -6.8802750
H 1.8429892 -9.5308541 -7.6821052
H 2.4640939 -8.4009547 -6.9469415
O -1.9000995 -11.1826924 9.1197851
H -1.6008346 -11.8613259 8.4845874
H -2.1348885 -10.4475595 8.5124862
O 2.5390365 10.2307712 -4.6017813
H 1.8204952 10.8961582 -4.5392700
H 3.1321918 10.6644181 -5.2529878
O 1.2840004 11.4190032 11.1520031
H 0.5900002 11.1570031 11.7820033
H 1.8410005 10.6000030 11.1210031
O -10.1590028 -10.9930031 -3.8910011
H -10.9080031 -11.6380033 -3.8370011
H -10.7320030 -10.2350029 -4.1600012
O -11.3070032 6.6050018 -4.7410013
H -10.7060030 6.1910017 -5.4150015
H -11.1660031 5.8980017 -4.0990011
O -12.2470034 5.9810017 11.6920033
H -12.8640036 5.2250015 11.8720033
H -12.8070036 6.7470019 11.4460032
O 9.2770026 -12.9260036 -4.6940013
H 8.6780024 -12.5130035 -5.3030015
H 8.9000025 -13.7660039 -4.7150013
O 3.3390009 -9.7610027 12.7000036
H 4.0020011 -10.1450028 12.1090034
H 3.9620011 -9.2610026 13.2640037
O 6.4876182 8.8737416 -3.6867627
H 5.7001158 8.4758249 -4.1243263
H 7.1986588 8.2502822 -3.9666222
O 7.9660022 11.7810033 12.8410036
H 7.0690020 12.1630034 12.6700035
H 7.7870022 11.0550031 12.1820034
O -5.5147512 -8.3010329 -8.7083725
H -6.1049374 -7.5226181 -8.5919211
H -4.7862126 -8.0432611 -8.1019266
O -7.7631172 -9.0892439 5.5639700
H -7.9482024 -9.4780836 4.6817085
H -7.6234165 -9.9118544 6.0779379
O -4.3060012 12.6650035 -10.5150029
H -3.8570011 13.4720038 -10.1190028
H -5.2240015 12.9370036 -10.5240029
O -3.9010882 10.2095121 8.6372715
H -3.7807587 11.1506632 8.8811819
H -3.7529129 10.2716323 7.6739757
O 13.5740038 -8.3370023 7.2710020
H 12.9980036 -8.9180025 6.6880019
H 13.8640039 -8.9530025 7.9410022
O 10.6730030 7.5020021 8.1240023
H 11.2130031 6.9390019 7.6040021
H 11.0630031 8.4060024 8.0900023
O -1.3422213 -9.1011799 -7.0613884
H -1.1343287 -9.0032738 -6.1122269
H -2.0878615 -8.4776446 -7.1546406
O -2.3170006 -8.9610025 11.2540031
H -1.4110004 -9.1560026 11.0030031
H -2.3860007 -9.5790027 12.0440034
O -4.0093704 7.9929874 -7.8180453
H -3.9091720 7.3796878 -8.5626929
H -3.5537012 7.4826446 -7.1151544
O -2.7063928 10.4401747 6.1021769
H -2.7743768 11.1500862 5.4203612
H -1.9676525 10.7874413 6.6346037
O 14.2380040 -6.1100017 10.3710029
H 15.0380042 -6.1350017 10.9100031
H 14.0000039 -5.1690014 10.2130029
O 12.2030034 9.8900028 8.5920024
H 12.4180035 10.1900029 7.6800021
H 13.0350036 9.5570027 9.0790025
O -5.3120015 -11.8790033 -6.7480019
H -5.0120014 -12.3440035 -7.4980021
H -5.9740017 -11.2950032 -7.1990020
O -5.7920016 -13.6140038 12.4840035
H -5.1840015 -13.4260038 11.7520033
H -5.4840015 -12.8670036 13.0970037
O -2.3016809 4.2396454 -4.1847170
H -3.0323271 3.8672165 -3.6353358
H -1.6230691 4.3927330 -3.4981245
O -4.8950014 8.4260024 10.5160029
H -4.5230013 8.9270025 9.7600027
H -5.3150015 9.0860025 11.0520031
O 9.9370028 -11.0980031 9.4260026
H 10.5550030 -11.8210033 9.4730027
H 9.1310026 -11.6300033 9.1330026
O 13.0860037 9.2060026 -9.4280026
H 12.9400036 8.9830025 -8.5150024
H 14.0260039 9.0670025 -9.4880027
O 11.9690033 8.7900025 11.8260033
H 12.3960035 8.0680023 11.4240032
H 12.4010035 8.7940025 12.6940036
O -12.5720035 -7.1800020 -7.9840022
H -13.3660037 -7.5500021 -7.5330021
H -12.1830034 -8.0230022 -8.3260023
O -14.1610040 8.7110024 8.0260022
H -14.2950040 9.1020025 8.9490025
H -13.3070037 8.2040023 8.0930023
O 9.1500026 -10.3610029 -10.8170030
H 8.2560023 -10.1020028 -10.4610029
H 9.7320027 -10.0960028 -10.1320028
O 2.7201116 -10.4706928 5.5078179
H 3.4082061 -10.0991087 6.1061042
H 3.2087824 -10.4900326 4.6606190
O 5.8862598 9.5063185 -8.1960320
H 5.7309076 8.5952599 -7.8735064
H 6.5701418 9.8058989 -7.5630757
O 3.5910010 10.6670030 8.9460025
H 3.0740009 11.3470032 9.3850026
H 3.2510009 9.9020028 9.4070026
O -10.7540030 -9.3790026 5.9810017
H -11.4240032 -9.1310026 6.6350019
H -10.0170028 -8.9930025 6.5080018
O -11.6120032 6.6380019 -9.8680028
H -10.9440031 7.2240020 -9.4600026
H -12.1320034 6.4380018 -9.0910025
O -13.4140038 8.3310023 4.5310013
H -14.2630040 8.8130025 4.4260012
H -12.8510036 9.0370025 4.8320014
O 6.1544116 -11.5629387 6.6248088
H 5.6382884 -10.7446301 6.8022174
H 6.2268762 -11.5020536 5.6534387
O 6.4709104 4.4084571 -9.9612135
H 6.1257431 4.2465189 -9.0625983
H 7.3445630 4.8010021 -9.7370668
O 4.2816435 6.5583685 7.1706901
H 4.6430077 7.4566764 7.0454292
H 3.6202550 6.7605801 7.8706098
