17
Source-verbatim SI TS-6-2-n CASSCF(6,6)/6-31+G(d) geometry
C 1.48141 -1.15384 -0.70738
C 1.94833 0.00904 -0.03529
C 1.18367 1.10838 0.26013
C -0.28351 1.25255 -0.06110
C -1.15266 0.00929 0.14638
C -2.36481 -0.05059 -0.49526
C -0.70119 -1.06863 0.95531
H 0.11530 -0.96370 1.63777
H -1.32506 -1.93757 1.06631
H -0.68833 2.05833 0.54455
H -0.40041 1.57301 -1.09499
H 2.96002 -0.01033 0.33670
H 0.63599 -1.12923 -1.36266
H 1.65264 1.93393 0.76649
H -2.70062 0.74140 -1.14077
H -3.03134 -0.88289 -0.35689
H 2.11445 -2.02010 -0.77329
