30
Source-verbatim SI 6c (R/U)B3LYP/6-31+G(d) geometry used for CASPT2(6,6)
C 1.42884 3.01767 0.01796
C 0.47822 2.01471 -0.09509
C 0.67545 0.69637 -0.51820
C 1.98660 0.11684 -0.96890
C 2.57054 -0.90449 0.01321
C 2.81154 -2.20161 -0.41312
C 2.84756 -0.48963 1.31676
O -0.34253 -0.20152 -0.59544
Si -1.90030 -0.31734 0.07083
C -2.41104 -2.08053 -0.33099
C -1.83086 -0.03350 1.93341
C -3.06332 0.90968 -0.76844
H -2.81185 1.95383 -0.54885
H 2.63596 0.52183 1.64918
H 3.28552 -1.17374 2.03871
H 1.83714 -0.36678 -1.94284
H 2.70951 0.92417 -1.12309
H -0.54295 2.28182 0.17341
H 2.47612 2.86865 -0.22517
H 2.58950 -2.51875 -1.42752
H 3.22260 -2.94661 0.26335
H 1.14136 4.00737 0.35672
H -1.72374 -2.80313 0.12472
H -3.42182 -2.29469 0.03964
H -2.40737 -2.25377 -1.41396
H -1.54726 0.99266 2.19393
H -2.81323 -0.22989 2.38313
H -1.10702 -0.70916 2.40500
H -3.04245 0.78470 -1.85823
H -4.09675 0.74327 -0.43590
