19
TS: 2a (NH) <--> 17; source-verbatim CASSCF(14,12) optimized coordinates from JA043988W SI
C       -1.913485       0.252231       0.085041
C       -0.523547       0.001929       0.087774
C        0.022548      -1.328069      -0.035010
C       -0.930295      -2.429588      -0.047751
C       -2.262223      -2.155770      -0.090359
C       -2.756237      -0.799578      -0.013092
C        1.770491       0.490061       0.450837
C        2.576066       1.584998       0.091416
C        1.680528       2.573439      -0.297602
N        1.296043      -1.500079      -0.217133
N        0.459761       0.927506       0.201289
N        0.399872       2.172748      -0.238179
H       -2.267144       1.263047       0.155101
H       -3.818201      -0.637262      -0.011286
H       -0.551630      -3.432861      -0.090079
H       -2.973465      -2.959256      -0.148968
H        3.636286       1.662916       0.198481
H        1.893508       3.571641      -0.620597
H        1.945122      -0.146117       1.293320
