19
2a (NN) triplet; source-verbatim CASSCF(14,12) optimized coordinates from JA043988W SI
C       -1.927762       0.925480      -0.684203
C       -2.972554      -0.619507       0.479854
C       -3.187737       0.471273      -0.400152
C        0.347456       0.238450       0.039687
C        0.935415       1.451660       0.271468
C        2.328472       1.586208       0.291089
C        3.141259       0.471925       0.092834
C        2.562828      -0.770032      -0.139409
C        1.156528      -0.914151      -0.186004
N        0.630657      -2.121548      -0.475757
N       -1.057632       0.129701      -0.003302
N       -1.692432      -0.809308       0.708790
H        4.210701       0.570271       0.119177
H        2.763518       2.550265       0.477959
H        0.313615       2.307698       0.458546
H       -3.696501      -1.255900       0.944919
H       -4.116908       0.848354      -0.771099
H       -1.580294       1.709806      -1.321381
H        3.168911      -1.641217      -0.303944
