25
2b (NN) triplet; source-verbatim CASSCF(14,12) optimized coordinates from JA043988W SI
C       -0.755871       2.360498       1.160086
C        0.783878       0.074400      -0.199776
C       -2.634251      -0.454959      -0.340808
C       -3.784458      -1.319959      -0.759650
C       -2.671153       0.787853       0.350685
C       -1.362177       1.165669       0.490856
C        3.570413      -0.157433      -0.381587
C        1.464536      -0.906609       0.578628
C        1.489742       0.899173      -1.027870
C        2.884746       0.801329      -1.124789
C        2.869890      -1.010815       0.463906
N       -1.394784      -0.801886      -0.599457
N       -0.623588       0.181189      -0.102890
N        0.802366      -1.714882       1.430354
H       -3.533884       1.316614       0.700501
H       -3.416557      -2.208132      -1.257200
H       -4.444591      -0.792364      -1.441445
H       -4.374524      -1.627027       0.098269
H       -0.250494       3.010153       0.453345
H       -0.034374       2.068000       1.915688
H       -1.535335       2.935203       1.644075
H        0.958486       1.621189      -1.620228
H        3.417787       1.460406      -1.784432
H        3.379688      -1.754296       1.047688
H        4.638721      -0.239528      -0.461249
