16
Exact ACS SI CASSCF/6-31G* geometry for TS21-22; DOI 10.1021/ja906679g
C       -0.779452      -1.155552      -0.632662
C       -1.584924      -0.150183      -0.116274
H       -1.114195      -1.511460      -1.593113
C        0.515892      -1.462089      -0.217359
C        1.259200      -0.829519       0.907911
H        1.048365      -2.188073      -0.802919
H        0.637780      -0.412983       1.688593
C        1.850883       0.170044      -0.037646
H        1.992376      -1.483888       1.358937
C        1.185987       1.332901      -0.434837
H        2.759196      -0.111174      -0.538439
H        1.565538       1.836679      -1.309062
O       -2.586184       0.204106       0.373983
C       -0.014596       1.773259       0.098943
H       -0.298132       1.522464       1.103240
H       -0.499394       2.642415      -0.307558
