10
Exact ACS SI CASSCF(6,6)/6-31G* geometry for 28 s-E; DOI 10.1021/jo0256991
C      -0.1134094     -0.8801863      0.0044123
C       1.3110374     -1.0079105     -0.0039809
C      -2.0504048      0.2522031     -0.0013161
C       2.6598692      1.0572166      0.0934548
N      -0.7027597      0.2500384     -0.0172661
N       2.0578460      0.0551231     -0.0305987
N      -3.2086180      0.3367569      0.0083891
H      -0.6608795     -1.8123499      0.0301739
H       1.7929828     -1.9631851      0.0140796
H       3.0912394      1.7509430     -0.5987866
