16
VERBATIM bicyclo[2.2.0]hexane C2 equilibrium geometry, CASSCF(6,6)/6-31G*, scanned SI p. 3
C 0.691284 -0.398837 0.575372
C 1.346086 0.739836 -0.229752
C -0.037483 1.509301 -0.274469
C -0.691284 0.398837 0.575372
C -1.346086 -0.739836 -0.229752
C 0.037483 -1.509301 -0.274469
H 1.198510 -0.716190 1.478023
H 2.101033 1.282249 0.328182
H 1.767743 0.455363 -1.188171
H -0.467180 1.645523 -1.261394
H 0.000000 2.474971 0.216459
H -1.198510 0.716190 1.478023
H -2.101033 -1.282249 0.328182
H -1.767743 -0.455363 -1.188171
H 0.467180 -1.645523 -1.261394
H 0.000000 -2.474971 0.216459
