25
TS: 2b (NMe) <--> 14b (NMe); source-verbatim CASSCF(14,12) optimized coordinates from JA043988W SI
C       -2.561971      -0.789795       0.516137
C       -2.840649       0.377152      -0.254418
C       -1.636986       0.945805      -0.502448
C        0.693147       0.259255       0.136083
C        1.386089       1.393744       0.391310
C        2.849877       1.428684       0.300588
C        3.598662       0.289095       0.182955
C        2.906889      -0.969276       0.174744
C        1.511481      -0.909153      -0.223876
C       -3.531463      -1.793295       1.060874
C       -1.306762       2.167783      -1.302333
N       -1.275223      -0.910531       0.713906
N       -0.705263       0.152552       0.103007
N        1.538214      -1.668005      -1.231119
H        4.672400       0.333891       0.201968
H        3.330350       2.385891       0.384482
H        0.870634       2.300887       0.643634
H       -3.795659       0.726266      -0.589302
H        3.380370      -1.912193       0.341351
H       -2.169954       2.450212      -1.890860
H       -1.046418       3.009210      -0.669098
H       -0.478137       1.987214      -1.977400
H       -2.998488      -2.577637       1.582589
H       -4.226377      -1.328686       1.753735
H       -4.113889      -2.243964       0.263298
