16
VERBATIM cyclohexane-1,4-diyl twist mountain top, CASSCF(6,6)/6-31G*, scanned SI p. 9
C 0.000000 0.000000 -1.456749
C -1.266841 -0.319175 -0.714423
C -1.266841 0.319175 0.714423
C 0.000000 0.000000 1.456749
C 1.266841 -0.319175 0.714423
C 1.266841 0.319175 -0.714423
H 0.000000 0.000000 -2.531184
H -2.133348 0.029476 -1.269876
H -1.386085 -1.398618 -0.608416
H -2.133348 -0.029476 1.269876
H -1.386085 1.398618 0.608416
H 0.000000 0.000000 2.531184
H 2.133348 0.029476 1.269876
H 1.386085 -1.398618 0.608416
H 2.133348 -0.029476 -1.269876
H 1.386085 1.398618 -0.608416
