19
5a; source-verbatim CASSCF(14,12) optimized coordinates from JA043988W SI
C        0.552197       2.359030       0.000000
C       -0.686005       0.059946       0.000000
C       -2.096984      -2.286674       0.000000
C        0.017586      -1.156234       0.000000
C       -2.081123       0.150420       0.000000
C       -2.781216      -1.045050       0.000000
C       -0.716482      -2.363494       0.000000
C        2.497437       1.227120       0.000000
C        1.927522       2.508087       0.000000
N        1.358966      -0.969991       0.000000
N        1.476168       0.352822       0.000000
N        0.309171       1.017476       0.000000
H       -2.586815       1.098412       0.000000
H       -3.855439      -1.033073       0.000000
H       -0.205198      -3.307561       0.000000
H       -2.672953      -3.194531       0.000000
H        3.507003       0.886490       0.000000
H       -0.246048       3.065920       0.000000
H        2.462506       3.433578       0.000000
