19
2a (NH)  symmetry Cs open-shell singlet; source-verbatim CASSCF(14,12) optimized coordinates from JA043988W SI
C       -2.003390      -2.457820       0.000000
C       -0.759395      -3.138289       0.000000
C        0.173814      -2.140107       0.000000
C       -0.034828       0.367232       0.000000
C        1.422006       0.642818       0.000000
C        1.835963       2.059906       0.000000
C        0.919425       3.063309       0.000000
C       -0.478513       2.762755       0.000000
C       -0.922061       1.428745       0.000000
N       -1.837717      -1.157969       0.000000
N       -0.508822      -0.952061       0.000000
N        2.313974      -0.242745       0.000000
H       -1.199092       3.557555       0.000000
H       -0.580804      -4.192276       0.000000
H        2.892067       2.247562       0.000000
H        1.243787       4.087627       0.000000
H       -2.992215      -2.867674       0.000000
H       -1.970884       1.216654       0.000000
H        1.237608      -2.180609       0.000000
