17
Source-verbatim SI TS-1-3 (R/U)B3LYP/6-31+G(d) geometry
C -2.75682 -0.16943 -0.47475
C -1.57133 0.05144 0.14186
C -0.94966 1.32929 0.36645
C -0.50458 -0.98569 0.40952
C 0.66309 -0.31876 -0.28727
C 1.96115 -0.18379 0.27732
C 3.07404 0.22493 -0.39890
H -3.40027 0.65412 -0.77499
H -3.10547 -1.17542 -0.69174
H -1.34389 2.23987 -0.08319
H -0.29227 1.46687 1.21858
H -0.74430 -1.98576 0.02443
H -0.29750 -1.08624 1.48457
H 0.55429 -0.17557 -1.36090
H 2.06223 -0.41828 1.33898
H 3.03628 0.47231 -1.45755
H 4.03557 0.32020 0.09643
