16
VERBATIM bicyclo[2.2.0]hexane C2v inversion transition structure, CASSCF(6,6)/6-31G*, scanned SI p. 2
C 0.000000 0.798020 0.575364
C -1.301363 0.791977 -0.252119
C -1.301363 -0.791977 -0.252119
C 0.000000 -0.798020 0.575364
C 1.301363 -0.791977 -0.252119
C 1.301363 0.791977 -0.252119
H 0.000000 1.395764 1.478404
H -2.153079 1.209044 0.273054
H -1.235111 1.266423 -1.225632
H -1.235111 -1.266423 -1.225632
H -2.153079 -1.209044 0.273054
H 0.000000 -1.395764 1.478404
H 2.153079 -1.209044 0.273054
H 1.235111 -1.266423 -1.225632
H 1.235111 1.266423 -1.225632
H 2.153079 1.209044 0.273054
