11
4-nitroimidazole S1/S0 conical intersection; CASSCF(10,7)/6-31G(d); Gaussian archive from supporting information; E=-428.2104507 Eh
N  -2.6110224254   0.4970918444  -0.0166496916
C  -2.1483172767  -0.5297253356  -0.7528801971
N  -0.8568877797  -0.6360974553  -0.6879052997
C  -0.4891488696   0.3679015187   0.1238144512
C  -1.5207834589   1.1035742249   0.5724837155
H  -3.5628900006   0.7664818967   0.0821363943
H  -2.7947850660  -1.1693255790  -1.3174095839
H  -1.5958581198   1.9515609288   1.2147539801
N   2.2751939796   0.0533738533  -0.3521485294
O   2.7749356389  -1.0303744340  -0.2501416464
O   1.6951839282   0.5578077872   0.6523746569
