19
7; source-verbatim CASSCF(14,12) optimized coordinates from JA043988W SI
C       -0.880214      -0.829315       0.000000
C        1.146852      -2.720108       0.000000
C       -1.232546      -2.173278       0.000000
C        0.471430      -0.442233       0.000000
C        1.503377      -1.367886       0.000000
C       -0.196822      -3.113844       0.000000
C       -0.815428       1.410799       0.000000
C       -0.747704       2.784392       0.000000
C        0.657041       3.019317       0.000000
N       -1.658140       0.325021       0.000000
N        0.454160       0.944305       0.000000
N        1.377371       1.911479       0.000000
H       -2.261904      -2.482587       0.000000
H        2.528492      -1.050590       0.000000
H       -0.440593      -4.160501       0.000000
H        1.917681      -3.468600       0.000000
H       -2.648503       0.363030       0.000000
H       -1.538676       3.502282       0.000000
H        1.153765       3.967855       0.000000
