17
Source-verbatim SI 1 CASSCF(6,6)/6-31+G(d) geometry
C -2.72405 -0.52361 -0.35523
C -1.92289 0.45893 0.08368
C -0.50603 0.31036 0.55428
C 0.62166 1.15677 -0.18335
C 1.49219 -0.08269 -0.10779
C 2.80920 -0.29005 -0.19082
C 0.31125 -0.97005 0.23960
H 0.97751 2.04964 0.31862
H 0.33865 1.40689 -1.20195
H 0.44319 -1.68046 1.04815
H -0.06328 -1.49887 -0.63147
H -2.31844 1.46269 0.13294
H -2.39836 -1.54694 -0.41787
H -0.45799 0.52546 1.61863
H 3.23433 -1.26864 -0.04711
H 3.49239 0.51437 -0.40353
H -3.73604 -0.32218 -0.65852
