3329
4-thiothymidine S2T2-MIN; verbatim full 3329-atom QM/MM coordinates from ACS SI
N 0.7050371 -0.4168243 -0.9413699
C -0.2503271 -0.3737282 -1.8686260
C -0.3471605 0.6561439 -2.8399198
C 0.5252473 1.7002633 -2.6830969
N 1.5105455 1.6179163 -1.7123667
C 1.7372049 0.5313542 -0.9875185
C -2.2079024 -1.2295439 1.7214301
H -2.9064650 -1.3735608 0.8936493
H -2.7187372 -1.4915487 2.6508312
C -0.9845888 -2.1426434 1.5554675
H -1.3178412 -3.1521664 1.7915573
O -0.5223227 -2.1932980 0.1967470
C 0.7464264 -1.4567123 0.1413267
H 1.5347701 -2.2161742 -0.0579175
H -1.0119357 -1.1337806 -1.8593816
C -1.4051726 0.5904544 -3.9022407
H -1.9029808 1.5468594 -3.9876264
H -0.9814690 0.3179217 -4.8603295
H -2.1577570 -0.1394412 -3.6516973
H 2.0054679 2.5192452 -1.4296823
O 2.7932878 0.3263630 -0.3992693
C 0.1807881 -1.7508452 2.4404117
H -0.1323413 -1.1782027 3.3153196
C 1.0254908 -0.9065478 1.5215773
H 0.6309814 0.1134773 1.5708706
O 0.8461373 -2.9379141 2.9399441
O 2.4317973 -0.8145978 1.8828143
H 2.8024905 -0.4158554 1.0406509
H 1.0457116 -3.5167730 2.1670905
O -1.9174069 0.1698101 1.8025338
H -2.7040854 0.5538502 2.2637058
S 0.6183323 3.0586208 -3.7764179
O -13.2220037 2.3610007 -3.2990009
H -13.2790037 2.6980008 -4.1580012
H -14.1220040 2.0690006 -3.0750009
O 1.2560004 -15.7570044 -1.4500004
H 0.9160003 -15.7940044 -2.3930007
H 0.5620002 -15.1610042 -1.1050003
O 4.4204609 -3.2340334 0.1678074
H 4.7712169 -3.0809253 -0.7347799
H 4.0847264 -4.1356041 0.0577164
O 3.0790009 2.5840007 16.4080046
H 3.6480010 3.3420009 16.1760045
H 2.2090006 2.9160008 16.3270046
O 1.8570005 19.4680054 -2.9100008
H 1.0590003 18.9360053 -2.9230008
H 2.5190007 18.9570053 -3.4510010
O -15.6390044 0.8660002 -2.5550007
H -16.3330046 0.5060001 -2.0000006
H -16.2250045 0.9490003 -3.3350009
O 3.5110010 -14.7870041 0.0920000
H 2.7030008 -15.1600042 0.4820001
H 3.3340009 -15.1010042 -0.8120002
O 2.2820006 0.2210001 -19.1820054
H 2.3510007 0.7400002 -18.3970051
H 2.0940006 -0.7160002 -18.8820053
O -8.0660023 -16.6670047 1.8350005
H -8.3200023 -17.4640049 1.3500004
H -8.0450023 -15.9360045 1.1740003
O -6.9151477 3.2672917 2.0868665
H -7.1836272 4.0352669 1.5444130
H -6.6995795 3.7216487 2.9227146
O 11.1890491 -0.2565992 0.8619047
H 11.6727452 -0.7377822 1.5722298
H 11.2218651 0.6434765 1.2104182
O -14.4160040 3.3100009 -0.3490001
H -13.4700038 3.5680010 -0.3200001
H -14.8050041 3.4420010 -1.2650004
O 7.3190020 -14.5080041 -1.1390003
H 6.8100019 -14.4100040 -0.3040001
H 7.2660020 -13.5580038 -1.5450004
O 7.9200022 0.9820003 -17.6480049
H 8.0760023 0.0290000 -17.4910049
H 8.8040025 1.3000004 -17.3330049
O 2.3737592 3.9049703 -0.9351927
H 2.8231638 4.2452226 -0.1243418
H 1.9131126 4.7322572 -1.2155087
O 0.9832345 0.3607004 11.3248161
H 0.0972276 0.3712752 11.7359707
H 0.8779539 1.0871927 10.6634446
O -2.3940007 -14.7170041 -1.4440004
H -1.8350005 -15.4330043 -1.8090005
H -1.7480005 -14.1310040 -0.9410003
O -3.6560010 5.1860015 -17.6390049
H -3.6850010 4.3930012 -18.2250051
H -3.7500010 4.9520014 -16.7040047
O -6.3704253 1.9217576 -1.2059675
H -5.8607298 2.6770401 -0.8457981
H -6.2207938 1.2674650 -0.4889893
O 10.8570030 -15.2270043 -2.7490008
H 11.7160033 -15.1520042 -2.2770006
H 10.9020031 -14.5920041 -3.4690010
O 13.3630037 3.8550011 1.6850005
H 13.4890038 2.9280008 2.1630006
H 14.2750040 4.1680012 1.5700004
O -9.1841086 -1.7334217 -5.3407531
H -8.5625173 -1.3269609 -5.9840735
H -9.9534441 -1.8642702 -5.9398722
O -8.9420025 -5.9920017 12.3410035
H -8.6070024 -5.6600016 13.2350037
H -8.5070024 -5.3400015 11.7390033
O 9.7635619 -3.4059803 -5.0067819
H 10.6022149 -3.9005003 -4.9165818
H 9.8278924 -3.1480163 -5.9534118
O 9.7860027 0.1920001 14.5570041
H 8.8640025 0.3450001 15.0050042
H 9.7020027 0.9100003 13.8840039
O -4.5520013 0.3510001 -18.6490052
H -4.7830013 -0.5720002 -18.8840053
H -3.6500010 0.4980001 -19.0090053
O -8.8925170 1.8702279 0.8185505
H -8.1726600 2.2835803 1.3407159
H -8.7500964 0.9277045 1.0009979
O 8.5450024 -1.4890004 -16.5020046
H 9.2190026 -2.2050006 -16.6950047
H 8.2660023 -1.7790005 -15.5900044
O 10.8373023 0.4576068 -1.9017412
H 10.2829999 -0.2491496 -2.2949174
H 10.9517455 0.1420598 -0.9845326
O -18.7610053 -6.3820018 -1.4570004
H -18.3970051 -7.2910020 -1.4930004
H -18.0480051 -5.8470016 -0.9820003
O -11.7106810 4.2114329 -0.6082218
H -11.5087028 3.2547626 -0.5014459
H -11.4108906 4.3422582 -1.5279511
O 1.0928665 -10.5342993 0.1545167
H 0.6837639 -11.1048719 0.8431126
H 1.3580597 -11.1916777 -0.5134385
O 0.7351238 5.4738993 2.3321545
H 0.2068724 5.3182844 1.5189149
H 1.6506114 5.3888370 1.9826239
O 0.6400002 6.1370017 17.3010048
H 0.3720001 6.3830018 18.1220051
H 1.4950004 5.7600016 17.5540049
O -16.8320047 3.3460009 1.1310003
H -17.4500049 3.7350010 0.5020001
H -16.0480045 3.2180009 0.5580002
O 1.8020005 -18.0550051 1.7210005
H 2.0870006 -17.7560050 2.5900007
H 1.6380005 -19.0430053 1.9460005
O 0.1790001 3.1610009 -17.0310048
H 0.0250000 4.0810011 -17.4470049
H 0.7140002 3.4640010 -16.2400045
O -0.9922025 4.8597311 0.2059307
H -1.2280522 3.9046387 0.1424115
H -1.8752304 5.2754075 0.1224060
O 17.7410050 1.7230005 -1.9780006
H 18.3480051 1.1930003 -2.4890007
H 17.0520048 1.1080003 -1.7660005
O -6.5590018 -6.9800020 -12.4030035
H -5.9000017 -6.2920018 -12.4010035
H -6.2540018 -7.6100021 -13.1090037
O -7.7779218 -5.0801370 3.0414259
H -7.3778497 -4.3154511 3.5041202
H -8.3140324 -4.6075846 2.3684341
O -6.9880020 11.7150033 -13.8220039
H -6.9770020 12.4740035 -13.3070037
H -6.1750017 11.7680033 -14.2810040
O -7.5300021 16.3790046 -0.7660002
H -6.8580019 15.8030044 -0.3520001
H -7.4810021 15.8290044 -1.6200005
O 9.3867284 -6.6861865 1.9821382
H 10.2559885 -7.0419371 2.2477524
H 9.2201967 -6.0440233 2.7035867
O 10.9890031 12.2640034 -1.2580004
H 10.7160030 13.1540037 -0.9770003
H 10.6630030 12.2160034 -2.1780006
O -15.0590042 -3.7000010 -1.5480004
H -15.7440044 -3.6270010 -2.2360006
H -15.0710042 -2.6890008 -1.2730004
O 2.2470006 -2.2720006 -18.1530051
H 1.8080005 -3.1660009 -17.9430050
H 2.9350008 -2.5990007 -18.7430052
O 3.2469439 -6.4375901 1.9912139
H 2.9848262 -7.3793265 1.9755349
H 2.4039442 -6.0006548 1.7446403
O -0.0380000 -4.3410012 17.5470049
H 0.2170001 -4.4020012 16.6370047
H -0.8050002 -4.9430014 17.6360049
O 3.5720010 17.8050050 -4.1120012
H 4.5470013 17.7970050 -4.1570012
H 3.4240010 16.9230047 -3.6500010
O -2.7680008 -5.8890016 -17.9160050
H -1.9280005 -5.6120016 -18.3510051
H -2.7260008 -6.8960019 -18.0800051
O -5.4494208 -6.6720781 -1.4570143
H -5.7454681 -6.8938531 -2.3628006
H -5.7964903 -7.4704518 -1.0046090
O -7.7830022 -4.7940013 14.3360040
H -7.4310021 -4.8730014 15.2010043
H -7.2610020 -3.9900011 14.1550040
O -3.8890011 15.0050042 -2.1220006
H -4.1890012 15.9380045 -2.2300006
H -4.2450012 14.5910041 -2.8410008
O 15.2830043 -2.7450008 -4.4390012
H 15.8410044 -1.9120005 -4.3270012
H 14.4610040 -2.5930007 -3.9380011
O -14.7820041 -7.0280020 -2.1460006
H -14.5000041 -6.6220019 -1.3420004
H -14.0330039 -7.5740021 -2.2810006
O -13.0630037 13.3900037 -2.9660008
H -12.4810035 12.9610036 -3.6420010
H -13.2990037 14.1460040 -3.5320010
O 4.4389842 -5.4824098 -1.7764997
H 5.2526472 -5.4847334 -1.2280248
H 4.7139181 -6.0573121 -2.5175834
O 2.8160008 -1.7670005 16.3250046
H 2.9320008 -2.1720006 17.2220048
H 3.2180009 -2.3680007 15.6650044
O 6.1610017 17.4020049 -3.8660011
H 6.4530018 16.6980047 -3.2620009
H 6.3600018 17.0880048 -4.7370013
O -4.9510014 -2.3400007 -18.9020053
H -5.3340015 -3.1830009 -18.9740053
H -4.4070012 -2.4870007 -18.1140051
O -8.3951840 -0.9747167 1.1804740
H -8.2195283 -0.7603839 2.1222512
H -7.5812592 -1.4814034 0.9754706
O -4.1510012 19.0830053 0.4430001
H -3.8220011 19.3080054 -0.4300001
H -5.1130014 19.2780054 0.3800001
O 12.7100036 0.2510001 -4.0510011
H 12.5370035 -0.7410002 -3.7980011
H 12.0320034 0.6590002 -3.5060010
O -2.2080006 -18.0080050 -0.3020001
H -2.7660008 -18.8190053 -0.1540000
H -2.2990006 -17.7980050 -1.3060004
O -3.7221948 -2.2884283 -1.5245503
H -3.6842338 -3.1043580 -0.9799315
H -4.6135017 -2.3932979 -1.9292715
O -7.1420020 -1.3160004 17.3150048
H -6.4210018 -1.6400005 16.8060047
H -7.8430022 -1.1380003 16.5990046
O 18.1500051 -2.2520006 -1.7830005
H 18.9000053 -1.7270005 -1.6350005
H 17.9500050 -1.8280005 -2.6090007
O -7.7920022 -4.1490012 -12.5320035
H -7.8490022 -3.5440010 -13.2920037
H -8.6080024 -4.8160013 -12.6390035
O -9.8230361 -2.5420625 6.5725932
H -10.2868971 -1.7586402 6.2139191
H -10.5901075 -3.0639817 6.8843959
O -9.5630027 13.9430039 2.8650008
H -10.2170029 14.7090041 2.9770008
H -9.9800028 13.2980037 3.4970010
O 9.0130025 -4.6630013 -13.2630037
H 8.4100024 -4.7070013 -14.0780039
H 8.6090024 -5.3950015 -12.7530036
O 9.5495288 -5.1233658 4.2548135
H 8.9814475 -4.6479550 4.8944806
H 9.7537570 -5.9265966 4.7657128
O 8.8020025 16.7050047 4.7590013
H 7.8470022 16.7150047 4.4780013
H 8.9110025 15.7470044 4.8090013
O -3.5270010 -3.7980011 -14.1270040
H -2.6640007 -4.3430012 -14.1830040
H -4.0620011 -4.3400012 -13.5190038
O -4.9061712 -6.5703363 4.1389200
H -4.8989609 -5.6628813 3.7730785
H -5.3352423 -6.4642715 5.0085783
O -7.1440020 13.9400039 1.8020005
H -7.4750021 13.3210037 1.1560003
H -7.9300022 13.9510039 2.4060007
O 13.7900039 -5.3760015 -2.4890007
H 13.2940037 -5.6660016 -1.6650005
H 14.6620041 -5.1250014 -2.1140006
O 14.0230039 13.0250036 0.8850002
H 14.7370041 13.4770038 0.4480001
H 13.9180039 13.6090038 1.6030004
O -15.9460045 4.4580012 -2.4050007
H -16.4020046 3.9350011 -3.1320009
H -15.1900043 4.9850014 -2.7210008
O 2.2180006 -16.9780048 -5.1200014
H 1.8810005 -17.1470048 -6.0190017
H 2.2420006 -17.8190050 -4.6700013
O -0.0560000 -13.6800038 12.4980035
H 0.0220000 -14.4210040 13.1220037
H 0.8500002 -13.2740037 12.7570036
O -0.0374261 3.6399667 12.6702907
H 0.1425344 4.3858345 13.2839217
H -0.9932217 3.5001693 12.7673865
O -18.5520052 2.9300008 3.7940011
H -17.9840050 3.1780009 3.0810009
H -18.0630051 2.1400006 4.1940012
O -4.8240014 -16.7640047 0.4300001
H -4.8370014 -16.2180045 1.2170003
H -4.0400011 -16.4990046 -0.0160000
O -1.8070005 1.5020004 -17.4900049
H -2.0570006 1.2400003 -16.5590046
H -1.0580003 2.1260006 -17.4290049
O -2.5110007 19.0510053 2.6990008
H -3.1350009 19.1360054 1.8620005
H -3.0680009 19.3230054 3.4840010
O 16.4920046 3.9830011 3.3480009
H 17.3590049 3.7670011 2.8630008
H 16.4560046 4.8620014 2.8930008
O -14.8940042 -5.6620016 0.6570002
H -15.1510042 -4.9500014 0.0880000
H -14.7850041 -5.1440014 1.5240004
O 6.6342412 -5.5542212 -0.1474121
H 6.6244443 -5.1090245 0.7331331
H 7.5447724 -5.3239411 -0.4168048
O -5.2010015 -4.9240014 -18.4350052
H -5.4200015 -4.8350014 -17.5020049
H -4.4080012 -5.4010015 -18.3160051
O -6.0834164 -2.5118589 1.0239540
H -5.5673858 -3.0668059 1.6445750
H -6.4209653 -3.2228914 0.4257823
O -3.0720009 14.7530041 0.9880003
H -3.0890009 13.8330039 0.7280002
H -3.0300008 15.1750042 0.1050000
O 13.4170038 -2.4810007 -0.9530003
H 13.3060037 -3.3940009 -0.5410002
H 13.4510038 -1.9040005 -0.1890001
O -5.7220016 -15.3570043 2.6700007
H -6.0890017 -14.4810041 2.6190007
H -6.4090018 -15.8680044 2.2550006
O -4.2250012 5.3950015 -15.0470042
H -4.6400013 4.6080013 -14.5650041
H -3.2600009 5.2460015 -14.8950042
O -3.7650353 3.8645309 2.4006202
H -2.8351268 3.7720114 2.7014725
H -3.9941558 4.7348099 2.7921951
O 11.8810033 -14.1840040 2.1090006
H 11.3470032 -14.9260042 2.4310007
H 12.7990036 -14.5440041 2.0890006
O 16.6280047 8.2530023 3.2120009
H 17.4000049 7.7030022 3.2600009
H 17.1360048 9.0680025 3.3800009
O -6.3549152 3.3050822 -4.5096959
H -5.6004884 3.1567013 -3.9139659
H -6.0063721 3.9784487 -5.1232327
O -9.5660027 6.5370018 12.7180036
H -9.0680025 7.1420020 12.0870034
H -10.4390029 6.5470018 12.2640034
O 12.9370036 -13.8750039 -4.1800012
H 13.7530038 -13.9040039 -3.6610010
H 12.8400036 -12.8940036 -4.3910012
O 10.8929683 2.9703679 -2.9682027
H 11.5836368 3.2163656 -2.3175393
H 10.6642792 2.0829631 -2.6154958
O 7.2780020 3.6230010 15.3510043
H 7.1360020 3.9330011 16.2500045
H 6.9940020 2.6930008 15.4460043
O -14.5390041 -10.2520029 -0.3070001
H -14.8730042 -9.5330027 0.2280001
H -14.9120042 -10.9050031 0.3420001
O -9.7017222 6.0985709 3.7097992
H -10.2625650 6.0245060 2.9064485
H -9.0009154 6.6801170 3.3660173
O 7.7580022 -14.8240041 2.3460007
H 7.1890020 -15.5800044 2.3960007
H 7.0310020 -14.1660040 1.9950006
O 5.8004199 7.1177285 -1.3901302
H 4.8918104 7.2286385 -1.0320685
H 5.7036571 7.5323432 -2.2583461
O -10.9992425 -5.6046482 2.8536482
H -10.5148923 -4.8940659 2.3881759
H -10.3153829 -5.9513357 3.4567226
O -10.3060029 13.4760038 -0.2670001
H -10.6470030 14.0130039 0.4880001
H -9.7410027 12.7630036 0.1930001
O 7.1972996 -8.3927075 2.6868840
H 6.7235658 -8.3357069 1.8326936
H 8.0553275 -8.0002044 2.4288014
O 9.0340025 14.7620041 1.9870006
H 9.9980028 14.9100042 1.8300005
H 9.0750025 14.2920040 2.8740008
O -17.4190049 7.3950021 -0.0480000
H -16.8920047 7.8060022 -0.7210002
H -18.1870051 8.0560023 -0.0930000
O -0.4460001 -9.1550026 -17.4820049
H -0.4360001 -9.8370028 -16.7780047
H -1.3430004 -8.9670025 -17.6490049
O -1.1725626 -8.0895839 1.3599233
H -1.5517941 -7.1862051 1.4099001
H -0.5289383 -8.0278383 2.0953823
O -3.0990009 -9.1880026 16.4430046
H -3.7470010 -8.6730024 15.9640045
H -2.2920006 -9.1510026 15.8820044
O 1.5210004 14.0460039 0.0620000
H 2.4390007 13.8720039 0.3370001
H 1.1920003 14.4860041 0.8540002
O 15.3060043 -8.2090023 2.8280008
H 15.6150044 -9.1660026 2.8620008
H 15.4000043 -7.9880022 3.7690011
O 15.4460043 10.7520030 -0.1100000
H 16.0220045 11.1870031 0.5030001
H 14.6660041 11.3470032 -0.0430000
O -13.5510038 7.8710022 -5.9490017
H -12.6470035 7.4420021 -5.7960016
H -14.0260039 7.0720020 -6.3110018
O 3.4380010 -12.9130036 -4.9810014
H 4.2160012 -13.3870037 -4.6520013
H 3.4340010 -12.1870034 -4.3000012
O 1.6960005 -10.7140030 16.5440046
H 2.3710007 -10.5890030 15.8370044
H 1.9250005 -9.9760028 17.1230048
O 3.8651946 3.3908674 -3.6852281
H 2.9140815 3.2587295 -3.8384256
H 3.8728242 4.3589087 -3.5735614
O 0.6620002 5.4570015 14.6310041
H 1.4770004 6.0670017 14.6520041
H 0.5090001 5.4470015 15.5530044
O -10.9150031 -11.3250032 -0.5910002
H -11.3450032 -12.0570034 -0.9550003
H -11.1880031 -11.3930032 0.3100001
O -11.6622457 1.4889447 -0.6804826
H -11.9495206 1.1295410 0.1884230
H -12.4077407 1.2731718 -1.2600216
O 5.5280015 -14.0410039 -3.8830011
H 5.9610017 -13.2910037 -3.4380010
H 5.2830015 -14.5600041 -3.0940009
O 2.1830006 -12.2310034 12.2510034
H 2.5070007 -11.2960032 12.5190035
H 3.0830009 -12.6880036 12.2720034
O 2.2020006 5.3150015 -17.7290050
H 1.4090004 5.6970016 -18.1560051
H 2.3190006 5.9390017 -16.9560047
O 6.0507300 1.6781681 -2.9039002
H 5.4168959 0.9415454 -2.7648421
H 5.4302341 2.4135041 -3.0563019
O 4.6650013 4.5740013 15.3250043
H 5.4230015 4.8110013 15.8730044
H 4.0990011 5.3860015 15.2970043
O -13.1250037 -12.7670036 3.7570011
H -13.6670038 -12.7800036 4.5140013
H -12.2870034 -13.2400037 4.1270012
O -8.0230022 0.5440002 -16.5310046
H -8.2080023 -0.4560001 -16.4490046
H -8.2920023 0.6250002 -17.4190049
O -12.9070036 5.7040016 4.3420012
H -13.0100036 6.6160019 4.6610013
H -13.0750037 5.7980016 3.3940009
O 7.8080022 2.5930007 -13.0480037
H 7.4150021 1.9830006 -13.7350038
H 7.7250022 3.4740010 -13.4160038
O 3.9906243 4.5190442 5.2604224
H 3.0220728 4.5928403 5.1496762
H 4.1390589 5.2682062 5.8743712
O -17.4810049 3.1720009 -4.0950011
H -17.2990048 2.4780007 -4.7910013
H -18.3520051 2.9010008 -3.7370010
O -0.6370002 -19.4900055 -4.3850012
H -1.4890004 -19.3230054 -3.9520011
H -0.5220001 -18.6040052 -4.8050013
O 2.5817194 -0.0062385 -4.7990214
H 3.1379019 -0.0894015 -3.9913894
H 2.5101414 -0.9574168 -5.0381085
O -0.5288139 -2.3883655 12.3562357
H 0.0240223 -2.3182125 13.1589405
H -1.0099872 -1.5450704 12.3988916
O 15.1860043 -1.0580003 9.8340028
H 15.0100042 -0.7410002 8.9340025
H 14.6470041 -0.5070001 10.4560029
O -15.3760043 -1.4580004 -10.2100029
H -14.9430042 -0.5990002 -10.3270029
H -14.7790041 -1.7550005 -9.5160027
O 5.5773857 0.6037158 -8.0129576
H 5.2184125 0.9105269 -7.1540558
H 6.0686808 -0.1952106 -7.7294241
O -0.0972697 -3.7933216 10.1043036
H 0.2653184 -3.1414098 9.4744854
H -0.1746465 -3.2459020 10.9229648
O -10.3882118 2.1037118 6.4908640
H -9.7564358 2.6122350 5.9374841
H -10.4828226 2.6725173 7.2821711
O 5.7860016 1.3240004 -14.8120041
H 5.1400014 2.0170006 -15.1040042
H 6.3240018 1.3390004 -15.5550044
O 8.3282731 2.7248958 1.8808049
H 8.0876302 2.1774116 1.0972947
H 7.5044857 3.2271264 1.9903687
O -9.2723317 0.6243054 -3.9668120
H -9.4672469 0.4009330 -3.0254457
H -9.3541269 -0.2610298 -4.3779380
O 4.1810888 -0.3041129 -2.5506242
H 4.6029319 -1.1854472 -2.4425138
H 3.8195100 -0.1525768 -1.6334975
O 2.6438297 0.4317819 13.4915692
H 3.3011544 1.1506783 13.5723992
H 2.2262030 0.6314791 12.6270812
O -11.1510031 -0.3150001 -14.0320039
H -11.2490031 0.4060001 -14.6780041
H -11.9410033 -0.8500002 -14.3040040
O -14.8860042 0.1630000 2.9420008
H -15.8530044 0.1200000 3.1370009
H -14.4940041 -0.3660001 3.6630010
O 3.1910009 -16.4360046 4.5060013
H 3.4040010 -17.3870049 4.5080013
H 2.3860007 -16.3830046 5.0600014
O 5.2320015 -3.3520009 -14.8320042
H 5.0230014 -2.4060007 -14.7610041
H 4.4230012 -3.8390011 -14.6980041
O 4.7176375 -1.9705337 5.3971243
H 5.2569775 -1.2820048 4.9525264
H 4.3640802 -2.4102572 4.5956520
O -2.9520008 -17.9980050 -3.3370009
H -3.9040011 -18.0270050 -3.5310010
H -2.7520008 -17.1140048 -3.6600010
O -3.5143276 0.4924280 -1.3433589
H -3.5255365 -0.4751189 -1.4967572
H -4.1855091 0.5157121 -0.6257922
O 15.2030043 0.2980001 -5.2660015
H 14.8930042 0.5390002 -6.1010017
H 14.3110040 0.1440000 -4.8250014
O 12.3990035 -0.6230002 14.9750042
H 11.4190032 -0.3930001 14.9410042
H 12.4560035 -1.4670004 14.4680040
O -0.1460000 -13.7020038 -0.3430001
H 0.3940001 -13.1370037 -0.9680003
H 0.1420000 -13.2930037 0.4610001
O -1.2270003 6.6530019 -15.5920044
H -0.7210002 6.2200017 -14.9090042
H -0.9150003 7.5990021 -15.4790043
O -0.6280208 8.0352008 2.6964553
H 0.0510302 8.7206910 2.8795716
H -0.0923927 7.2211464 2.6645135
O 14.9960042 -8.3460023 -2.4940007
H 14.3790040 -9.1540026 -2.5750007
H 14.8970042 -8.1580023 -1.5010004
O 16.4060046 3.9830011 -1.4080004
H 15.6720044 3.7760011 -1.9390005
H 16.8300047 3.0720009 -1.4430004
O -5.4520015 0.8830002 -15.7750044
H -6.3210018 0.7800002 -16.1870045
H -5.0180014 0.5610002 -16.6070046
O 15.2660043 -0.4270001 -1.3780004
H 14.6800041 -1.1510003 -1.6490005
H 15.2620043 -0.4920001 -0.3600001
O -15.6860044 -8.2440023 1.4930004
H -15.3520043 -7.5590021 0.9070003
H -16.6100046 -7.9390022 1.7500005
O -13.2690037 9.3680026 0.8700002
H -14.2360040 9.4020026 0.9040003
H -13.1410037 8.4720024 0.6320002
O 0.1221763 -12.3419927 1.9975021
H -0.6733301 -12.8435367 2.2706819
H 0.6334723 -12.3722484 2.8345073
O 2.7280008 6.8740019 -15.5300043
H 3.7220010 6.9520019 -15.5790044
H 2.4020007 7.6210021 -14.9180042
O 4.5404052 1.7328193 0.8138772
H 5.1358457 0.9579854 0.8434701
H 3.7994605 1.2672610 0.3283473
O 18.1660051 5.8390016 -2.2490006
H 18.1290051 6.4940018 -1.4960004
H 17.6840049 5.0560014 -1.8200005
O -3.7130010 -15.7530044 -10.3330029
H -3.1880009 -16.1640045 -11.0710031
H -3.1930009 -16.0270045 -9.5500027
O -3.8460011 -16.0270045 4.6380013
H -4.4780013 -16.3200046 5.3410015
H -4.5150013 -15.5820044 3.9800011
O -2.1499717 0.5299939 -11.3816631
H -1.3194683 0.7844266 -10.9258603
H -2.3989517 1.3711426 -11.8181528
O -2.3471561 2.2692639 7.1612871
H -2.8527709 3.0172195 6.7839978
H -1.7947514 1.9870401 6.4002256
O -0.2950001 18.6790052 4.3190012
H -0.6480002 18.4000051 5.1700014
H -1.1730003 18.7250052 3.7710011
O 15.3150043 3.2070009 5.6350016
H 15.7300044 3.2660009 4.7690013
H 14.6130041 2.6240007 5.3120015
O -12.3620035 0.5440002 -7.8660022
H -13.3290037 0.8050002 -7.8110022
H -12.0380034 1.2490003 -7.2880020
O -15.5090043 -0.7790002 11.4150032
H -15.3490043 -1.4120004 10.7110030
H -15.0710042 -1.1920003 12.2390034
O 7.2335753 -1.3026174 -6.8288920
H 8.0745875 -1.7185116 -7.0929242
H 7.5179486 -0.7272367 -6.0871621
O 0.6296942 2.3869665 9.5990972
H -0.1879372 2.9194540 9.6313082
H 1.0769883 2.7723486 8.8228489
O -2.9587814 1.2860540 -14.6335873
H -3.8705257 1.2486106 -14.9903734
H -3.0572942 1.9182543 -13.8960859
O -6.6629061 4.9884147 4.2726223
H -5.7841215 5.3769973 4.0827453
H -6.8747568 5.4488108 5.1097657
O -4.3990012 16.5470046 5.4800015
H -4.5430013 16.0690045 4.6210013
H -5.3920015 16.6770047 5.6990016
O 9.8054990 1.8981084 4.2017751
H 9.4074961 2.5053744 4.8600613
H 9.3543662 2.1775289 3.3800985
O -13.6570038 5.6980016 -3.5030010
H -12.9960036 6.3340018 -3.7740011
H -13.9460039 5.2900015 -4.3330012
O 1.4660004 -12.3200034 -1.9990006
H 1.0270003 -11.8670033 -2.7730008
H 2.4040007 -12.0420034 -2.1590006
O 3.3573753 7.6119939 -0.3034876
H 2.7668727 7.9786218 -0.9982256
H 3.2851869 8.3224384 0.3720515
O -1.0910003 7.8050022 15.6270044
H -0.4980001 7.2150020 16.1290045
H -0.5700002 8.0020022 14.8010041
O -3.3280009 -11.7420033 -13.2320037
H -3.1460009 -11.4460032 -12.3520035
H -3.4140010 -10.8770030 -13.7060038
O -5.9520017 -13.6930038 6.5220018
H -6.3660018 -12.7940036 6.3720018
H -6.7990019 -14.2520040 6.6080018
O -3.2200049 2.9155368 -12.3066191
H -2.6795081 3.7312365 -12.2049620
H -4.0240128 3.1882800 -11.8189694
O -3.8655326 4.4940445 6.5452508
H -4.6496104 3.9056574 6.4307966
H -4.2404674 5.1474445 7.1713570
O 14.1310040 5.9080017 -11.9960034
H 14.2920040 5.9910017 -11.0520031
H 13.4300038 5.2050015 -12.0440034
O 14.1570040 7.5580021 3.9630011
H 14.5940041 6.9160019 4.5260013
H 14.9370042 7.9000022 3.5040010
O -12.2070034 -10.7100030 -6.8700019
H -11.5750032 -11.4460032 -6.7060019
H -11.9490033 -10.0620028 -6.1740017
O -12.7310036 -11.2510031 7.6670021
H -13.3770037 -11.3480032 8.3710023
H -12.3880035 -10.3550029 7.9180022
O -8.1370023 10.1770028 -2.6820008
H -7.4000021 10.6770030 -3.0430009
H -8.6900024 11.0070031 -2.5310007
O 5.6020016 -11.0070031 -8.4050024
H 4.7170013 -11.4730032 -8.2520023
H 5.5260015 -10.6520030 -9.2830026
O 6.1838407 -5.9589750 9.7105412
H 5.4408881 -5.4485360 9.3342941
H 5.8951183 -6.8605967 9.5115048
O 7.2970608 10.6004242 -6.3236633
H 7.0231037 10.1689168 -5.4879912
H 8.1807790 10.9186147 -6.0458617
O 5.7160016 13.2040037 12.0880034
H 4.9180014 13.4300038 12.6230035
H 5.2740015 12.9030036 11.2440031
O -3.6806069 -1.7416903 -5.4758291
H -4.4265985 -1.1403857 -5.6708772
H -3.3148867 -1.8999473 -6.3659369
O -4.5940013 1.8110005 14.8890042
H -4.2610012 1.2970004 15.6630044
H -5.3440015 2.3450007 15.1810042
O 15.6680044 0.4620001 -8.5420024
H 15.6040044 -0.4250001 -8.9570025
H 15.1020042 1.0870003 -9.0310025
O 11.6590033 2.6950008 11.8360033
H 10.7470030 2.3800007 12.1020034
H 11.7810033 3.2680009 12.5980035
O -10.3930029 -13.1260037 -6.5510018
H -9.7610027 -13.4480038 -5.8340016
H -9.9820028 -13.3590037 -7.4090021
O -10.9890031 -11.8530033 10.6610030
H -11.7020033 -12.4180035 10.2330029
H -11.5280032 -11.1860031 11.2030031
O -10.0010028 8.0530023 -8.0560023
H -9.8620028 7.6750021 -7.2150020
H -9.1740026 8.4140024 -8.1720023
O -12.9030036 5.0150014 7.0770020
H -12.8850036 5.1970015 6.1150017
H -13.6990038 5.3540015 7.4210021
O 11.5190032 -12.6940036 -8.2620023
H 10.8850030 -13.1220037 -7.7420022
H 10.9010031 -11.9900034 -8.5940024
O 6.6470019 -9.5540027 11.6620033
H 6.6750019 -10.2250029 12.4160035
H 7.6260021 -9.5820027 11.4440032
O 8.7113609 5.4994348 -8.8613233
H 9.2394244 6.3194584 -8.8666453
H 8.3742525 5.5188484 -7.9494197
O 8.2084972 6.2232318 7.8003188
H 8.1823449 6.1423447 6.8246752
H 9.1204057 6.5577106 7.9347517
O -8.8730025 -15.2040043 4.0870011
H -8.8990025 -14.3900040 3.5520010
H -8.6300024 -15.8630044 3.4230010
O -7.1794227 6.4267050 6.6361802
H -7.0895774 7.3276815 7.0196072
H -6.5442154 5.9685066 7.2215601
O 11.2520031 4.1300012 -15.6760044
H 10.5260029 4.6500013 -16.0550045
H 11.0990031 3.2770009 -16.1750045
O 9.9522503 4.2915390 0.2645828
H 9.1474271 4.5549547 -0.2255915
H 9.5471427 3.6892477 0.9216839
O -8.6640024 -9.5580027 -14.7320041
H -7.7770022 -9.9310028 -14.5880041
H -8.5040024 -8.6110024 -14.8890042
O -8.7700025 -12.6810035 3.0200008
H -7.8520022 -12.4880035 2.7990008
H -8.9810025 -11.7750033 3.1840009
O -5.8050016 6.9870020 -17.7680050
H -5.1110014 6.3140018 -17.8590050
H -5.2790015 7.7730022 -17.5660049
O -4.5573385 3.8192837 -0.2632691
H -4.1791211 4.7230180 -0.2908441
H -4.4434049 3.6459688 0.6964949
O 8.6020024 -16.7130047 -1.8570005
H 9.2420026 -16.0780045 -2.3150006
H 8.0480023 -16.0750045 -1.4410004
O 7.3950021 4.6560013 -14.5760041
H 8.0500023 5.0610014 -15.2450043
H 6.5860018 5.0650014 -14.9680042
O 11.6041129 7.1434609 -1.6817845
H 12.0852458 7.9432959 -1.3654688
H 10.7260229 7.4049850 -1.3394339
O -10.3120029 -11.9100033 6.3330018
H -11.1180031 -11.9670033 6.8060019
H -10.3590029 -10.9730031 6.0470017
O -8.7850025 5.0080014 -13.4550038
H -8.7190024 4.3340012 -14.1980040
H -8.9020025 5.8580016 -13.8040039
O -9.9060028 9.5040027 5.7030016
H -10.8300030 9.7960027 5.8150016
H -10.1180028 8.5080024 5.9710017
O 7.9020022 -12.7240036 8.5810024
H 7.8950022 -13.6060038 8.1620023
H 7.2710020 -12.2310034 8.0330022
O 9.9870028 5.2490015 -11.6770033
H 9.6680027 4.7340013 -10.9250031
H 9.3150026 5.9700017 -11.7230033
O 7.9535577 5.7926731 5.0660599
H 8.5006581 6.1938520 4.3535856
H 7.0753955 5.8479492 4.6702321
O 0.1590000 -13.2930037 -14.1310040
H 0.3560001 -12.4260035 -13.7110038
H -0.3970001 -13.6290038 -13.4270038
O -1.4910004 -14.8980042 5.5800016
H -2.0240006 -14.1940040 5.9490017
H -2.1530006 -15.6180044 5.3190015
O 2.1974540 1.0318234 -11.1605867
H 1.3083199 1.1673675 -10.7724624
H 2.1232284 0.0869944 -11.4182617
O -1.4805800 5.3837504 5.5277655
H -1.6889742 6.3390604 5.4455673
H -2.3039091 5.0769266 5.9684109
O 15.7830044 5.4940015 0.9350003
H 16.2160045 5.1390014 0.1040000
H 15.3810043 6.2900018 0.5780002
O -14.9660042 8.6900024 -1.5750004
H -15.8570044 8.8240025 -2.0170006
H -14.5230041 9.5650027 -1.7910005
O 2.2907432 -8.9019201 -4.1344170
H 1.9644203 -7.9790905 -4.1708413
H 2.1898383 -9.1728533 -5.0674285
O 0.0350000 -11.0440031 11.0450031
H -0.6740002 -11.1730031 10.4110029
H 0.0600000 -11.8970033 11.5290032
O 1.8039532 8.9362579 -2.1840515
H 2.1088231 9.3618959 -3.0143783
H 0.9128357 8.6212054 -2.4484717
O 0.0150000 7.6320021 11.1670031
H -0.9190003 7.4600021 11.2370031
H 0.2120001 7.8650022 12.0950034
O -5.3110015 -15.0220042 -1.6750005
H -5.6190016 -14.0870039 -1.7840005
H -4.3420012 -14.9340042 -1.9200005
O -3.9233300 2.9174388 -2.7917327
H -4.1654933 3.3430874 -1.9411102
H -3.8616757 1.9923847 -2.4817184
O -5.7810016 6.2460017 16.3830046
H -5.9470017 6.4520018 17.3130048
H -6.6050018 6.4950018 15.9140045
O 13.2810037 -10.4440029 -1.7990005
H 14.0060039 -11.0530031 -1.5890004
H 12.5760035 -11.1300031 -1.7170005
O 14.2670040 7.0230020 -2.5910007
H 14.7850041 7.1500020 -1.7530005
H 13.3500037 6.8040019 -2.2880006
O -14.5530041 -8.8390025 -6.8440019
H -13.8960039 -9.4220026 -7.3410021
H -14.5370041 -9.2200026 -5.9890017
O -11.0440031 9.3140026 11.1830031
H -10.8320030 9.0340025 10.2630029
H -10.3570029 9.9090028 11.4420032
O 3.4090010 -11.8860033 -7.4740021
H 3.0930009 -11.1060031 -7.0240020
H 3.4600010 -12.4940035 -6.7430019
O 2.0565138 -9.9466948 9.5836583
H 1.3343635 -10.2479654 10.1664524
H 1.7114705 -9.0887127 9.2720722
O 5.1594602 7.2797144 -6.7613082
H 4.7767342 7.4919621 -5.8870452
H 4.3486310 7.1817541 -7.3108929
O 2.8030008 9.1880026 11.3370032
H 3.6540010 8.7800025 11.5150032
H 2.4500007 9.2910026 12.2620034
O -14.2470040 -10.1500028 -4.3180012
H -14.0600039 -11.1130031 -4.0830011
H -13.3650037 -9.7120027 -4.1310012
O -15.6110044 9.9300028 -5.2900015
H -15.3270043 10.2290029 -4.3570012
H -14.7550041 9.4570026 -5.4920015
O -14.6430041 7.0770020 10.7770030
H -15.1190042 6.3810018 11.2910032
H -14.5760041 6.6880019 9.8620028
O 3.6020998 -10.9889883 -3.0124883
H 4.0820097 -10.4430811 -2.3628846
H 3.0910707 -10.2680488 -3.4526569
O 0.6770002 -8.8780025 12.5090035
H 1.5930004 -8.7060024 12.7050036
H 0.7570002 -9.7360027 12.1340034
O 3.3647191 12.7940071 -1.8904232
H 3.9398929 12.0675500 -2.2188185
H 3.7885927 12.9734557 -1.0275553
O 0.0510000 8.9590025 13.5990038
H 0.9530003 9.1110025 13.7460038
H -0.4840001 9.7170027 14.0220039
O -11.8190033 -2.2580006 -11.6470033
H -11.3130032 -1.8410005 -12.3960035
H -12.0570034 -3.0470009 -12.1200034
O -14.3210040 -3.2050009 10.3560029
H -13.5610038 -3.1730009 10.9660031
H -13.9120039 -3.9060011 9.7360027
O 7.6070021 -6.9860020 -12.1660034
H 7.2490020 -7.8740022 -12.1920034
H 7.9310022 -6.9890020 -11.2180031
O 5.8589614 -3.2562132 7.5706123
H 5.4707656 -2.7432149 6.8275788
H 5.0867183 -3.7943805 7.8479774
O 5.1670014 16.0490045 7.2770020
H 5.6440016 16.5010046 7.9590022
H 4.3080012 16.6110046 7.3420021
O -7.6550021 -15.8090044 6.5100018
H -6.9340019 -16.4110046 6.1460017
H -8.1250023 -15.5900044 5.7080016
O -5.7180016 3.4910010 -13.9580039
H -5.5340015 2.7290008 -13.4190038
H -6.4600018 3.0490009 -14.5340041
O -5.9755342 2.7906536 6.5911162
H -6.4875482 3.0089451 7.4013288
H -6.1925400 1.8495525 6.4640900
O 11.4880032 -12.1060034 3.7520011
H 11.8090033 -12.4800035 4.5900013
H 11.7610033 -12.8000036 3.1540009
O 12.1730034 3.7020010 -13.3150037
H 11.3020032 3.8760011 -12.9170036
H 11.9340033 3.9340011 -14.1990040
O 11.5469401 6.0180336 1.6927264
H 12.2277885 5.3443946 1.8893516
H 10.9753236 5.4992245 1.0914105
O -3.3940009 -9.1400026 -14.1780040
H -2.9130008 -8.5620024 -13.6380038
H -4.0980011 -8.5600024 -14.6410041
O -3.4853264 -4.9064555 -0.5836297
H -2.8432288 -5.1765329 -1.2737862
H -4.2112199 -5.5393191 -0.7746289
O -5.2770015 -6.7170019 17.0740048
H -6.0510017 -7.3190020 16.8490047
H -4.9820014 -7.1100020 17.9340050
O -2.5090007 9.6440027 -13.7350038
H -2.5800007 9.5430027 -14.6670041
H -2.6270007 10.6520030 -13.5730038
O -3.7730011 12.0210034 0.2040001
H -2.9660008 11.4660032 0.1700000
H -3.9030011 12.1610034 -0.7580002
O 17.2670048 -6.2800018 1.5500004
H 16.5510046 -5.6420016 1.5700004
H 16.8230047 -7.0980020 1.6770005
O -17.4310049 -2.4460007 4.9520014
H -17.1650048 -3.3950010 4.6550013
H -16.7400047 -2.4070007 5.5620016
O 1.7205014 -6.9692543 -10.0812692
H 1.4914144 -7.8564993 -9.7251850
H 1.2547023 -6.4032132 -9.4357348
O -0.8801154 -5.9295829 5.3851609
H -0.2965051 -6.2820846 4.6822264
H -1.5270855 -6.6697955 5.4160861
O 2.8050008 11.9890034 -11.0020031
H 2.6600007 11.3520032 -10.2760029
H 2.5890007 12.8020036 -10.6130030
O 2.3290007 15.2780043 2.7610008
H 1.8680005 14.8110041 3.4970010
H 1.7620005 16.0670045 2.7160008
O -12.5950035 -4.5360013 -12.7470036
H -13.1010037 -4.8940014 -11.9280033
H -13.1470037 -4.7490013 -13.4420038
O -13.6480038 -1.3910004 4.8870014
H -13.9720039 -2.0160006 5.4800015
H -12.8420036 -1.0100003 5.2930015
O 7.5570021 -5.0600014 -15.6130044
H 6.9850020 -4.4060012 -15.2240043
H 6.8980019 -5.6980016 -15.9830045
O 1.6723899 -5.1798802 6.6302915
H 1.4047937 -4.3127401 6.2608292
H 0.8360474 -5.6589503 6.5046110
O 5.9320017 16.0170045 4.7230013
H 5.5560016 15.9300045 5.6560016
H 5.9270017 16.9830048 4.7090013
O -11.2988968 2.9398862 -7.0043936
H -10.9169335 3.4049584 -7.7813730
H -10.5123805 2.8959447 -6.4244481
O -14.6530041 -0.2880001 8.3190023
H -14.4090040 0.3590001 7.5950021
H -15.1620042 0.2840001 8.8950025
O 4.0984944 -2.5946391 -10.6221758
H 4.7536917 -1.8665132 -10.7120942
H 4.6246278 -3.3596480 -10.9205256
O 4.6413416 0.2986492 8.8507753
H 4.4030366 1.2076289 9.1338854
H 4.2255356 -0.2438390 9.5476104
O 4.4250012 -8.5980024 -10.3310029
H 4.2610012 -7.8110022 -10.8910030
H 5.2650015 -9.1080025 -10.5760030
O 0.9896620 -1.9883182 8.1910325
H 0.8499497 -2.4854292 7.3551070
H 1.5854964 -1.2965907 7.8228733
O 0.4569316 11.9647558 -4.3805691
H 0.4557189 12.3897219 -5.2601560
H -0.4647355 11.6531678 -4.2971811
O -0.6720002 15.5460044 10.7860030
H 0.1620000 15.0540042 10.5560030
H -0.7680002 15.3170043 11.7760033
O -3.4040010 -2.2010006 -16.7250047
H -3.6370010 -2.2340006 -15.8120044
H -2.5390007 -2.6470007 -16.7910047
O -4.2990974 1.2050069 2.9154357
H -4.2557568 2.1692302 2.7281417
H -4.7032670 1.2032409 3.7926359
O -0.2500001 16.6230047 1.3770004
H -1.1300003 17.0220048 1.5520004
H -0.2680001 16.7100047 0.4480001
O 12.4480035 -5.1930015 0.0900000
H 12.3970035 -6.1390017 0.2170001
H 11.8490033 -4.9150014 0.8280002
O -4.9709139 -4.6765565 -4.3865967
H -5.8665426 -4.9258836 -4.6839886
H -5.1764638 -3.8646389 -3.8770421
O -8.8980025 -1.6510005 15.3000043
H -8.6730024 -1.2080003 14.4670040
H -9.5580027 -2.3640007 15.1210042
O -2.1740006 16.9150047 -6.5670018
H -2.5900007 17.4640049 -5.8890016
H -2.3570007 17.4950049 -7.3520021
O 17.4300049 -0.7820002 -4.3570012
H 16.7540047 -0.2330001 -4.8310014
H 18.2570051 -0.5430002 -4.8640014
O 12.7380036 -3.1410009 13.6830038
H 12.1430034 -3.7730011 13.2280037
H 13.4540038 -3.0880009 13.0100036
O -13.0890037 -0.4790001 -4.2080012
H -12.4790035 0.1370000 -4.6740013
H -13.5270038 -0.8840002 -4.9910014
O 2.6011007 -2.6786666 -5.3331582
H 3.4846923 -2.8878922 -5.7081379
H 2.6128505 -3.2006770 -4.4965682
O -1.5810004 -0.6090002 15.1950043
H -0.5700002 -0.7360002 15.0600042
H -1.6670005 -0.2550001 14.3020040
O 3.3130009 14.4290040 -6.0850017
H 3.3180009 15.0780042 -6.7960019
H 2.6360007 13.7900039 -6.4140018
O -17.2580048 0.6430002 4.6940013
H -17.3130048 -0.2610001 4.4270012
H -16.9860048 0.6040002 5.6270016
O 2.9000358 -1.6109332 -8.2295978
H 3.5955846 -2.0087176 -7.6691699
H 3.1889848 -1.9328521 -9.1039653
O -1.7653003 -1.3305765 5.2223064
H -1.4409711 -0.4294955 5.0021203
H -2.5140175 -1.0816140 5.7983119
O -0.0980000 15.9520045 8.1770023
H 0.7750002 15.5650044 8.4000024
H -0.5750002 15.7770044 9.0310025
O 17.6160049 -4.0290011 7.7500022
H 17.5400049 -3.2940009 8.4490024
H 17.4600049 -4.8100013 8.2780023
O -13.8010039 -1.0060003 -1.5750004
H -14.6110041 -0.4600001 -1.5780004
H -13.3990037 -0.7980002 -2.4230007
O 0.3169089 -4.3931022 -1.3188820
H -0.4912231 -4.8049006 -1.6836982
H -0.0293371 -3.5932251 -0.8701982
O 0.8350002 -1.4380004 14.5470041
H 1.2820004 -0.8150002 13.9080039
H 1.4770004 -1.3290004 15.2500043
O 0.5640002 16.0110045 -4.7950013
H 0.5120001 15.1770042 -5.2630015
H 1.1920003 15.9160045 -4.0210011
O -5.5250015 -4.4190012 -15.7350044
H -6.3240018 -3.9870011 -15.3920043
H -4.8450014 -3.9740011 -15.1890043
O -11.2557527 -0.3373472 5.6961848
H -10.9984130 0.4597264 6.2119876
H -10.9337994 -0.0319211 4.8208144
O -2.5020007 14.9500042 -9.7500027
H -2.4200007 15.8820044 -10.1460028
H -3.3070009 15.1570042 -9.1430026
O -4.7840013 15.3660043 3.1330009
H -5.4260015 14.7330041 2.7940008
H -4.1390012 15.3130043 2.3490007
O 11.2777727 -4.1997433 2.3092421
H 11.4190145 -3.2482066 2.4821019
H 10.6638592 -4.4392137 3.0386235
O 13.5450038 13.6440038 3.4620010
H 14.2580040 12.9990036 3.8480011
H 13.1830037 13.9230039 4.3860012
O 0.2407924 -5.5508219 -8.2756680
H 0.1552612 -4.6348545 -7.9535746
H -0.5329139 -5.6528196 -8.8637230
O -5.0478394 -4.0265419 9.7052351
H -4.1948886 -4.2956251 10.1175170
H -4.8783202 -4.2493498 8.7689438
O -0.1550000 13.3830037 -9.5350027
H -0.9360003 14.0040039 -9.5800027
H 0.6530002 13.8660039 -9.8440028
O -0.7620002 12.2300034 7.6840022
H -1.1640003 12.8800036 7.0030020
H 0.0660000 12.7570036 7.9630022
O 15.1710042 -4.3760012 6.2870018
H 15.9690045 -3.9480011 6.5310018
H 14.5120041 -3.9430011 6.8450019
O -8.5998220 -6.7864274 -0.6702802
H -8.1295688 -7.6348167 -0.7092326
H -9.3755859 -6.9433529 -1.2480911
O -9.2370026 12.7670036 -2.6620007
H -10.0120028 12.6300035 -3.2230009
H -9.6350027 13.1240037 -1.9180005
O 10.3707798 -6.2452220 -2.2967018
H 10.0546354 -5.6617556 -1.5645657
H 10.8823033 -5.6200128 -2.8366732
O 6.9150019 -2.8570008 16.1870045
H 6.7520019 -3.4000010 16.9180047
H 7.8480022 -2.7380008 16.2890046
O 9.3280026 13.4410038 -3.1740009
H 9.6050027 14.1780040 -3.7570011
H 8.6210024 13.8190039 -2.5750007
O -7.4689959 -5.2271202 -5.5870849
H -7.3335419 -4.3583605 -6.0368620
H -7.2919996 -5.7827846 -6.3778742
O -7.5220772 -4.2164256 10.8581185
H -6.6966772 -4.1445314 10.3317119
H -8.1405762 -3.6449681 10.3822606
O -5.9540017 16.3770046 -5.7620016
H -6.0190017 17.1600048 -5.2000015
H -6.5090018 16.6240047 -6.5460018
O 10.1030028 -5.8530016 -7.5080021
H 10.9850031 -6.3800018 -7.5780021
H 10.1960029 -5.3020015 -8.3040023
O 12.4440035 -3.8350011 10.2750029
H 11.9740034 -3.0480009 9.8280028
H 11.7670033 -4.4940013 10.2160029
O 9.7250027 15.3230043 -5.1600014
H 10.3230029 14.8590042 -5.7220016
H 9.2020026 15.7920044 -5.8510016
O -17.6530049 -0.9360003 -1.0040003
H -18.6760052 -0.8670002 -1.0980003
H -17.5280049 -0.5510002 -0.1360000
O 2.3890007 -18.2730051 -0.9480003
H 2.1690006 -17.3260048 -1.3030004
H 2.4110007 -18.1830051 0.0730000
O 2.9410008 -0.5280001 -15.8100044
H 3.7040010 -0.8090002 -16.2980046
H 3.3140009 -0.4650001 -14.8740042
O 3.9326468 -2.9268545 2.9208386
H 4.1926089 -3.0898055 1.9912295
H 3.2392578 -2.2487197 2.7581474
O -0.3900001 -2.0270006 18.6680052
H -0.0300000 -1.2580004 18.1970051
H -0.0220000 -2.7890008 18.2050051
O 2.1300006 18.8340053 0.1270000
H 2.4510007 19.4190054 -0.5660002
H 2.1160006 17.9840050 -0.3110001
O 18.1510051 -1.2260003 3.3700009
H 18.4080052 -1.8380005 2.6110007
H 18.0860051 -1.9480005 4.0470011
O 1.3660004 -4.8160013 -17.7050050
H 0.6050002 -5.2830015 -18.1710051
H 1.7560005 -5.5650016 -17.1920048
O -1.9873322 -2.6164624 -3.5833333
H -2.6162907 -2.3221758 -4.2827348
H -2.5993836 -2.6722327 -2.8212336
O -2.6140007 -5.4430015 16.6760047
H -3.4940010 -5.7160016 17.0050048
H -2.8130008 -4.4600012 16.3510046
O -1.4400004 15.6000044 -1.4120004
H -2.3410007 15.3370043 -1.7520005
H -0.9260003 14.7790041 -1.5190004
O 16.0680045 -4.1350012 -1.6470005
H 16.7230047 -4.7930013 -1.9660006
H 16.5920046 -3.2920009 -1.7140005
O -6.0471045 -2.5113122 -2.9343956
H -6.9442346 -2.8462172 -2.7368669
H -6.2392575 -1.5714189 -3.1387106
O -7.8800022 -1.1860003 12.7690036
H -8.0720023 -1.6440005 11.9560033
H -7.0140020 -0.6690002 12.6070035
O -4.7340013 17.5420049 -2.4170007
H -5.4110015 18.1370051 -2.7590008
H -4.0650011 18.2100051 -2.2900006
O 12.1770034 -2.4110007 -3.3700009
H 12.2830034 -3.3220009 -3.5960010
H 12.3000034 -2.4570007 -2.3600007
O -17.3010048 0.4350001 -4.8700014
H -17.7980050 -0.3010001 -4.4690013
H -17.2360048 0.0490000 -5.7610016
O -0.5623040 -4.5247472 -4.8448581
H -0.2055841 -4.0725104 -5.6330728
H -0.9874003 -3.7665608 -4.3833603
O -4.9220014 -2.7900008 15.6770044
H -3.9140011 -2.8990008 15.6080044
H -5.1920015 -2.9000008 14.7340041
O 0.6960002 13.5120038 -6.8050019
H -0.1360000 13.9920039 -6.7370019
H 0.8070002 13.6400038 -7.7720022
O 14.8240041 -3.5160010 11.1820031
H 15.2270043 -2.8360008 10.6400030
H 13.8940039 -3.5850010 10.8680030
O -17.5800049 -4.0380011 0.4240001
H -17.5020049 -3.1310009 0.3910001
H -18.4780052 -4.2710012 0.1560000
O 2.5240007 -5.3990015 -14.3900040
H 2.5640007 -5.8310016 -13.5260038
H 2.4930007 -6.1180017 -15.0570042
O 6.1194611 -8.2215368 0.1255649
H 5.2843573 -8.2985839 -0.3920980
H 6.2679139 -7.2497031 0.0670745
O 7.1090020 16.1620045 0.6600002
H 7.9640022 15.7490044 1.0420003
H 6.4380018 15.7850044 1.2470003
O -16.8870047 -0.7860002 -7.1630020
H -17.1720048 -1.7110005 -7.0890020
H -17.2710048 -0.5910002 -8.0390022
O -2.1717486 -2.4770542 -7.6503099
H -2.2105620 -2.7948035 -8.5806529
H -1.2311763 -2.6725104 -7.4430485
O -5.3179189 -1.3244325 10.0944139
H -6.2568696 -1.1791451 9.8708020
H -5.2457612 -2.2985908 10.0441592
O 15.3670043 -1.8230005 -9.8670028
H 14.6530041 -2.4120007 -9.6100027
H 15.8600044 -2.3360007 -10.4330029
O 13.8450039 -2.2550006 7.3320021
H 12.9310036 -2.2880006 7.6180021
H 14.0480039 -1.4620004 6.9320019
O -11.3280032 -9.1880026 -9.5670027
H -10.7050030 -8.9270025 -10.2730029
H -10.9710031 -10.0310028 -9.2530026
O -11.9760034 -8.6760024 8.4280024
H -12.2530034 -8.6880024 9.3390026
H -11.1400031 -8.1420023 8.4750024
O -12.5660035 9.3310026 -10.7020030
H -11.9880034 10.1110028 -10.7160030
H -11.9990034 8.6250024 -11.0080031
O -12.3210034 10.1150028 6.5980018
H -11.8380033 10.6630030 7.2940020
H -13.1450037 9.9330028 7.0510020
O 4.7048250 -9.2804885 6.9239020
H 4.4261757 -8.3835207 6.6203709
H 5.1723242 -9.0632065 7.7606803
O 6.0619407 8.8519754 -11.0437262
H 5.9593748 8.9937534 -10.0830758
H 6.3258008 9.7438339 -11.3299698
O 6.7760019 7.8680022 9.4080026
H 7.2050020 8.6830024 9.1750026
H 7.3580021 7.3200020 8.8640025
O -6.5264389 1.0270959 -12.6530211
H -7.3312422 0.4836466 -12.7113221
H -6.0766748 0.6184633 -11.9014551
O -7.8950022 7.3520021 10.5790030
H -7.1600020 7.8060022 10.1000028
H -8.3030023 6.8790019 9.8110027
O 10.8420030 -14.6440041 5.7740016
H 10.0450028 -14.6990041 6.2830018
H 10.6220030 -15.0420042 4.9170014
O 12.8790036 2.1070006 5.5830016
H 13.0910037 2.0090006 6.5370018
H 11.8810033 2.1100006 5.4890015
O -0.5650002 -3.3180009 -16.2490045
H 0.3230001 -3.5310010 -16.5020046
H -0.5250001 -2.3740007 -16.0220045
O -1.9471083 -5.5096518 1.6658918
H -2.5965444 -5.2263934 0.9872571
H -2.2268770 -4.9879352 2.4388259
O -3.3790009 0.3310001 17.0170048
H -3.3590009 -0.3490001 17.6640049
H -2.7730008 -0.1810001 16.4340046
O -1.0110003 17.9290050 -3.3620009
H -0.5150001 17.3120048 -3.9410011
H -1.4410004 17.3130048 -2.7340008
O -6.3273388 -7.6097152 -3.9358510
H -6.6787370 -8.5146719 -4.1214463
H -7.0132588 -7.0785273 -4.3619844
O -5.5560016 -4.1340012 12.9760036
H -6.1940017 -4.4080012 12.3060034
H -4.8510014 -4.7830013 12.7710036
O -2.2593879 10.8904489 -4.1287157
H -2.1917081 10.8765732 -5.1041361
H -2.5490356 9.9799843 -3.9171423
O 12.1690034 -4.9550014 -4.6280013
H 12.8990036 -5.2750015 -4.0230011
H 12.2470034 -5.5590016 -5.4110015
O 10.5240029 -4.7060013 13.0740037
H 10.1480028 -3.8550011 12.7050036
H 9.7100027 -5.2650015 12.9190036
O 12.6400035 11.5500032 -3.3930009
H 13.6250038 11.4220032 -3.2070009
H 12.4510035 10.6350030 -3.6160010
O 10.8630030 7.1210020 14.6950041
H 10.4390029 7.0680020 13.7410038
H 10.4250029 6.3240018 15.0410042
O -1.5830004 -5.7960016 -15.1960043
H -2.2730006 -6.1040017 -15.8330044
H -1.3250004 -4.9150014 -15.6030044
O -6.8028838 -2.8648823 4.3991352
H -6.9205230 -2.7551564 5.3630758
H -7.1834269 -2.0167624 4.0821995
O -6.7260019 -4.3980012 17.1410048
H -6.2300017 -5.2080015 16.8280047
H -6.1550017 -3.7310010 16.8450047
O 1.9780006 16.4530046 -1.3700004
H 1.8170005 15.6310044 -0.9220003
H 2.4860007 16.1430045 -2.1250006
O 17.8070050 -2.9750008 1.2190003
H 17.4540049 -2.9810008 0.3430001
H 18.7650053 -3.1210009 1.0210003
O -0.7520002 -17.1290048 -5.9010017
H -1.4950004 -17.3320049 -6.5000018
H -0.0140000 -17.2430048 -6.5950018
O 1.0343786 0.2790935 -7.3765853
H 1.6294394 -0.3603238 -7.8339987
H 1.5318498 0.3845750 -6.5474143
O -1.5332033 0.2944563 12.5539644
H -2.0827958 0.1348282 11.7495421
H -1.8831685 1.1820321 12.7974264
O -10.2151282 0.9304748 3.4875435
H -10.8932541 0.8947268 2.7803305
H -10.0250284 1.8836715 3.5369502
O 6.2440017 -16.7970047 3.7920011
H 5.3940015 -17.1920048 3.6970010
H 6.1110017 -16.2740046 4.6550013
O 4.5340013 2.9500008 -16.7930047
H 3.6180010 3.1260009 -16.8280047
H 4.7160013 2.3500007 -17.4890049
O 5.8454314 4.1344677 1.0262418
H 6.4450346 4.2860381 0.2679736
H 5.4622644 3.2520184 0.8196286
O 1.6280005 1.9530005 19.1370054
H 1.3400004 1.3040004 18.5300052
H 0.9000003 2.6290007 18.8830053
O -15.1260042 -4.4050012 -7.2470020
H -15.9240045 -3.7480010 -7.2500020
H -15.1430042 -4.8930014 -6.3530018
O 5.6300016 -8.5420024 -6.2630018
H 5.3050015 -7.8600022 -6.8680019
H 4.9570014 -9.2040026 -6.3070018
O 2.2058425 -4.8545840 12.7231866
H 2.1446342 -5.2865994 11.8465173
H 2.9825144 -4.2827234 12.5618415
O 4.2609924 11.2147309 -6.5107233
H 3.7593035 11.1367621 -7.3445503
H 5.1281972 10.8914252 -6.8103472
O -16.1750045 3.9660011 5.9950017
H -15.8320044 3.1400009 6.2200017
H -17.1540048 4.0380011 6.0730017
O -0.6140002 -13.8930039 -11.4460032
H -0.2170001 -14.2860040 -10.6680030
H -1.0360003 -14.7140041 -11.7060033
O -0.6770002 -18.7140052 6.2110017
H 0.1540000 -18.4190052 6.4800018
H -0.8660002 -18.2750051 5.3740015
O 4.8350014 -0.9180003 -13.6690038
H 5.0680014 -0.9600003 -12.7890036
H 5.3490015 -0.1410000 -14.0230039
O -0.9910508 1.3351395 4.9153239
H -0.0058244 1.2514942 4.9499909
H -1.0771695 2.0274711 4.2304606
O 3.4610010 19.3370054 2.4380007
H 2.9510008 18.9450053 1.6390005
H 4.3590012 18.9500053 2.3870007
O -14.2500040 -1.4810004 -6.4920018
H -14.9420042 -0.9020003 -6.8740019
H -13.9180039 -2.0430006 -7.2300020
O -11.4710032 12.6340035 -4.9380014
H -10.9130031 13.2590037 -5.3840015
H -11.4940032 11.9060033 -5.5980016
O 5.6495264 -2.6047096 -2.2534347
H 6.0690419 -3.1707450 -2.9411216
H 6.4411135 -2.1831575 -1.8668238
O 4.3822097 -3.2794809 11.6512952
H 3.8308233 -2.5976767 11.2145012
H 5.2161184 -3.1668898 11.1566587
O 2.9740008 16.3710046 -8.1520023
H 2.1730006 16.9750048 -8.3040023
H 3.5980010 17.0310048 -8.5090024
O -0.5720002 -16.6810047 1.4560004
H 0.3030001 -17.1390048 1.4520004
H -1.0050003 -17.1690048 0.7060002
O -5.3784957 0.1354577 0.6154050
H -5.5781999 -0.8101336 0.7897793
H -5.1096924 0.4503836 1.5058690
O 13.6800038 1.4760004 2.9460008
H 14.5200041 1.3490004 3.3760009
H 13.1030037 1.6930005 3.7180010
O -14.9700042 1.3950004 -7.9430022
H -15.5410043 1.8840005 -8.5920024
H -15.4350043 1.5840004 -7.1340020
O 1.1780003 -14.3580040 -4.9820014
H 1.9080005 -13.8760039 -4.5220013
H 1.6190005 -15.2060043 -5.0350014
O 4.4760351 1.7338715 -5.7736037
H 4.4192176 2.3256285 -4.9955200
H 3.7840631 1.0834714 -5.5342995
O -2.8250008 2.6630007 13.0670037
H -3.5140010 2.4270007 13.7290038
H -3.3230009 3.3510009 12.6010035
O -6.0430017 -1.3960004 -14.1140040
H -6.0240017 -1.3880004 -13.1380037
H -5.8450016 -0.4420001 -14.3150040
O -10.1370028 0.5840002 10.0780028
H -10.8720030 0.0570000 9.6680027
H -10.5720030 1.4480004 9.9420028
O 12.6370035 0.8320002 -13.5610038
H 12.3670035 1.6860005 -13.1910037
H 12.8850036 0.2780001 -12.7700036
O 8.8885583 -0.4415186 5.4174817
H 8.1588813 -0.2003860 6.0350035
H 9.0962517 0.4232942 5.0081964
O 1.8105602 -1.6041386 -11.7132147
H 1.7094637 -1.9573186 -12.6231133
H 2.6290786 -2.0572859 -11.4151462
O -1.8194901 -1.7112286 8.3896161
H -1.9948933 -2.6197616 8.0473126
H -0.8456539 -1.6802750 8.3328768
O -3.9920011 15.1030042 8.9760025
H -4.8330014 14.6470041 8.8050025
H -3.4640010 14.2790040 9.0930025
O 16.2790046 0.5810002 4.1550012
H 16.8490047 -0.1870001 4.0630011
H 16.7780047 1.2380003 3.6600010
O -12.2330034 5.8710016 -12.3480035
H -11.6360033 5.0890014 -12.3900035
H -12.0540034 6.3000018 -11.5180032
O -14.6460041 10.6040030 4.3230012
H -15.2150043 10.8920030 3.5380010
H -14.9710042 11.1730031 5.0250014
O 3.4240010 -12.8380036 -13.2910037
H 3.8360011 -11.9680033 -13.5290038
H 3.1520009 -12.6540035 -12.3640035
O 1.1700003 -16.1410045 6.3610018
H 0.3060001 -15.7400044 6.0950017
H 0.8410002 -16.5740046 7.2200020
O 3.2738268 2.9667320 -12.7267076
H 2.8242994 2.2336285 -12.2529528
H 4.1904484 2.8065427 -12.4321707
O 1.2423131 5.0043686 5.1275547
H 1.1684613 5.2232816 4.1809548
H 0.3271149 5.2009265 5.4199289
O 18.9190053 1.3450004 2.7960008
H 18.5880052 0.5060001 3.1380009
H 19.4080054 1.1390003 2.0280006
O -11.2510031 -1.8240005 -7.0430020
H -11.5870032 -2.5470007 -7.6080021
H -11.3390032 -0.9440003 -7.5190021
O -11.9940034 -3.2150009 12.6320035
H -11.6630033 -3.6260010 13.5390038
H -12.6100035 -2.5090007 12.9330036
O -9.5260027 14.5750041 -5.4300015
H -9.3330026 15.3360043 -4.8460014
H -9.2890026 15.1210042 -6.2060017
O 10.0230028 -2.4520007 -7.5720021
H 10.2910029 -3.0280008 -8.3040023
H 10.5580030 -1.6290005 -7.7030022
O 7.6630021 -0.7490002 11.8860033
H 7.4320021 -1.3310004 11.1830031
H 6.7700019 -0.6330002 12.3780035
O -8.6940024 -0.9460003 -13.0360036
H -8.5800024 -1.7190005 -13.6520038
H -9.5110027 -0.5070001 -13.4220038
O -9.2921128 5.5879140 8.8235421
H -9.9450192 4.8553486 8.8669495
H -9.4950546 5.9600852 7.9474378
O 9.9750028 -15.7950044 3.2190009
H 9.5520027 -16.6400047 3.0560009
H 9.3040026 -15.2240043 2.8940008
O 10.1600028 1.6750005 -11.6550033
H 9.2650026 2.0010006 -11.9770034
H 10.2650029 0.7650002 -12.1790034
O 9.1093402 7.0540712 2.9089580
H 8.6333894 7.2202656 2.0692329
H 10.0109658 6.8509162 2.5848850
O -12.3840035 -12.3370035 -3.5350010
H -12.0670034 -12.9850036 -2.9040008
H -13.3080037 -12.8110036 -3.4830010
O -9.2579581 5.5032099 -6.1679244
H -9.1634992 4.5445285 -5.9704618
H -8.7478212 5.5731062 -7.0025005
O -13.9110039 3.9780011 12.1700034
H -13.8440039 3.3780009 12.9340036
H -14.8240041 4.2540012 12.1490034
O 8.0550023 -15.4260043 -5.0740014
H 7.2670020 -15.1690042 -4.5250013
H 7.6290021 -15.5270043 -5.9350017
O 8.3759266 7.1555533 -4.4709274
H 8.8638512 6.5152278 -3.9052665
H 8.1029777 6.5631526 -5.1975716
O 7.3280021 5.6620016 13.3570037
H 8.1830023 5.7730016 12.8460036
H 7.4210021 4.7990013 13.8110039
O -15.2290043 -12.5620035 2.1650006
H -14.3700040 -12.8650036 2.5610007
H -15.5400043 -11.8540033 2.7220008
O -12.3793555 0.3518226 1.7138537
H -13.2557027 0.4392179 2.1445995
H -12.3820733 -0.5940752 1.4637066
O 6.1580017 -17.4430049 0.7700002
H 6.0520017 -16.9440047 -0.0270000
H 5.7690016 -18.2550051 0.5710002
O 5.6523144 -0.8076389 0.8763896
H 5.0513407 -1.5598492 0.6983971
H 6.3579102 -0.9815133 0.2264115
O -3.5310010 2.3260007 18.9870053
H -3.5340010 1.7450005 18.1130051
H -4.4610012 2.1330006 19.1840054
O -18.0120050 4.9980014 -0.8700002
H -17.1890048 4.9210014 -1.4510004
H -17.8310050 5.9040017 -0.4810001
O -0.7020002 -15.9480045 -3.4170010
H -0.3280001 -15.2040043 -3.8870011
H -1.0260003 -16.4980046 -4.1420012
O -0.6510002 5.7120016 -17.9450050
H -0.8290002 6.1470017 -17.0860048
H -1.5210004 5.8240016 -18.2750051
O 0.6382900 5.8529880 -1.7565882
H 0.0162287 5.5620310 -1.0537868
H 0.1383632 6.6140919 -2.1259690
O -0.9320003 3.1660009 18.5590052
H -1.1990003 3.7740011 17.8970050
H -1.7000005 2.6190007 18.6220052
O 14.4080040 2.2360006 -2.3870007
H 14.4040040 1.3890004 -1.8580005
H 13.7480038 2.8710008 -2.0000006
O 12.0960034 4.2730012 14.1200040
H 12.8830036 4.8190013 14.2540040
H 11.3160032 4.7170013 14.5650041
O -4.5088952 3.2820197 -8.1765337
H -4.2017936 2.8990402 -7.3238049
H -4.4027661 2.4549176 -8.7085420
O -6.1110017 0.7540002 12.7640036
H -6.7210019 1.5580004 12.7370036
H -5.4660015 0.9900003 13.4390038
O 12.1580034 -0.5230001 -8.3250023
H 12.7650036 0.0570000 -7.7830022
H 11.6440033 0.2290001 -8.6380024
O 9.9930028 0.5320001 9.6150027
H 9.0020025 0.5370002 9.5700027
H 10.1960029 1.1810003 10.3220029
O -3.5270010 -15.4840043 -4.3260012
H -4.4260012 -15.0780042 -4.2400012
H -3.0370008 -14.7480041 -4.6760013
O -1.5712946 2.1721953 -0.1070312
H -2.2796631 1.7152877 -0.5962040
H -1.4922105 1.5663734 0.6574379
O 0.5330001 2.1110006 15.0860042
H 1.1340003 2.0040006 14.3240040
H -0.1240000 2.7900008 14.7510041
O 16.0470045 2.8360008 -4.6070013
H 15.4890043 2.6630007 -3.7780011
H 16.0120045 1.8850005 -5.0290014
O -17.1730048 8.2340023 4.0720011
H -17.0830048 8.2160023 5.0830014
H -16.6610047 7.4640021 3.9020011
O 0.1730000 -10.6150030 -13.2690037
H 0.8270002 -10.0750028 -12.8660036
H -0.5750002 -10.5040029 -12.5230035
O -0.5823199 -11.3475875 5.7824535
H -0.0991488 -11.8405020 5.0963521
H -0.4923584 -11.9593357 6.5365968
O 0.2561422 6.2176179 -13.2901567
H 1.1687934 5.9250709 -13.0842359
H 0.3696543 7.1938425 -13.2917611
O -2.4340519 7.8818032 4.8232802
H -2.4557430 8.7154526 5.3320350
H -1.8261616 8.1010527 4.0875404
O -2.5987349 -10.6821801 -2.3935803
H -3.2540533 -10.6292614 -1.6602437
H -1.9163391 -10.0703255 -2.0456282
O -8.3480023 -9.0120025 13.4690038
H -8.0380022 -9.9170028 13.6630038
H -8.3550023 -8.8790025 12.4720035
O -0.6178460 7.9230705 -3.0228168
H -0.5011391 7.9163216 -3.9991647
H -1.5762697 8.1149308 -2.9606648
O -2.7680008 8.6140024 13.8640039
H -2.3270007 8.3740023 14.6720041
H -2.1430006 9.2530026 13.5890038
O 11.7250033 -9.1760026 -6.4400018
H 11.4530032 -9.0900025 -5.4770015
H 12.0870034 -10.1140028 -6.3890018
O 16.7530047 7.9590022 -3.4810010
H 17.1170048 7.0770020 -3.1870009
H 15.7900044 7.6120021 -3.3390009
O 9.5980027 4.9270014 15.4950043
H 8.6650024 4.7290013 15.3320043
H 9.5500027 5.0250014 16.4620046
O -13.9880039 5.6310016 1.9490005
H -13.7670039 6.0490017 1.0430003
H -14.2560040 4.7650013 1.7790005
O 3.8260011 -13.9840039 3.3100009
H 4.3010012 -14.4810041 2.6340007
H 3.5660010 -14.7580041 3.8680011
O 1.9910006 4.0360011 -15.0200042
H 2.3340007 3.6180010 -14.2200040
H 2.5240007 4.8580014 -15.0180042
O -1.2227632 3.6923407 3.4143360
H -0.4675635 4.1299807 2.9849295
H -1.3237941 4.2584712 4.2109731
O -13.6280038 3.8050011 -5.6880016
H -13.0410036 3.5950010 -6.4430018
H -14.5150041 3.6620010 -6.1430017
O -15.7790044 2.1920006 9.2170026
H -16.3500046 2.5960007 9.9080028
H -16.4730046 1.8460005 8.5420024
O 4.6620013 -15.8140044 -5.9060017
H 3.9260011 -16.3930046 -5.6440016
H 4.6700013 -15.0780042 -5.2240015
O 4.8160013 -13.5550038 8.1700023
H 5.1050014 -12.8590036 7.5570021
H 3.9010011 -13.1700037 8.3720023
O 5.3269097 3.7184494 -7.4897765
H 4.6357058 3.4298216 -8.1186166
H 5.1704568 3.0512674 -6.7915876
O 3.8638139 2.9463869 9.2842744
H 4.6051397 3.5666232 9.1395310
H 3.2008684 3.2889304 8.6473279
O -9.9100028 8.3690023 -11.7480033
H -10.5100029 8.8210025 -12.2890034
H -9.0760025 8.8580025 -11.9710034
O -12.4860035 10.9560031 2.8690008
H -12.6410035 10.3110029 2.1880006
H -13.2630037 10.9860031 3.4070010
O 1.4767836 -12.6279790 4.3478118
H 1.9162086 -11.9004387 4.8376208
H 2.2498256 -13.1396212 4.0464589
O 2.7973039 5.6345436 -12.3107890
H 3.7621844 5.8333449 -12.3548914
H 2.8709539 4.6597959 -12.3876776
O 4.0930450 9.4893593 4.8475374
H 4.6060336 9.4040465 5.6799271
H 3.1899248 9.3947378 5.2160429
O -8.5900024 -13.7090038 -4.1450012
H -8.7930025 -14.4100040 -3.4720010
H -8.8920025 -12.9170036 -3.7590011
O -8.5070024 9.3220026 -5.3120015
H -8.4910024 8.4690024 -4.8180013
H -7.5590021 9.3650026 -5.5630016
O -11.2390031 11.4530032 8.5570024
H -10.3610029 11.3530032 8.7840025
H -11.6200033 11.4490032 9.4080026
O 8.3870023 -13.8100039 -8.8040025
H 8.3470023 -13.3350037 -7.9140022
H 7.4170021 -13.9130039 -8.8390025
O 5.7640016 -7.7810022 13.9260039
H 6.3880018 -8.0210022 13.2950037
H 6.0700017 -6.8940019 14.2700040
O 9.9460028 7.9440022 -8.0430023
H 10.4100029 8.2360023 -8.7970025
H 9.6950027 8.7650025 -7.5970021
O 7.5950021 9.5270027 11.4730032
H 8.4920024 9.1400026 11.2070031
H 7.0330020 8.8480025 11.0970031
O -5.1330819 -4.7303299 -12.1084548
H -6.0530240 -4.3988696 -12.1775305
H -5.0030432 -4.7187034 -11.1356302
O -6.1927374 -7.0996290 6.6399019
H -6.0395444 -7.6355595 7.4388273
H -6.7931205 -7.7219306 6.1752886
O -0.8640002 11.3890032 -11.3040032
H -0.6370002 12.1010034 -10.7090030
H -0.7510002 10.5740030 -10.7490030
O -3.8320011 13.5570038 6.6310019
H -3.3480009 13.4620038 5.7560016
H -3.4510010 14.4090040 6.9800020
O 11.5400032 -3.7070010 -12.6990036
H 10.6040030 -3.9610011 -12.9290036
H 11.8450033 -4.5940013 -12.5620035
O 11.5890032 -6.0850017 7.1840020
H 11.2780032 -6.8000019 6.6080018
H 12.5230035 -6.4300018 7.4250021
O 8.2550023 9.9150028 -13.4280038
H 8.4780024 10.5770030 -14.1100039
H 7.8210022 10.4450029 -12.7210036
O -11.2920032 -13.7810039 -1.4470004
H -10.7430030 -13.9600039 -0.6600002
H -10.9410031 -14.5080041 -2.0360006
O -10.8474079 4.2260051 -3.2354161
H -10.0918409 3.7000137 -2.8908982
H -11.5241573 3.5349784 -3.3607981
O 3.7790011 -16.0220045 -2.8370008
H 4.4970013 -16.6150047 -2.7730008
H 3.2210009 -16.4950046 -3.5420010
O 4.4920013 -13.5820038 12.4550035
H 4.6770013 -14.5510041 12.4000035
H 5.3490015 -13.1360037 12.2210034
O 7.8158373 0.5500832 -4.8224648
H 7.2120081 0.9389073 -4.1551892
H 8.1104063 1.3651460 -5.2821890
O 2.8382982 -1.3832705 10.3193379
H 2.2778926 -1.7564259 9.6172845
H 2.1928681 -0.7845890 10.7559117
O -6.0810017 -11.3940032 -14.3630040
H -5.6080016 -12.1820034 -14.0670039
H -6.1250017 -10.8960030 -13.5330038
O -5.9500017 -12.5750035 2.4990007
H -5.1240014 -12.4470035 2.9780008
H -5.6210016 -12.7070036 1.6270005
O -6.0842732 5.8055826 -12.4521182
H -5.7650301 5.1961118 -11.7534509
H -6.2038977 5.1404341 -13.1578180
O -8.1303585 7.9671263 2.2190412
H -8.0926436 8.2245023 1.2722492
H -8.8431620 8.5759734 2.5311530
O 10.0330028 -9.8010027 2.7220008
H 10.5860030 -10.4510029 3.2050009
H 10.7630030 -9.3260026 2.2040006
O 12.3600035 8.6370024 2.1880006
H 13.0810037 8.3910023 2.7880008
H 12.3030034 7.7080022 1.8180005
O -14.6590041 5.0770014 -9.7970027
H -15.0810042 5.3540015 -10.6530030
H -14.3980040 4.1800012 -10.1200028
O -3.3740009 -13.1960037 7.5540021
H -3.8080011 -12.3560035 7.7590022
H -4.0980011 -13.7130038 7.1560020
O -0.0941680 1.4777998 -9.7711143
H 0.2710586 1.1826218 -8.9150591
H -0.2170300 2.4413423 -9.6323144
O 0.0710666 7.7323928 6.9822900
H 0.2860227 6.9634930 7.5364582
H -0.8048690 7.9470107 7.3759462
O -3.1600009 -15.7620044 -7.2070020
H -2.7870008 -16.6180047 -7.5130021
H -3.5760010 -16.1660045 -6.4320018
O -2.6140007 -15.4080043 9.1790026
H -2.6600007 -15.0780042 10.0460028
H -2.6750007 -14.5120041 8.7740025
O 1.1777053 5.4152739 -6.0491780
H 0.5355452 4.6965760 -6.0452473
H 1.6521740 5.2127437 -6.8863481
O -2.1370006 4.3900012 15.9180045
H -3.0390009 4.1240012 15.6300044
H -1.9080005 5.0710014 15.2760043
O 16.2560045 5.2620015 -5.6980016
H 15.7270044 4.6150013 -5.1550014
H 17.0300048 4.6200013 -5.8070016
O 15.3040043 5.2850015 9.3830026
H 15.9800045 4.6950013 8.9500025
H 14.9580042 4.5410013 9.8260028
O -5.2650015 -17.5070049 -6.0490017
H -5.9320017 -17.0750048 -6.5540018
H -5.6990016 -17.3060048 -5.1950015
O -5.4796953 0.3205880 -5.8791306
H -5.8317240 0.3701517 -4.9627552
H -4.8247558 1.0483795 -5.8794998
O -7.7280022 2.7990008 13.5460038
H -8.6610024 3.0640009 13.6810038
H -7.3980021 2.6710007 14.4500040
O 13.2130037 1.2870004 -6.6200019
H 12.7800036 0.7990002 -5.8370016
H 12.9760036 2.1930006 -6.3990018
O 9.2330026 1.6670005 12.3760035
H 8.8520025 0.9170003 12.0270034
H 8.4260024 2.2380006 12.3440035
O 3.7348420 -6.3054311 -11.8362753
H 4.3815064 -5.5772823 -11.7614249
H 3.1113234 -6.1468681 -11.1008560
O 0.8771030 -5.2373177 1.2268586
H -0.0534897 -5.4243199 1.4527092
H 0.8082651 -5.0494023 0.2693454
O 3.4850010 12.0140034 3.8290011
H 2.5430007 12.2110034 3.9410011
H 3.5940010 11.0880031 4.1260012
O 18.4580052 -5.9760017 4.1250012
H 17.7280050 -6.4310018 4.5680013
H 18.0960051 -6.0240017 3.2450009
O -12.6760035 -6.2990018 -4.8780014
H -12.6070035 -5.3350015 -4.6060013
H -13.5020038 -6.4650018 -4.4100012
O 2.4618403 -4.1103365 -3.0144496
H 3.2228513 -4.4710533 -2.5037031
H 1.7560793 -4.1292330 -2.3313273
O 0.7920002 -5.0050014 15.0740042
H 1.2700004 -4.8510014 14.2040040
H 0.8580002 -5.9960017 15.0940042
O 5.2112683 10.7892840 -2.2688836
H 5.7685757 10.7236560 -1.4660652
H 5.7578357 10.3016997 -2.9181306
O 3.1070009 13.0990037 13.7850039
H 3.8380011 13.0890037 14.3960040
H 2.9160008 14.0590039 13.8710039
O -16.2080045 3.6790010 -6.5310018
H -16.6130046 3.6240010 -7.4440021
H -16.9370047 3.7800011 -5.9110017
O 0.1912872 -11.3167379 -4.2276886
H -0.5581817 -11.9079048 -4.4114775
H -0.2052086 -10.4313834 -4.3296790
O -2.7420008 -13.7770039 11.6760033
H -3.0430009 -13.6220038 12.5290035
H -1.7960005 -13.7920039 11.8560033
O 4.2761685 7.9772802 -4.2369380
H 3.6771004 7.2420743 -3.9719874
H 3.6498606 8.7330594 -4.2659411
O 0.2873693 5.8593314 9.0611083
H -0.4526946 5.2151636 9.1481794
H 0.1083065 6.4315403 9.8412696
O -16.8740047 -2.8900008 -3.5400010
H -16.6110046 -2.9760008 -4.5020013
H -17.4800049 -2.0970006 -3.5510010
O 0.4453238 -3.0494154 -7.0227133
H 0.6850064 -2.6305060 -7.8837684
H 1.2593326 -2.8489336 -6.5035312
O -2.3080006 -3.1550009 15.2930043
H -2.0230006 -2.2570006 15.2470043
H -1.4340004 -3.6290010 15.1480042
O -2.0230006 14.2850040 -6.1270017
H -2.0460006 15.2990043 -6.3200018
H -2.6740007 14.1120039 -5.3880015
O 18.1760051 -4.0540011 -5.0550014
H 17.4960049 -3.4180010 -4.8300014
H 18.0030050 -4.6610013 -4.3130012
O 13.4520038 0.2040001 11.4890032
H 12.9010036 1.0440003 11.6310033
H 12.8100036 -0.4630001 11.7050033
O -17.1540048 0.6530002 1.0540003
H -17.2540048 1.5760004 1.4240004
H -16.2150045 0.7060002 0.8970003
O 1.5420004 -2.7040008 -14.2210040
H 1.9070005 -2.2090006 -15.0060042
H 1.8390005 -3.5890010 -14.5070041
O -3.6106555 -0.1784333 6.9650270
H -3.1151205 -0.7208729 7.6134261
H -3.2471664 0.7104235 7.1681826
O 4.9720014 15.3230043 2.2750006
H 4.0290011 15.3380043 2.3560007
H 5.2340015 15.6800044 3.1440009
O 18.3110051 -3.2280009 5.1360014
H 18.0690051 -3.5260010 6.0690017
H 18.3200051 -4.1730012 4.8750014
O -16.2400045 -5.6370016 -4.1580012
H -15.7280044 -5.9630017 -3.3530009
H -16.7990047 -4.9410014 -3.8100011
O 1.5204916 -6.2579033 -4.4313156
H 1.9782846 -5.5770467 -3.8953413
H 0.6595221 -5.8067866 -4.5546798
O -0.5350001 -9.1820026 15.0460042
H 0.3530001 -9.3950026 15.4680043
H -0.1380000 -8.9430025 14.2170040
O 2.9800008 15.1970043 -3.4600010
H 3.1060009 14.3820040 -2.8840008
H 3.0610009 14.9090042 -4.2870012
O 1.6400005 14.0600039 11.1830031
H 2.4950007 14.1170040 11.5510032
H 1.2960004 13.1410037 11.1990031
O -2.1020006 -12.9230036 -3.8630011
H -2.0650006 -13.4840038 -3.0990009
H -2.1480006 -12.0500034 -3.4750010
O -4.3040012 -11.8100033 10.5040029
H -3.6470010 -11.2450031 10.0890028
H -3.6390010 -12.5580035 10.6190030
O 2.5956138 5.9274108 -3.7243758
H 2.0799294 5.7496082 -4.5399223
H 1.8926843 5.9330554 -3.0430957
O -5.2940015 10.1460028 13.0180036
H -4.6740013 9.5180027 13.4160038
H -6.2090017 10.0860028 13.4690038
O 11.7260033 5.5120015 10.2270029
H 12.2020034 5.9080017 9.4500026
H 11.7310033 4.5950013 9.8980028
O -3.6330725 -7.1097834 -4.1696605
H -4.4797110 -7.5653509 -3.9708624
H -3.9806542 -6.1909174 -4.2205419
O -3.6790010 -6.0560017 13.9640039
H -3.9410011 -5.7930016 14.8810042
H -2.7110008 -5.9930017 14.0530039
O -0.2237153 7.7603417 -5.7044675
H 0.4282673 7.0599615 -5.9206569
H 0.0380865 8.4646783 -6.3391803
O -1.5200004 12.7580036 11.8640033
H -1.6410005 12.2990034 12.7080036
H -1.8440005 13.6610038 12.1180034
O 15.3740043 -3.7410010 -7.0980020
H 16.1390045 -3.2840009 -7.4550021
H 15.5010043 -3.8020011 -6.1710017
O 11.6910033 -7.0420020 14.1090039
H 11.4510032 -6.3050018 13.5100038
H 11.2680032 -6.7480019 14.9610042
O -10.1200028 -5.7340016 -12.8480036
H -10.8760030 -5.1350014 -12.9340036
H -10.6630030 -6.4300018 -12.4240035
O -13.4110038 -5.8020016 4.1060011
H -13.7420038 -4.8980014 4.2450012
H -12.5770035 -5.6210016 3.6180010
O 7.7370022 -7.9650022 -15.3460043
H 7.8530022 -7.4420021 -14.5070041
H 7.8470022 -7.3720021 -16.0660045
O 3.7147755 -6.9238003 5.9721954
H 2.9390800 -6.3812390 6.2106895
H 4.1095881 -6.3804960 5.2669562
O 8.6640024 13.8340039 4.8770014
H 8.8590025 12.9460036 5.1340014
H 7.6770021 13.7700039 4.8180013
O -12.4773933 -2.1853269 0.5292502
H -12.9374570 -1.8019652 -0.2500869
H -11.6829233 -2.5539591 0.0973788
O 5.2710015 -0.6120002 -17.1120048
H 6.1820017 -0.9200003 -17.2510048
H 5.1890015 0.0900000 -17.8420050
O 4.8120114 -5.3564236 3.8932332
H 4.4457487 -4.4607320 3.7265505
H 4.3212557 -5.8427704 3.1849355
O 0.8620002 0.0750000 17.2950048
H 0.5690002 0.4880001 16.4330046
H 1.7950005 -0.2040001 17.1350048
O -6.2560018 -15.0960042 -5.1210014
H -6.7670019 -15.4110043 -5.8610016
H -6.8550019 -14.4200040 -4.7160013
O -6.8160019 -12.6300035 9.4980027
H -6.5340018 -13.5350038 9.2440026
H -5.9580017 -12.3000034 9.7500027
O -3.3822590 2.0936716 -6.0690135
H -2.8479748 2.7639005 -5.5982898
H -2.7049364 1.4860919 -6.4424485
O -3.7500010 5.8580016 14.4070040
H -3.9570011 6.6620019 13.9740039
H -4.2100012 5.9780017 15.2290043
O 13.6450038 5.9820017 -6.8240019
H 13.9170039 6.9330019 -6.9800020
H 14.5010041 5.7200016 -6.4580018
O 12.6590035 5.5020015 7.6250021
H 13.5260038 5.1100014 7.5490021
H 12.0090034 4.7590013 7.4360021
O -6.8318733 -3.1512183 -7.2140771
H -7.0728202 -2.2091623 -7.1370568
H -6.9463605 -3.2762998 -8.1751334
O -7.9677756 -1.1080662 9.4121377
H -8.3658893 -0.2170633 9.4269916
H -8.7280165 -1.5922513 9.8059043
O -4.6130013 15.3070043 -8.2400023
H -4.7760013 14.3420040 -8.1250023
H -4.8820014 15.6310044 -7.4000021
O 12.9740036 -3.2220009 -8.6030024
H 12.9720036 -2.3080006 -8.3350023
H 13.8640039 -3.5180010 -8.2260023
O 11.4550032 -1.6760005 8.9320025
H 10.8350030 -0.8840002 9.0730025
H 11.0630031 -2.2210006 8.1780023
O -8.5140024 -6.7220019 -14.7730041
H -7.6530021 -6.2660018 -14.4690040
H -9.1510026 -6.3090018 -14.0810039
O -11.4000032 -11.5590032 1.9900006
H -11.3070032 -10.5920030 2.2300006
H -12.0930034 -11.7870033 2.5660007
O -8.9450025 7.4990021 -14.4200040
H -9.4030026 7.9110022 -13.6710038
H -7.9730022 7.6060021 -14.2640040
O -10.6242343 6.0213922 1.1468837
H -11.1503547 5.3839778 0.6158362
H -10.8626349 6.8737125 0.7250738
O 5.6270016 -13.4880038 1.3180004
H 4.8150013 -13.6820038 0.7740002
H 5.6480016 -12.4950035 1.3490004
O 9.6750340 5.4260264 -2.8084869
H 10.4816449 5.8983591 -2.5152736
H 10.0419117 4.5307022 -2.9762914
O 4.7860013 8.3970024 15.4090043
H 4.4380012 8.9900025 16.0940045
H 5.7840016 8.4870024 15.5570044
O -6.6480199 -9.1009868 -0.8762374
H -7.3104763 -9.7512490 -1.1923535
H -5.8699591 -9.6830516 -0.7863674
O -5.7262353 7.4478178 -1.2489657
H -6.5180084 7.8873877 -0.8846170
H -6.1593348 6.6664946 -1.6437174
O 14.0010039 -7.6470021 0.2760001
H 14.4100040 -8.0470023 1.0370003
H 13.1430037 -8.0550023 0.2510001
O 13.6640038 13.8370039 -2.1020006
H 13.0480037 13.2360037 -2.5640007
H 13.0090036 14.0550039 -1.4090004
O -7.4650021 -14.6890041 0.0900000
H -7.3240020 -13.9910039 -0.5440002
H -6.4870018 -14.9990042 0.0700000
O -8.0953459 6.9091169 -4.0754559
H -8.5336761 6.2771816 -4.6807654
H -8.0329353 6.3826933 -3.2448759
O -6.5420018 3.4810010 16.1020045
H -7.1540020 3.3990010 16.8760047
H -6.4290018 4.4420012 15.9940045
O 11.4930032 -11.3860032 -4.7570013
H 11.2430031 -11.2030031 -3.8610011
H 10.8170030 -12.0570034 -4.9050014
O 11.2381396 3.1665152 -5.6619480
H 11.2188005 3.1194344 -4.6836421
H 11.2269071 4.1368766 -5.8126765
O 4.5840013 7.1010020 12.3450035
H 4.6050013 6.4410018 11.6120032
H 5.4470015 6.9570019 12.7390036
O -7.1920020 -10.0870028 -7.5660021
H -6.5600018 -9.4480026 -8.0450023
H -7.8090022 -10.3560029 -8.3390023
O -8.8400025 -10.4340029 9.5220027
H -9.4960027 -11.1360031 9.7950027
H -7.9720022 -10.8180030 9.7900027
O -7.5698586 6.0422962 -8.3218122
H -7.4339699 7.0049490 -8.4447703
H -7.8159061 5.7828899 -9.2349589
O -6.8632242 8.8037238 7.9418016
H -7.2108026 9.6184427 8.3695427
H -6.3249192 9.1988223 7.2252119
O 8.3037535 -7.0369861 7.3058891
H 9.0372931 -7.3284713 6.7365271
H 7.5780123 -7.0927571 6.6401496
O 11.7040033 8.1810023 -11.4610032
H 11.6700033 7.2600020 -11.1870031
H 12.0390034 8.6080024 -10.7040030
O 9.7120027 8.7640025 10.2080029
H 9.8920028 8.2150023 9.3680026
H 10.6330030 8.7280024 10.5970030
O -5.4270015 -13.9120039 -9.0610025
H -5.0970014 -14.4470040 -8.3220023
H -4.6260013 -14.0350039 -9.5650027
O -4.6665207 -10.8141478 6.8427569
H -4.0316866 -10.1105992 7.0832104
H -5.4944723 -10.4737464 7.2155294
O -2.6615597 5.3039751 -8.5367622
H -2.6424848 5.6811912 -7.6342394
H -3.3411309 4.6089903 -8.4569597
O -2.6416311 6.8919992 10.9001203
H -3.4412002 7.4380527 11.0438936
H -3.0234833 5.9960596 10.9711201
O 14.1850040 7.9000022 9.8470028
H 14.4640040 6.9670019 9.9260028
H 14.4370040 8.1330023 8.9400025
O -16.3750046 7.3470021 6.8350019
H -15.9250045 6.4780018 7.0370020
H -15.7180044 7.9680022 7.1240020
O 0.1410000 -13.2470037 -7.0790020
H 0.4840001 -13.6840038 -6.2700018
H 0.4700001 -12.3290035 -6.8340019
O -0.2680001 -13.1780037 7.7790022
H -0.7530002 -13.8480039 7.2530020
H 0.0530000 -13.7540038 8.5020024
O 1.6536549 7.5896035 -10.7478386
H 2.0113784 6.8070618 -11.2229184
H 2.0069132 8.2999845 -11.3295004
O 1.6188674 9.7002950 6.0279435
H 1.0859544 8.9239446 6.3364554
H 1.5694703 10.2632602 6.8118065
O 15.6070044 6.0500017 5.7300016
H 15.4580043 5.0880014 5.7680016
H 16.3620046 6.1260017 6.3180018
O -15.2710043 5.1690014 8.7660025
H -16.2210045 5.3430015 8.8880025
H -15.2500043 4.2520012 8.6470024
O 0.9770003 -14.6990041 -9.2740026
H 0.7320002 -14.3090040 -8.4130024
H 0.8380002 -15.6540044 -9.0990025
O 0.9520003 -14.4110040 10.0040028
H 0.7140002 -14.3190040 10.9110031
H 1.6930005 -13.8380039 10.0620028
O 2.9017404 7.1433180 -8.3360199
H 2.7281547 6.1820060 -8.3837117
H 2.4649069 7.4151755 -9.1688430
O 2.6280251 7.3534771 9.2034079
H 1.8191280 6.8106493 9.1672402
H 2.4547807 7.8793586 10.0045283
O -12.4230035 9.9530028 -8.0140022
H -13.2360037 9.5120027 -7.6680021
H -12.2080034 9.4620026 -8.8100025
O -11.7250033 7.6260021 8.3140023
H -11.2190031 7.4390021 7.4490021
H -11.5950032 6.7870019 8.8390025
O 5.8370016 -15.0540042 -9.3020026
H 4.9440014 -15.4680043 -9.4010026
H 6.3730018 -15.3650043 -10.0810028
O 2.5150007 -12.3870035 8.5100024
H 2.4110007 -11.5200032 8.9900025
H 1.8460005 -12.4430035 7.8090022
O 7.1999772 5.4765387 -6.4866834
H 6.5887728 4.7632811 -6.7729687
H 6.5792494 6.2313774 -6.5979465
O 2.6058271 3.0707336 11.8616904
H 2.7333437 2.9718519 10.8995050
H 1.6465112 3.2628271 11.9241480
O -7.6287650 2.6264946 -9.5769738
H -7.7325756 1.6850079 -9.8283692
H -7.9976302 2.6292609 -8.6885728
O -10.3430029 3.0870009 13.9330039
H -10.4670029 2.1570006 13.6770038
H -11.0110031 3.5800010 13.4700038
O 8.5340024 -14.0870039 11.1190031
H 9.3920026 -13.9460039 10.7030030
H 7.9600022 -13.9680039 10.3170029
O 13.4720038 2.4850007 -9.8160027
H 13.1860037 2.2640006 -10.6770030
H 12.6050035 2.3540007 -9.3570026
O 10.9130031 3.4250010 7.7140022
H 11.1500031 2.4940007 7.6930022
H 9.9600028 3.4030010 7.5120021
O -5.9470017 -15.3160043 9.2960026
H -5.5590016 -15.7310044 10.0780028
H -6.0090017 -16.0230045 8.7190024
O -3.7407446 0.9144628 -9.1872005
H -3.3111807 0.6599488 -10.0278151
H -3.0558077 0.6458240 -8.5486149
O -4.1727539 4.5539264 10.7090192
H -4.9660703 4.8136482 11.2376427
H -4.3721447 3.5901580 10.6038890
O 15.9570045 3.8590011 -9.0000025
H 15.0670042 3.3780009 -9.0380025
H 16.3160046 3.4720010 -9.8530028
O 12.9490036 1.0800003 8.3090023
H 13.3990037 0.8770002 7.4410021
H 12.4590035 0.2190001 8.4820024
O -3.3268890 -1.8852328 -11.9300360
H -2.8027186 -1.0534415 -11.8715443
H -3.1732888 -2.1510337 -12.8563248
O -1.6740652 3.9235399 9.2867746
H -2.5158889 4.0865316 9.7444430
H -1.9480150 3.2838805 8.5930271
O 16.9400047 3.7350010 7.8500022
H 16.4300046 3.5710010 7.0440020
H 17.4120049 2.9150008 7.8020022
O -14.9530042 5.9690017 -7.1940020
H -14.9910042 5.7650016 -8.1200023
H -15.3510043 5.1730014 -6.9080019
O 1.5860004 -17.0670048 -7.7650022
H 1.8060005 -17.9600050 -8.1010023
H 2.3970007 -16.6000046 -8.2100023
O 2.0348002 4.5166614 -8.4810158
H 1.2332034 4.4098997 -9.0369602
H 2.5567032 3.7258246 -8.7394967
O 1.8598404 4.0215597 7.7178797
H 1.3594562 4.7540876 8.1294865
H 1.7043700 4.1942704 6.7689571
O -8.4450024 3.0300008 -15.4250043
H -8.2830023 3.2890009 -16.3380046
H -8.3900023 2.0800006 -15.3540043
O -15.9150045 5.7330016 3.8540011
H -15.1350042 5.5520016 3.2590009
H -15.8970044 4.9860014 4.5390013
O 5.5250015 -15.5120043 6.3300018
H 4.9810014 -16.2570045 6.6260019
H 5.1430014 -14.8170041 6.9370019
O 5.7134255 2.1683619 -11.3687156
H 5.8430513 2.9178401 -10.7505813
H 6.4897029 2.3186521 -11.9469209
O 4.0420028 1.9929211 3.5993087
H 4.0884369 2.0677061 2.6245535
H 4.1185555 2.9150125 3.8949613
O 2.6840008 4.9850014 18.4910052
H 2.8150008 3.9660011 18.7090052
H 3.5380010 5.2100015 18.8230053
O -5.9127463 -1.5086720 -11.2175251
H -6.1889424 -2.2709939 -10.6738300
H -4.9511764 -1.6918542 -11.3415151
O -10.2490029 0.4360001 12.7550036
H -10.2470029 0.3830001 11.7650033
H -9.3490026 0.1040000 12.9850036
O -6.5390018 13.0630037 7.5350021
H -6.9970020 12.5880035 6.8040019
H -5.7720016 13.3510037 7.0430020
O 13.3100037 -0.0550000 -11.1490031
H 12.8120036 -0.4940001 -10.4370029
H 14.2360040 -0.3310001 -11.0060031
O 11.4839752 -1.2642153 5.4458156
H 10.5688889 -0.9121301 5.4571317
H 11.3447545 -2.1038106 5.9291679
O -1.7299441 0.2583019 -7.3193599
H -0.7486217 0.2793214 -7.3686579
H -1.8863938 -0.6980635 -7.4530998
O -4.7182689 1.9380424 10.6464737
H -5.2543389 1.3485507 11.2100501
H -4.0157579 1.3124214 10.3766806
O 18.1280051 0.7850002 -7.3650021
H 18.1940051 1.7400005 -7.3850021
H 17.2130048 0.6080002 -7.7400022
O 13.7240038 3.1080009 10.1180028
H 13.3150037 2.5850007 9.4570026
H 13.0480037 3.1820009 10.8670030
O -1.5967157 -1.0805500 -14.2987038
H -2.1218023 -0.2525127 -14.3039902
H -0.9540324 -0.8591267 -14.9970947
O -7.8237386 -0.3850946 3.8104301
H -8.6573637 0.1340585 3.8460224
H -7.3093177 0.0117130 4.5430031
O 2.2490006 19.2120054 4.9780014
H 1.2800004 19.1560054 4.7410013
H 2.7090008 19.2380054 4.1380012
O 12.2916743 -1.6854756 2.8985064
H 12.0465140 -1.4312395 3.8201113
H 13.1912753 -2.0476593 3.0501253
O 0.1492719 -2.2474198 -9.6234712
H -0.5533446 -2.6702039 -10.1395553
H 0.7354212 -1.9233373 -10.3389813
O -2.9366794 -0.1412257 10.3057537
H -2.4389720 -0.6753287 9.6499692
H -3.8025715 -0.6167460 10.2834831
O -3.7830011 17.7080050 7.7200022
H -3.7680011 17.0290048 8.4610024
H -3.9590011 17.2650048 6.8820019
O 15.0910042 0.3330001 6.5720018
H 15.4340043 0.3620001 5.6620016
H 15.9000044 0.6300002 7.0550020
O -13.6630038 2.3210006 -12.4830035
H -12.8010036 2.8260008 -12.2130034
H -13.7360038 1.5710004 -11.8880033
O -17.5570049 0.5350001 7.5420021
H -18.0520051 -0.3370001 7.5200021
H -18.3290051 1.2030003 7.4180021
O 0.2640001 -16.9500047 8.6390024
H 0.0750000 -17.5670049 9.3200026
H 0.2360001 -16.1520045 9.1420026
O 3.5717273 2.2766329 -9.0960427
H 3.1866162 1.8578433 -9.8946164
H 4.2268480 1.5896721 -8.8514552
O 1.7038548 1.0965168 4.9616187
H 2.1010887 0.5424566 5.6625511
H 2.4890850 1.3034138 4.4191901
O 17.6860049 1.0920003 7.6100021
H 18.5560052 1.1930003 7.2600020
H 17.8830050 0.9560003 8.5580024
O -13.3170037 0.3970001 -10.6440030
H -12.8220036 -0.4460001 -10.7740030
H -12.8060036 0.7380002 -9.9310028
O -12.9680036 2.3580007 9.8740028
H -13.0390036 2.7070008 10.8130030
H -13.8830039 2.0980006 9.6020027
O 8.4889541 -0.7335682 -10.1749794
H 9.1959217 -0.5947154 -10.8338825
H 8.5708851 0.0647557 -9.6116761
O 5.9059928 2.9125924 6.4868014
H 5.1819099 3.2922793 5.9474501
H 5.8342268 3.4616070 7.2937916
O -0.8135590 -3.3999629 -12.9189947
H -1.2060694 -2.6058961 -13.3345229
H 0.0857265 -3.3160847 -13.2831353
O -7.1981935 -2.4496825 7.1039319
H -8.1571397 -2.5777780 6.8889454
H -7.3086592 -2.0088176 7.9728106
O -1.2040003 14.3800040 5.9260017
H -1.0100003 14.6260041 5.0270014
H -0.8760002 15.0750042 6.4680018
O 13.0860037 -5.3680015 4.1080011
H 13.8910039 -4.9900014 4.4130012
H 12.9270036 -4.8110013 3.3710009
O -0.1440000 -6.9190019 -13.0190036
H -0.4570001 -6.8150019 -13.9740039
H -0.4550001 -6.0520017 -12.6850036
O -4.7456439 -3.9629319 3.0307794
H -3.8786491 -3.8304702 3.4734967
H -5.3634963 -3.4877938 3.6273915
O -3.1610009 -2.2470006 18.8060053
H -3.3000009 -3.2080009 18.8580053
H -2.2360006 -2.1130006 18.9310053
O -0.8300002 14.3160040 2.7940008
H -1.5790004 14.1840040 2.2200006
H -0.5190001 15.2170043 2.4980007
O 14.7390041 -2.9160008 2.9810008
H 15.6960044 -3.0840009 3.2480009
H 14.7550041 -3.4660010 2.1980006
O -1.6950005 -17.7210050 3.7530011
H -1.4630004 -17.4100049 2.8870008
H -2.4310007 -17.1480048 3.9440011
O 0.1260000 -0.6260002 -16.5090046
H 1.0950003 -0.5770002 -16.2560045
H -0.0440000 0.2570001 -16.8770047
O -6.1808784 0.0211934 6.0593738
H -5.2385061 -0.0355356 6.3411185
H -6.5288741 -0.7780496 6.4919449
O 15.0120042 -0.4680001 1.3810004
H 14.5440041 0.1290000 1.9830006
H 15.2890043 -1.2090003 1.9600005
O -13.0720037 -2.5770007 -9.1920026
H -12.7000036 -3.4040010 -8.9100025
H -12.7930036 -2.5370007 -10.0570028
O -16.0450045 -2.4250007 7.4830021
H -15.5990044 -1.7000005 7.9770022
H -16.8830047 -2.4960007 8.0020022
O 4.9713400 -2.8869005 -6.7877490
H 5.4459541 -3.6911595 -7.0804652
H 5.7458881 -2.2940436 -6.6816433
O 2.9159357 -0.5220055 6.8848316
H 3.5069053 -1.0898745 6.3442590
H 3.5650944 -0.1492792 7.5182900
O 5.4160015 13.4160038 -9.4260026
H 5.9380017 13.9540039 -10.0290028
H 5.8870016 13.5270038 -8.5480024
O -10.7890030 3.6840010 -11.6840033
H -10.0600028 3.9800011 -12.3230034
H -10.3770029 3.4100010 -10.8080030
O -12.6178155 2.8320233 4.9220895
H -11.7503181 2.7131450 5.3461186
H -12.5982823 3.7601602 4.6292331
O 5.8879973 -0.5975375 -11.1355200
H 5.7338441 0.3699658 -11.0507939
H 6.7843999 -0.6748105 -10.7419169
O 5.7578584 -0.2198006 3.5513857
H 5.5977143 -0.3980875 2.5991762
H 5.1872877 0.5649763 3.6853748
O -2.2487996 -3.7010410 -10.1381185
H -1.9000433 -4.5450519 -10.5017524
H -2.4967452 -3.2106385 -10.9544140
O -5.1304595 -4.5654922 6.9940712
H -5.6008610 -5.4218244 6.8985726
H -5.8602922 -3.9203563 6.9448794
O -1.8672493 11.4818596 -6.7907768
H -2.5800001 11.2961002 -7.4363414
H -1.8863535 12.4573790 -6.7404594
O -4.9350014 14.2060040 12.3870035
H -5.3340015 13.5080038 11.8600033
H -5.1890015 13.8840039 13.2750037
O 10.8028879 -3.4306406 6.9477718
H 9.8520152 -3.6513537 6.8300060
H 11.1854937 -4.3348810 6.9555688
O -1.3913671 -6.3312582 -10.4456053
H -0.7109181 -6.8180525 -10.9378082
H -2.0280433 -7.0635788 -10.2759804
O -2.7274325 -7.9157471 5.1414120
H -3.5116871 -7.4835400 4.7391287
H -2.5725758 -8.6237454 4.4743143
O -1.9210005 12.6190035 -13.3620037
H -1.6630005 12.3260034 -12.5290035
H -2.3360007 13.5160038 -13.1920037
O 0.9260003 12.7590036 4.0350011
H 0.9110003 12.9460036 5.0230014
H 0.0790000 13.1300037 3.7510010
O 15.7240044 -7.0860020 5.2250015
H 15.5690044 -6.3680018 5.8750016
H 15.2440043 -7.7880022 5.7230016
O -16.5510046 -5.4540015 5.7230016
H -17.4590049 -5.4030015 6.0180017
H -16.6340047 -5.5240015 4.7390013
O 2.3642885 -6.6628068 -6.9748499
H 2.1626358 -6.4704171 -6.0328453
H 1.5762086 -6.2670943 -7.4064725
O -2.3499469 -4.1436750 7.2566662
H -3.2798906 -4.3550003 7.0418720
H -1.8574520 -4.8128843 6.7535994
O 2.1660006 14.7020041 -10.1390028
H 1.7740005 15.5310043 -10.5040029
H 2.7280008 15.2720043 -9.5560027
O 1.6750005 13.6550038 8.3440023
H 2.2260006 13.8080039 9.1020025
H 2.4150007 13.5810038 7.6520021
O -14.6220041 -3.6110010 5.7160016
H -15.1600042 -4.4270012 5.5850016
H -15.1620042 -3.1350009 6.4150018
O 5.9340017 -4.5560013 -11.5360032
H 6.4140018 -5.3850015 -11.4730032
H 6.5150018 -3.7630011 -11.1940031
O 0.5143547 -2.8765462 5.6612853
H -0.2742950 -2.3038719 5.5659506
H 0.8014660 -2.9131049 4.7207813
O 4.9720014 13.9570039 -12.2350034
H 4.4650012 13.4030038 -11.6050032
H 4.3670012 14.0120039 -13.0330036
O 0.8310002 16.4030046 5.3400015
H 0.5090001 17.2060048 4.8720014
H 1.3730004 16.7580047 6.0630017
O -13.7390038 -5.3720015 -10.1660028
H -13.5450038 -6.2090017 -9.6480027
H -14.0780039 -4.8520014 -9.4310026
O -16.2260045 -7.3690021 7.5970021
H -16.4310046 -6.4490018 7.6820021
H -15.2950043 -7.2550020 7.2750020
O 4.7434741 -6.8146737 -8.2865943
H 4.5588059 -7.5177974 -8.9466823
H 3.8497177 -6.6646438 -7.9075648
O 0.5911591 -7.7545587 8.6306785
H 0.5874787 -8.0834462 7.7043432
H -0.3415497 -7.4809391 8.7419972
O 7.2020020 13.6600038 -7.2990020
H 7.2480020 13.3700037 -6.3840018
H 7.3720021 14.5830041 -7.1320020
O 3.8870011 13.1170037 6.5870018
H 4.5820013 12.4740035 6.7860019
H 4.4490012 13.8990039 6.7250019
O -3.5590068 -7.4748296 -6.9332325
H -3.6031045 -7.5045012 -5.9577874
H -3.5156835 -6.5024955 -7.0595717
O -6.0140017 -9.0390025 8.7960025
H -6.4960018 -8.6510024 9.4870027
H -5.1380014 -9.0530025 9.1850026
O -5.2320015 12.7280036 -7.2940020
H -6.1480017 12.5170035 -7.0590020
H -4.8090013 11.8840033 -7.6780021
O -5.4490015 12.1400034 3.1830009
H -5.8190016 12.9810036 2.8370008
H -6.0080017 11.4710032 2.7620008
O 9.5610027 -9.0370025 11.4920032
H 9.7750027 -9.7290027 10.8540030
H 10.2750029 -8.4190024 11.2570032
O 11.4400032 11.9390033 -10.2840029
H 11.2990032 11.2850032 -9.6250027
H 12.1270034 11.5240032 -10.8150030
O 10.6200030 13.4320038 7.4690021
H 9.7340027 13.0290036 7.3610021
H 10.9330031 12.8650036 8.1280023
O -17.0490048 -5.0560014 3.1780009
H -17.2880048 -5.9660017 2.8730008
H -17.4790049 -4.5570013 2.4140007
O -3.0970009 -11.1220031 -9.0500025
H -2.9730008 -12.0960034 -8.8630025
H -3.3090009 -10.9030031 -8.1040023
O -2.7850397 -9.0261345 7.6181575
H -2.6790648 -8.6596378 6.7099005
H -2.5171750 -8.2462589 8.1498589
O -0.7126824 8.8944885 -10.0471461
H 0.0637772 8.3515425 -10.3100671
H -1.4333306 8.4381380 -10.5292224
O -5.6450404 8.7079492 3.0491809
H -5.5258593 9.3299858 2.3100518
H -6.5482060 8.3747976 2.8614585
O 0.6146025 -9.2732870 -8.9962195
H 0.2817344 -9.9066941 -9.6661327
H -0.1408248 -9.2447271 -8.3668590
O -2.0099364 -7.0662623 9.2928717
H -2.1966905 -7.6031787 10.0908777
H -2.2518362 -6.1733634 9.6177337
O 0.1685916 9.7321751 -7.5905058
H -0.2208392 9.4426421 -8.4451824
H -0.4615010 10.4295490 -7.3158713
O -2.9760008 12.7120036 9.3800026
H -2.2220006 12.3110034 8.9330025
H -2.4160007 12.9800036 10.1810028
O -2.3480007 -13.5580038 -8.2350023
H -1.4580004 -13.4730038 -7.7760022
H -2.6660007 -14.3400040 -7.7330022
O -1.1440003 -6.1330017 12.7720036
H -0.7690002 -7.0120020 12.6740035
H -0.3620001 -5.6060016 12.6140035
O -0.4543270 4.2120925 -9.6990480
H -0.7343128 4.4742282 -10.5985161
H -1.1845089 4.6457946 -9.2038603
O -2.1657930 8.0560406 8.4310476
H -2.7390989 8.8316634 8.5574076
H -2.2522694 7.5967898 9.2877607
O 13.9540039 8.6430024 -6.8040019
H 13.6650038 8.8690025 -5.9270017
H 14.6100041 9.2920026 -6.9930020
O -7.5180021 -16.0440045 -7.3960021
H -7.3800021 -16.3280046 -8.3410023
H -8.1950023 -15.3480043 -7.5530021
O -5.7384700 5.1142013 -6.5234585
H -5.3164367 4.4848816 -7.1414973
H -6.4172085 5.4920574 -7.1243101
O -6.5170018 5.0580014 11.9770034
H -7.0730020 5.8570016 12.0020034
H -6.9490019 4.4130012 12.5660035
O 12.8380036 5.6510016 -9.3620026
H 13.2030037 5.9290017 -8.4960024
H 12.4480035 4.8530014 -9.0790025
O 9.9130028 6.4610018 12.1490034
H 10.6070030 5.9170017 11.7100033
H 9.4290026 6.8810019 11.4150032
O -8.5090024 -10.9290031 -1.7730005
H -9.3500026 -11.0870031 -1.2580004
H -8.9870025 -10.6650030 -2.6120007
O -5.3920387 7.1216182 -4.6450221
H -5.3245038 6.3719897 -5.2756257
H -6.3031558 6.9937708 -4.3096121
O 10.3010029 -10.7320030 -1.9200005
H 9.4890027 -10.2780029 -1.6380005
H 10.2890029 -11.5210032 -1.3120004
O 10.1441323 9.2206723 -3.4664995
H 9.9239797 9.0558439 -2.5285706
H 9.5757516 8.5655684 -3.9083891
O -4.8450014 -11.8810033 -3.6070010
H -4.8610014 -11.7770033 -4.6100013
H -4.0750011 -11.3940032 -3.3800009
O -7.9436518 5.5200859 0.8943575
H -7.7437118 6.2715770 1.4802250
H -8.9233790 5.5159625 0.9629535
O 6.9180019 -12.0940034 -2.3150006
H 6.3620018 -11.6730033 -1.6250005
H 7.5830021 -11.3460032 -2.4780007
O 12.4230599 3.6458673 -0.8516655
H 11.5287968 3.9198872 -0.5540569
H 12.8796030 3.7103256 0.0124838
O -8.3823401 -9.8479213 3.0029838
H -9.2939976 -9.5678033 2.7747086
H -7.8737331 -9.0847867 2.6566945
O -5.9500017 8.0080022 -14.3920040
H -5.1030014 8.1000023 -14.8900042
H -5.8050016 7.0420020 -14.2130040
O -8.1306739 8.6431767 -0.4425763
H -8.1064187 9.1742023 -1.2708541
H -9.1009649 8.5070691 -0.3585062
O 8.6570024 -11.1900031 0.8070002
H 9.1690026 -10.6160030 1.4730004
H 9.1840026 -11.9970034 0.6090002
O 9.3760026 10.4250029 1.1300003
H 8.6990024 10.8910030 1.6340005
H 10.2310029 10.8270030 1.4840004
O -9.0570025 -9.2070026 -11.7240033
H -9.3330026 -8.7900025 -12.5550035
H -9.1300026 -10.1230028 -11.9730034
O -11.1320031 -14.0880039 5.0540014
H -10.5250029 -13.3560037 5.3530015
H -10.5290029 -14.7000041 4.5240013
O -8.6660024 5.5860016 -10.8490030
H -8.9840025 6.4650018 -11.0070031
H -8.3810023 5.3760015 -11.7500033
O -9.9056591 6.8063147 6.3294344
H -10.0776946 6.4530299 5.4259583
H -8.9266995 6.7036241 6.3470768
O 9.0200025 -10.2270029 5.5240015
H 8.7220024 -10.7890030 4.7120013
H 8.2480023 -10.2960029 6.1330017
O 8.4620024 7.5410021 -11.8220033
H 7.5150021 7.7260022 -11.6440033
H 8.7550025 8.3090023 -12.3230034
O 7.7807240 9.0528407 4.3238681
H 8.3738705 8.3787778 3.9334769
H 7.0454754 9.0474911 3.6889432
O -9.0040025 -14.0890039 9.4230026
H -8.3330023 -13.3780037 9.4250026
H -9.7110027 -13.4770038 9.7710027
O -10.1960029 4.2740012 -9.1590026
H -10.8370030 4.7880013 -9.6700027
H -9.3150026 4.4640012 -9.5100027
O -11.2120031 3.6370010 8.5920024
H -11.7440033 3.0840009 9.2770026
H -11.9220033 4.0920011 8.1000023
O 6.8330019 -16.6130046 -7.2560020
H 5.9480017 -16.5600046 -6.8430019
H 6.6060018 -15.9600045 -7.9390022
O 6.3340018 -15.3370043 9.7070027
H 5.7840016 -14.7640041 9.0960025
H 5.7440016 -15.4750043 10.4430029
O 8.1397924 1.5147357 -8.5170369
H 7.1825757 1.3191846 -8.4996650
H 8.2283844 2.0255777 -7.6848080
O 5.8658461 4.7587611 8.5221202
H 6.7533256 5.1692642 8.4780282
H 5.3276561 5.4719346 8.1168458
O -9.7860027 -15.7380044 -2.7630008
H -9.9170028 -16.2920046 -3.5220010
H -9.5540027 -16.4610046 -2.1290006
O -8.8826112 2.8504620 -5.5152155
H -9.1155785 2.0579261 -4.9785764
H -7.9711255 2.9863500 -5.1682439
O 8.5652136 2.8686797 -6.1711147
H 8.3322678 3.8109514 -6.1128450
H 9.5437680 2.9115862 -6.0637880
O 4.6640013 2.5050007 13.4810038
H 4.5250013 3.2810009 14.0940039
H 4.0210011 2.7230008 12.7690036
O -6.5745629 0.2125165 -3.3620007
H -7.5073135 0.4238292 -3.5643288
H -6.4273767 0.8137661 -2.6003594
O 5.6510016 -17.9360050 -2.4890007
H 5.2880015 -18.8140053 -2.7450008
H 6.5570018 -18.0650051 -2.8280008
O 7.5260444 1.5262157 -0.4579503
H 7.6189636 0.5698290 -0.6148876
H 7.1064083 1.7971084 -1.2959825
O 6.7560019 0.8760002 15.3770043
H 5.9020017 0.8220002 14.8660042
H 6.4240018 0.6070002 16.2550045
O -10.0710028 -14.0290039 0.8400002
H -9.1460026 -14.3240040 0.7170002
H -9.9160028 -13.2600037 1.4380004
O -7.6208776 5.4605931 -1.8162426
H -8.0146659 4.5720795 -1.9448144
H -7.6822076 5.5038356 -0.8360229
O 7.5758984 5.0187068 -1.0477703
H 8.2065786 5.1424795 -1.7877482
H 6.9502619 5.7527732 -1.2149020
O 4.5550013 0.4670001 17.4120049
H 4.2240012 -0.3190001 17.0650048
H 3.9160011 1.0710003 17.0500048
O -14.7900041 -8.5760024 3.9190011
H -14.0980039 -7.8890022 3.9930011
H -15.0050042 -8.6430024 2.9920008
O -9.0983207 3.5540346 4.5709754
H -9.4201448 4.4165451 4.2373215
H -8.1394267 3.7308622 4.5455479
O 8.5360024 -12.5340035 3.8600011
H 8.2790023 -13.3890037 3.5150010
H 9.4600026 -12.6890036 3.8230011
O 4.9670014 5.3870015 -15.9340045
H 5.0950014 6.0170017 -16.7010047
H 4.8040013 4.5080013 -16.3940046
O 7.2915623 7.7788526 0.8779220
H 6.6707117 8.3166365 1.4043173
H 6.7192845 7.4773174 0.1443619
O -7.6531504 -0.5536982 -7.2706551
H -6.8497340 -0.0984940 -6.9305541
H -7.6970261 -0.2599435 -8.2018905
O -12.5660035 -0.9320003 13.8530039
H -12.8280036 -0.5410002 14.7160041
H -11.9100033 -0.2760001 13.5400038
O 8.0900023 -14.8850042 6.8390019
H 8.4810024 -15.7460044 7.0230020
H 7.2300020 -15.2080043 6.4750018
O 10.8500030 1.7360005 -9.0400025
H 10.7060030 1.8080005 -9.9810028
H 9.9540028 1.8780005 -8.7000024
O 6.9690020 3.1440009 11.9030033
H 6.1710017 3.0740009 12.4060035
H 6.7450019 3.9030011 11.4440032
O -9.5560027 -5.0690014 -8.9100025
H -10.4360029 -5.0160014 -8.5200024
H -9.6180027 -5.8300016 -9.5090027
O -9.9760028 -2.4400007 10.6080030
H -10.4180029 -2.7540008 11.4270032
H -10.6950030 -2.4560007 9.9530028
O -7.7610022 15.0020042 9.5160027
H -8.4170024 15.5970044 9.0430025
H -7.5340021 14.2580040 8.9100025
O 8.2130023 -3.5050010 -10.1450028
H 8.3190023 -2.4940007 -9.9980028
H 9.1320026 -3.7610011 -10.1510028
O 6.7487167 -2.7813730 10.1594715
H 7.4365498 -3.4584195 10.1377563
H 6.4540388 -2.7851525 9.2231697
O -9.5320438 -0.1558744 -1.3838354
H -10.1967660 0.4719803 -1.0342344
H -9.1822274 -0.5439249 -0.5632307
O 7.6855774 -1.2368717 -1.0010871
H 8.2513659 -1.2665125 -1.8082627
H 8.2620453 -1.7164796 -0.3618743
O 5.2480015 -0.5880002 13.2170037
H 5.1800014 -1.5190004 13.5770038
H 4.2860012 -0.4540001 13.1810037
O 9.9820028 16.3910046 -2.3540007
H 9.8660028 16.6380047 -3.2340009
H 9.0000025 16.1660045 -2.1850006
O -5.6650016 -17.2870048 -3.1200009
H -5.5430016 -16.5250046 -2.4950007
H -5.9640017 -17.9870050 -2.4690007
O -8.8545738 3.0080975 -1.7062703
H -7.9999070 2.5313628 -1.7516992
H -9.1471145 2.6588160 -0.8351159
O 9.2765144 -2.2948898 0.9018667
H 8.8405753 -2.2033922 1.7786048
H 9.9565703 -1.5927918 0.9467157
O -7.9125119 -0.0636670 -10.0382684
H -8.6131015 -0.4498469 -10.5835367
H -7.1436055 -0.5679249 -10.3804291
O -7.2838060 3.6359180 8.8545335
H -6.9710641 3.5876726 9.7646165
H -7.9211612 4.3733270 8.8952995
O 3.5890010 -17.0990048 7.9110022
H 2.7640008 -16.6180047 7.6460021
H 3.4100010 -17.3370049 8.8200025
O 10.1690028 -0.9610003 -12.5460035
H 10.8010030 -1.6940005 -12.5440035
H 9.3430026 -1.3570004 -12.9730036
O 3.2992375 5.3024580 1.2089344
H 4.2241601 4.9997826 1.3449518
H 3.4391537 6.1557069 0.7450998
O -7.6027362 -3.4238097 -9.8888755
H -8.3639069 -3.8918895 -9.4765506
H -7.7413299 -3.6760228 -10.8244277
O -12.0430034 -1.0570003 8.9840025
H -12.9490036 -0.8400002 8.7670025
H -12.0330034 -1.8260005 8.3530023
O 10.7390030 -4.4290012 -9.6380027
H 10.9140031 -4.9360014 -10.4730029
H 11.6280033 -4.0750011 -9.5440027
O 6.8199069 0.3799811 7.0621338
H 6.1615434 0.1519945 7.7461869
H 6.4608192 1.2406895 6.7677719
O -11.7880033 -4.6510013 -7.5880021
H -11.8370033 -4.6750013 -6.6330019
H -11.9460033 -5.6150016 -7.6880022
O -13.3110037 -5.5620016 9.1120026
H -12.8740036 -6.3110018 9.6840027
H -13.6320038 -6.0550017 8.4220024
O -10.6420030 12.9240036 -9.1070025
H -10.0680028 12.3840035 -8.4330024
H -10.8300030 13.7510038 -8.6870024
O 6.6451919 -4.8930012 -7.8542746
H 7.1100242 -4.5873534 -8.6536222
H 6.0131956 -5.5646582 -8.1943473
O 3.8105941 -4.8591056 8.5203903
H 3.1723485 -4.9909162 7.7921295
H 3.2375429 -5.1158814 9.2719186
O 8.2150023 11.3410032 -9.4320026
H 7.6250021 11.8030033 -8.8030025
H 8.8580025 10.9710031 -8.8150025
O 4.4000012 13.6380038 9.4960027
H 4.6980013 14.4510040 9.0560025
H 4.9390014 13.0030036 9.0300025
O -8.6781441 -3.5031702 -3.3290878
H -8.9039235 -2.8283954 -4.0068195
H -8.3729575 -4.2330732 -3.8865827
O -8.7230024 16.5410046 -3.7780011
H -8.1680023 15.9040045 -3.3440009
H -8.0920023 17.2570048 -4.0160011
O 7.2122378 -3.9955694 -4.0946248
H 7.1200165 -4.7768364 -4.6575353
H 8.1093638 -3.7062332 -4.3589409
O 4.8460014 -2.8390008 14.5830041
H 5.4870015 -2.7300008 15.3260043
H 5.2360015 -3.4460010 13.9320039
O -14.1130039 -3.5230010 2.5330007
H -13.4790038 -3.0120008 1.9700006
H -14.2210040 -2.9430008 3.3090009
O 6.9649553 -4.3850678 2.2908897
H 7.3230789 -3.5687538 2.6922652
H 6.3494094 -4.6923168 2.9769409
O 4.0090011 -6.3100018 17.3370049
H 4.9890014 -6.1510017 17.4520049
H 3.5980010 -5.4850015 17.3630049
O -8.0480023 -2.9720008 -14.8710042
H -8.3590023 -2.7550008 -15.7740044
H -7.2660020 -2.2690006 -14.9330042
O -14.5860041 1.4840004 6.2340017
H -14.6100041 0.7720002 5.5710016
H -13.7870039 1.9780006 5.9790017
O 7.6150021 -1.5980004 -13.4520038
H 6.9060019 -2.2450006 -13.4780038
H 7.1220020 -0.7370002 -13.3990037
O 7.9326844 -1.9457933 3.3057634
H 7.1509839 -1.3549086 3.3328270
H 8.3936727 -1.6084897 4.1023758
O -4.7148130 -4.6442210 -9.3751971
H -3.8393950 -4.2905231 -9.6312789
H -4.5600614 -4.7300002 -8.4111609
O -12.1970034 -3.5130010 7.5250021
H -12.2790034 -4.3650012 8.0670023
H -12.9770036 -3.6080010 6.9170019
O -9.7840027 13.2470037 6.7570019
H -10.3240029 13.3530037 5.9600017
H -9.1750026 12.5720035 6.4440018
O 11.9160033 -6.2570018 -11.2350031
H 11.8690033 -7.1860020 -11.2020031
H 12.8450036 -6.1400017 -11.5510032
O 8.2197753 -4.2842094 6.5573972
H 8.0223638 -5.1801464 6.8804612
H 7.4183387 -3.8029002 6.8582835
O -10.2760029 -11.8380033 -9.2220026
H -9.2900026 -12.0050034 -9.2440026
H -10.5570030 -12.1030034 -10.1500028
O -9.0670025 -8.0200022 8.4920024
H -8.7780025 -8.9550025 8.5210024
H -8.5270024 -7.7570022 9.2340026
O -7.2600020 8.7910025 -8.5890024
H -6.5690018 8.7260024 -9.3020026
H -6.9790020 9.5050027 -8.0830023
O -7.9340022 11.2740032 5.8970017
H -7.2030020 10.7290030 5.5680016
H -8.5710024 10.4940029 5.9940017
O 10.6740030 -9.4060026 -8.7570025
H 11.3760032 -9.1130026 -9.3790026
H 11.1640031 -9.4320026 -7.9000022
O 6.3720018 -8.9250025 9.0580025
H 6.4760018 -9.1380026 10.0390028
H 7.1770020 -8.4310024 8.8880025
O 7.7740022 9.9060028 7.4440021
H 8.4740024 10.3460029 6.9020019
H 7.2080020 9.5390027 6.7460019
O -10.8670030 -7.0520020 -2.2560006
H -11.5920032 -6.3990018 -2.0660006
H -11.3510032 -7.9280022 -2.3890007
O -6.8980019 14.5230041 -2.5090007
H -7.5640021 13.7950039 -2.5240007
H -6.2120017 14.1630040 -3.1120009
O 7.9910022 -6.3160018 -5.8430016
H 7.4650021 -5.9570017 -6.6020018
H 8.8880025 -6.1280017 -6.2350017
O 6.6340019 -5.3830015 14.1920040
H 6.9640019 -5.1720014 13.2980037
H 6.8690019 -4.6150013 14.7450041
O 9.6020027 11.4600032 -5.0760014
H 10.0820028 10.9310031 -4.3720012
H 9.3540026 12.2400034 -4.4800013
O -5.3700015 -7.4170021 -15.2640043
H -5.9770017 -7.8040022 -15.8850044
H -5.1670014 -6.4840018 -15.5930044
O -6.9806872 -4.5984392 -0.4472143
H -6.3264850 -5.2148193 -0.8251300
H -7.7467198 -5.2111312 -0.4292270
O -5.9696402 10.5131203 0.8361411
H -5.8000542 9.9266060 0.0871233
H -5.2192584 11.1471318 0.7370676
O 9.3210647 -4.8989093 -0.1651782
H 9.3684035 -4.0082104 0.2461989
H 9.3310606 -5.4744213 0.6301933
O -9.3640026 -4.7870013 -16.9110047
H -8.7830025 -5.2130015 -16.2570045
H -9.9560028 -4.2460012 -16.3680046
O -9.5155965 -3.5995984 1.5212690
H -9.3086074 -2.6484187 1.5274424
H -9.7448954 -3.7072108 0.5723771
O 9.1915683 -1.2770288 -3.2477316
H 9.5348597 -2.0018154 -3.8144538
H 8.7553342 -0.7014914 -3.9124464
O 11.5960032 14.9860042 -0.5270001
H 10.9700031 15.4230043 -1.1890003
H 11.8800033 15.6830044 0.1380000
O -6.9384244 -6.0685508 -8.1918223
H -7.8267559 -5.9669282 -8.5869784
H -6.4217953 -5.4265766 -8.7129673
O -11.0440031 -6.1870017 6.7710019
H -10.5720030 -5.9080017 5.9870017
H -10.3270029 -6.7530019 7.1180020
O -7.9100022 12.4600035 -6.5980018
H -8.7670025 12.0270034 -6.8770019
H -8.3230023 13.2510037 -6.2500017
O -11.6400033 13.2120037 4.6160013
H -12.1340034 13.5660038 3.8270011
H -12.3260034 12.6730035 4.9060014
O 6.8133138 -6.9602253 5.0470880
H 6.1179266 -6.3539458 4.7280028
H 6.9211644 -7.5322237 4.2608805
O 9.3460026 11.0550031 5.3520015
H 8.6900024 10.4630029 4.8570014
H 10.1530028 10.9060031 4.9280014
O -12.6810035 -3.5610010 -4.9410014
H -13.2700037 -3.2750009 -5.6570016
H -12.0710034 -2.7900008 -5.0460014
O -12.8010036 -7.5120021 11.1000031
H -12.0790034 -7.4020021 11.8190033
H -13.6080038 -7.4470021 11.6060032
O -6.5110018 11.4920032 -4.4060012
H -6.2080017 10.6830030 -4.9430014
H -7.0120020 11.8810033 -5.1340014
O 8.6790024 -7.5080021 -9.7740027
H 9.3230026 -8.2350023 -9.6440027
H 8.5830024 -7.2010020 -8.8670025
O 9.6930027 -5.3660015 9.3480026
H 10.5060029 -5.6990016 8.8710025
H 8.9550025 -5.8210016 8.8700025
O 6.5060018 12.4570035 7.3910021
H 7.2840020 12.8340036 7.8330022
H 6.6620019 11.5030032 7.3670021
O -10.3899219 -3.4775227 -1.0613163
H -10.9486102 -4.1543729 -1.4792058
H -9.7048741 -3.3617218 -1.7541739
O -11.0630031 -7.6730021 13.2180037
H -11.0080031 -7.9920022 14.1470040
H -10.3470029 -7.0150020 13.2100037
O -4.6220013 14.1770040 -4.7490013
H -5.1250014 14.9280042 -4.9980014
H -4.8810014 13.5120038 -5.4680015
O 8.2220023 -9.7200027 -5.1260014
H 8.8390025 -8.9660025 -4.8560014
H 7.3920021 -9.3290026 -5.4560015
O 8.1690023 -5.5450016 11.6100032
H 8.7480024 -5.5720016 10.7880030
H 7.3920021 -5.6580016 11.0620031
O 12.7150036 11.9090033 -6.2800018
H 12.7210036 11.8650033 -5.3210015
H 12.3000034 12.8250036 -6.3560018
O -12.6170035 -9.4280026 -1.9850006
H -13.4090038 -9.7800027 -1.4920004
H -11.9170033 -9.9870028 -1.5710004
O -10.6460030 8.7860025 -2.7820008
H -9.6340027 8.8370025 -2.9380008
H -10.9010031 8.2410023 -3.5520010
O 6.0435799 -10.9995457 0.1807510
H 5.9096975 -10.0377171 0.2544712
H 7.0072648 -11.0587011 0.3836397
O 4.6130013 -9.0710025 15.8540044
H 5.0620014 -8.3710023 15.3110043
H 3.9440011 -8.4340024 16.1230045
O 6.9162676 11.1963567 -0.1467804
H 6.8855916 11.6264323 0.7286807
H 7.8120948 10.8159481 -0.1233509
O 3.0280008 6.6770019 14.5070041
H 3.4710010 6.6380019 13.6560038
H 3.6350010 7.3720021 14.9370042
O -8.5880024 -6.9760020 -10.5810030
H -9.0560025 -7.7180022 -10.9950031
H -7.8320022 -6.8870019 -11.2430031
O -9.1973859 -6.7229605 4.6973656
H -8.7016232 -7.5156561 4.9750501
H -8.5184787 -6.2247447 4.1947789
O -6.8010019 14.0990039 -10.7370030
H -7.4730021 14.1820040 -11.4360032
H -6.8170019 14.9680042 -10.3550029
O -8.6200024 11.6500033 0.8800002
H -7.7970022 11.2520031 0.5000001
H -8.7190024 10.8950030 1.5330004
O 11.9500033 -9.1310026 -11.1190031
H 11.3620032 -9.4300026 -11.7920033
H 12.6280035 -9.8430028 -11.1400031
O 10.1420028 -7.7520022 5.2070015
H 9.7170027 -8.6100024 5.1360014
H 10.6530030 -7.7420022 4.3690012
O 11.5510032 11.9160033 1.3970004
H 11.2650032 12.1610034 0.4450001
H 12.4810035 12.1780034 1.3520004
O -7.4430021 -11.9530033 -9.6600027
H -7.3130020 -12.3150034 -10.5920030
H -7.0970020 -12.6830035 -9.1850026
O -7.6130021 -11.5940032 6.8910019
H -8.4330024 -11.8790033 6.6160019
H -7.5160021 -11.7710033 7.8410022
O -5.4136851 3.7981777 -10.7283514
H -6.2847610 3.3806490 -10.5462371
H -5.0600740 3.8104853 -9.8208605
O -5.0990543 6.0447869 8.5046491
H -5.1138217 6.9199020 8.9223926
H -4.8075776 5.4860060 9.2498142
O 11.8130033 -10.5700030 6.7920019
H 11.3510032 -10.4420029 7.6490021
H 11.1410031 -10.4400029 6.0890017
O 10.7620030 6.5770018 -14.1690040
H 10.6030030 5.8820016 -13.5110038
H 11.3530032 7.2040020 -13.7250038
O 8.5809519 3.3561102 6.1444531
H 7.6562992 3.0662789 6.2921482
H 8.4266322 4.2580120 5.7936566
O -0.8580002 -10.9610031 -10.7280030
H -1.6670005 -10.8770030 -10.1560028
H -0.8370002 -11.9430033 -10.8780030
O -3.9346185 -11.9093105 4.2588063
H -3.2630409 -11.2309773 4.0682006
H -4.1814163 -11.6969147 5.1789001
O -1.8402021 5.2475741 -11.9094589
H -2.2577385 6.1071819 -11.6982452
H -1.0873296 5.5513151 -12.4676564
O -4.3412935 6.3228423 3.5869122
H -4.7672040 7.1532348 3.2911102
H -3.6277960 6.7128620 4.1352313
O 12.9150036 -12.8120036 5.9410017
H 12.2900034 -13.4230038 6.3210018
H 12.7130036 -12.0760034 6.4840018
O 14.9660042 8.3950023 7.2770020
H 15.8770044 8.6920024 7.0880020
H 14.8080041 7.6300021 6.6950019
O 2.5000007 -12.6320035 -10.4220029
H 3.0510009 -12.6090035 -9.6020027
H 1.9140005 -13.3260037 -10.1130028
O 0.5444938 -8.9140544 6.1215076
H 1.3979489 -9.3816393 5.9934654
H -0.0626434 -9.6827193 6.0218284
O 2.5840007 9.5970027 -12.3290035
H 2.7760008 10.3440029 -11.6890033
H 3.3340009 9.7540027 -12.9740036
O 1.1069350 10.0398866 3.3792192
H 0.9098425 10.9973215 3.4024104
H 1.2509971 9.8729697 4.3373213
O 6.3760018 -9.8690028 -12.0080034
H 5.4280015 -10.0060028 -12.4270035
H 6.8960019 -10.5800030 -12.4650035
O 0.4364970 -7.7216540 3.6251769
H 0.4756280 -8.1654505 4.4971754
H 1.2139168 -8.1196522 3.1802764
O 2.6353170 10.3324167 -8.7505622
H 3.1410328 9.5051863 -8.7053766
H 1.8135449 10.0881299 -8.2746238
O 5.0700014 9.2110026 7.3730021
H 5.7230016 9.0370025 8.0830023
H 4.4010012 9.7270027 7.9060022
O -11.8910033 -7.6650021 -12.2760034
H -12.8380036 -7.4200021 -12.3680035
H -12.0420034 -8.6050024 -12.2620034
O -10.8830030 -8.7860025 2.7030008
H -11.2550031 -8.0410023 2.2300006
H -10.9270031 -8.4810024 3.6310010
O -11.0880031 11.4200032 -11.4590032
H -10.5360029 11.8270033 -12.2040034
H -10.9720031 12.0270034 -10.6850030
O -9.9790028 9.7930027 2.9440008
H -10.8190030 10.1990029 2.6590007
H -10.0090028 9.9110028 3.8940011
O 6.4637485 -10.7817062 3.8889941
H 6.7733601 -9.9358509 3.4911413
H 7.1962699 -11.3924032 3.6611012
O 6.7760019 11.4560032 -11.7330033
H 6.1630017 12.2320034 -11.7080033
H 7.2490020 11.6470033 -10.8720030
O 7.3030020 11.6440033 2.6210007
H 6.8080019 12.1090034 3.3270009
H 6.8400019 10.7820030 2.5310007
O -5.7540016 -10.2110029 -11.8610033
H -6.0360017 -9.4190026 -11.3940032
H -5.6020016 -10.8440030 -11.1620031
O -5.2146432 -9.8173733 2.0885292
H -5.8286419 -9.0529081 2.1019791
H -5.7668006 -10.5154606 2.4842973
O -5.7970016 8.0190022 -10.8860030
H -6.1460017 7.2960020 -11.4680032
H -6.3360018 8.6960024 -11.3610032
O -5.5522422 9.7127671 5.6404553
H -5.5296814 9.2891440 4.7571379
H -4.6316102 10.0151395 5.7167395
O 11.5790032 -8.2730023 -0.5820002
H 11.5090032 -9.1210026 -1.0440003
H 11.0400031 -7.5960021 -1.0500003
O 11.7530033 10.8030030 4.1460012
H 11.7630033 11.5460032 3.4660010
H 11.5940032 10.0710028 3.5030010
O -3.1200009 -8.4340024 -10.1370028
H -3.2480009 -9.0860025 -9.5080027
H -4.0560011 -8.1790023 -10.3170029
O -2.6689185 -9.6823933 3.0840509
H -3.5576487 -9.7244640 2.6704591
H -2.1349341 -9.3011929 2.3594831
O -2.8695063 7.8727436 -11.5529597
H -3.8325070 7.8864217 -11.4068975
H -2.7744061 8.4527797 -12.3393992
O -2.9312769 12.3633377 4.1984208
H -3.8393813 12.2614124 3.8268888
H -2.5599139 13.0508028 3.6356529
O 11.8690033 -7.6170021 2.9740008
H 12.4680035 -6.8630019 3.1810009
H 12.5430035 -8.3490023 2.6890008
O 13.4720038 10.7990030 6.1760017
H 13.0670037 10.8480030 5.3130015
H 14.0280039 10.0380028 6.0280017
O -15.8470044 8.9020025 1.6530005
H -16.4250046 8.2570023 1.1150003
H -16.2540045 8.7150024 2.5390007
O 1.9040005 -8.5840024 -12.3950035
H 2.2860006 -7.9500022 -11.7340033
H 1.0940003 -8.1060023 -12.4210035
O -2.2824345 -3.8641338 4.1228889
H -1.6807501 -4.4755209 4.5947220
H -2.0658420 -3.0129487 4.5587673
O 2.0240006 13.4070038 -13.3950037
H 1.9780006 12.7280036 -14.1940040
H 2.2760006 12.8670036 -12.6300035
O 3.0783533 9.6543695 1.4789368
H 2.6574003 10.2961187 0.8671373
H 2.4476912 9.7115706 2.2271693
O -13.7560038 -6.9130019 6.4590018
H -13.8890039 -6.6340019 5.5430016
H -12.7600036 -6.7030019 6.6220019
O -15.2230043 12.0830034 1.8070005
H -15.4620043 11.1670031 1.7550005
H -14.6620041 12.2900034 1.0720003
O 3.9400011 -10.0760028 -13.2540037
H 3.1540009 -9.5340027 -13.0520037
H 4.3300012 -9.5300027 -13.9240039
O 2.3658018 -9.0658286 2.1369237
H 1.9401427 -9.4898431 1.3622729
H 2.9506657 -9.7939748 2.4363690
O 4.7270013 9.2660026 -14.4390040
H 4.8180013 10.2050029 -14.7900041
H 5.6740016 9.0520025 -14.3520040
O 5.6051589 9.3597963 2.5629248
H 4.8345391 9.5412335 1.9809322
H 5.1104664 9.3342110 3.4152123
O -14.8510042 -10.0700028 6.0640017
H -14.2080040 -9.4560026 6.4050018
H -15.0470042 -9.5110027 5.2100015
O -7.4090021 9.3760026 -12.6130035
H -7.3800021 10.2840029 -12.9810036
H -6.6260019 8.9770025 -13.0970037
O -13.3520037 12.9590036 -0.0480000
H -12.4370035 13.0170036 0.1390000
H -13.3200037 13.1620037 -1.0200003
O 3.9090011 -8.8700025 -16.3320046
H 4.5320013 -9.2130026 -16.9830048
H 3.5810010 -9.7440027 -16.0590045
O 3.9072422 -11.1836128 3.1145100
H 4.8484156 -11.0103785 3.3402214
H 3.9129576 -12.1631514 3.0669568
O 5.5241334 5.4341944 -12.3166041
H 6.3245394 5.4140392 -12.8579862
H 5.8726262 5.1901508 -11.4357244
O 6.1330017 13.0420037 4.5460013
H 5.2580015 12.6690035 4.6640013
H 5.8700016 14.0000039 4.3810012
O -4.3173489 -10.6726893 -0.3031496
H -4.5466450 -10.2834801 0.5676658
H -4.2116771 -11.6123702 -0.0460906
O -4.4610012 -11.8770033 14.4810041
H -3.9880011 -11.0380031 14.3200040
H -3.7200010 -12.4300035 14.8540042
O -3.8910011 8.0070022 -16.2830046
H -2.9990008 8.3400023 -16.4600046
H -3.7370010 7.0400020 -16.2350045
O -3.3953626 6.3114293 -0.2878442
H -4.2220634 6.7313142 -0.6050432
H -2.9249604 7.1193692 0.0256806
O 10.0350028 -13.0860037 -0.5340001
H 10.4080029 -13.6520038 0.0940000
H 9.8260028 -13.6880038 -1.2330003
O 12.3770035 9.4940027 -0.6120002
H 12.1200034 10.4290029 -0.7690002
H 12.2560034 9.4610026 0.4060001
O -3.7390010 -13.2150037 0.6890002
H -3.4530010 -13.8580039 0.0080000
H -2.9590008 -13.3020037 1.3260004
O -1.3590004 9.0370025 -16.8340047
H -1.0550003 9.0140025 -17.7900050
H -1.0780003 9.9220028 -16.5890046
O -2.2013332 8.6177401 0.4840745
H -1.6954067 8.4515186 1.3066179
H -1.8158640 9.4664580 0.1900298
O 15.1340042 7.8960022 -0.0410000
H 15.8700044 7.9910022 0.5700002
H 14.9230042 8.8550025 -0.1290000
O -18.5280052 6.2630018 2.4970007
H -17.6520049 6.1360017 3.0200008
H -18.1290051 6.2530018 1.6270005
O -1.0920003 -11.0120031 -15.7360044
H -0.9120003 -11.8220033 -15.2410043
H -0.8310002 -10.4110029 -15.0750042
O -1.8140005 -14.2830040 2.5960007
H -1.3320004 -15.1050042 2.1650006
H -1.8130005 -14.4940041 3.5190010
O 0.3570001 8.9070025 -13.5840038
H -0.4500001 9.4460026 -13.6630038
H 1.0830003 9.4770027 -13.2750037
O 1.6595343 11.0018632 -0.4249230
H 1.7337334 10.2814137 -1.0870484
H 2.1235547 11.7298760 -0.8800644
O 12.9570036 -10.0560028 2.3720007
H 12.6290035 -10.8280030 2.8550008
H 13.7710039 -10.4290029 1.9990006
O 1.8820005 -7.0700020 -16.4330046
H 1.2320003 -7.7590022 -16.6700047
H 2.6680007 -7.6500021 -16.5910046
O -1.8178635 -5.6488544 -2.6340752
H -1.3671143 -5.3318032 -3.4430666
H -2.3914076 -6.3365719 -3.0211410
O 4.0790011 13.1720037 0.8580002
H 4.7820013 13.7710039 1.0330003
H 3.6250010 13.0380036 1.7080005
O 15.0380042 -4.6540013 0.8590002
H 15.2720043 -4.4620012 -0.0140000
H 14.3770040 -5.2910015 0.7770002
O -12.6030035 -5.1850015 -1.4830004
H -12.6020035 -5.0810014 -0.5460002
H -13.3480037 -4.5910013 -1.7730005
O -10.8540030 8.4970024 -0.1070000
H -11.0580031 8.5790024 -1.1010003
H -11.3940032 9.2610026 0.2450001
O 5.4700015 -6.5940018 -16.5050046
H 5.1370014 -7.4710021 -16.2600046
H 4.8370014 -6.3650018 -17.2230048
O 7.9550045 -9.3650849 -1.7054115
H 7.4113872 -8.9880250 -0.9898103
H 7.8931216 -8.6558402 -2.3777910
O 7.4230021 15.6750044 -2.1520006
H 6.9910020 14.7950041 -2.1810006
H 7.2850020 15.8850044 -1.1540003
O -6.8231584 -7.6453467 2.5116487
H -7.2398058 -6.7804137 2.3304865
H -6.0660454 -7.3424741 3.0579884
O -4.3505877 11.7896749 -2.4991088
H -3.5514496 11.6016685 -3.0314161
H -5.0527069 11.7273073 -3.1684432
O 7.8999341 -7.0991911 -3.2733490
H 7.9895315 -6.8426240 -4.2228762
H 8.6745616 -6.6466507 -2.8903030
O 9.8130027 -2.0280006 12.7670036
H 9.0650025 -1.5500004 12.3180034
H 9.7580027 -1.5340004 13.6710038
O 9.3548535 8.4971183 -0.8313998
H 9.5909368 9.2183778 -0.2088537
H 8.6140034 8.1110527 -0.3257958
O -6.4850018 -12.6270035 -1.4980004
H -7.3370021 -12.1580034 -1.6780005
H -5.9750017 -12.4050035 -2.3240007
O -7.3780021 -7.9480022 15.9800045
H -7.7090022 -8.8570025 15.8840044
H -7.9140022 -7.6400021 15.2910043
O -3.3591899 8.4218224 -3.2819890
H -3.9664020 7.8814095 -3.8324224
H -3.8435463 8.4041507 -2.4421776
O -7.8410022 9.2650026 14.2530040
H -7.8790022 9.4620026 15.1970043
H -7.8640022 8.2950023 14.3040040
O 10.4430029 -8.6420024 -3.7960011
H 10.4460029 -9.2780026 -3.0840009
H 10.3850029 -7.8080022 -3.3560009
O 12.9460036 8.6840024 -4.3160012
H 12.0610034 8.5070024 -4.0430011
H 13.4290038 8.0440023 -3.7950011
O -9.8060027 -6.8160019 -5.4200015
H -9.0520025 -6.1820017 -5.4030015
H -10.4060029 -6.5170018 -4.7250013
O -7.4190021 -7.8320022 10.9260031
H -6.5220018 -7.8810022 11.2720032
H -7.7930022 -7.2770020 11.5720032
O -5.7583225 9.4093932 -6.0324186
H -5.5699174 8.6365324 -5.4520392
H -5.1610658 9.1709347 -6.7706479
O -7.6260021 11.2030031 9.0480025
H -7.3410021 11.8850033 8.3460023
H -7.2380020 11.6220033 9.8260028
O 12.8000036 -6.6760019 -6.8830019
H 13.7730039 -6.9340019 -6.8100019
H 12.4150035 -7.5870021 -6.6120019
O 10.5330029 10.7380030 -7.5680021
H 11.3300032 11.2270031 -7.8300022
H 10.3610029 10.9930031 -6.6430019
O 8.4060024 12.9940036 9.4440026
H 9.2060026 12.5560035 9.8910028
H 8.3760023 13.7000038 10.0700028
O -13.3720037 6.6340019 -0.5010001
H -13.9190039 7.2090020 -1.1490003
H -12.7400036 6.1660017 -1.0230003
O -0.7367809 -8.9981075 -1.2746545
H -1.0373402 -8.5436530 -0.4607586
H 0.0143889 -9.4887636 -0.8843639
O -2.3570007 -10.6970030 13.4100038
H -2.0530006 -11.6290033 13.5500038
H -1.7030005 -10.0890028 13.7720039
O -1.1387833 11.0990958 -0.2402632
H -1.0496789 11.8070067 -0.9102193
H -0.1882661 10.9860070 -0.0370248
O -1.5900004 11.1710031 14.4090040
H -0.9930003 11.7810033 14.8080041
H -2.2520006 10.9010031 15.1770042
O 15.3930043 10.3240029 -2.8200008
H 15.7090044 9.3920026 -2.9950008
H 15.5840044 10.4430029 -1.8650005
O -17.0060048 -8.4730024 -2.0390006
H -17.0330048 -8.5470024 -3.0050008
H -16.0980045 -8.0500023 -2.0280006
O -13.4830038 10.5850030 -2.9220008
H -12.5260035 10.4120029 -2.9750008
H -13.6250038 11.5390032 -3.0810009
O 4.0646972 -8.6191261 -1.6046393
H 4.3925832 -8.1882981 -2.4254494
H 3.1437636 -8.3288172 -1.6021597
O 2.0040006 -7.6460021 15.7080044
H 2.6630007 -6.9610019 15.9030045
H 1.3120004 -7.6910022 16.3690046
O 6.4750018 13.3350037 -1.8570005
H 6.4480018 12.6170035 -1.2110003
H 6.0380017 12.8680036 -2.6220007
O -11.4830032 -8.8050025 -5.0370014
H -12.0610034 -8.0510023 -4.9750014
H -10.6880030 -8.3000023 -5.4380015
O -10.2100029 10.9980031 -6.8950019
H -10.8920030 10.4410029 -7.2530020
H -9.6730027 10.3950029 -6.3840018
O 5.2495288 -7.3331649 -3.7024144
H 5.3010783 -7.6987987 -4.6067693
H 6.2075039 -7.2374112 -3.5069732
O 1.7764710 -5.7803977 10.1635658
H 1.0419586 -5.1376217 10.0564994
H 1.4469062 -6.5364675 9.6320884
O 5.3390015 13.2920037 -4.8190013
H 5.0880014 12.4900035 -5.2750015
H 4.7640013 13.9100039 -5.3040015
O 2.3180006 10.2840029 14.0620039
H 2.5490007 11.1390031 13.6690038
H 2.7610008 10.3700029 14.9140042
O -7.4860021 -9.9090028 -4.8330014
H -7.5680021 -9.9240028 -5.8070016
H -7.9290022 -10.7490030 -4.6030013
O -8.8970025 -12.0910034 12.6900036
H -9.7970027 -12.0580034 12.2850034
H -8.3750023 -12.2250034 11.8810033
O -2.6123250 6.4587153 -6.0858218
H -2.5501567 5.7116310 -5.4524911
H -1.7962218 6.9599661 -5.8690900
O -8.1780023 6.6270019 15.1950043
H -8.8730025 6.6060018 15.8090044
H -8.7100024 6.5110018 14.3940040
O 7.5790021 -11.9280033 -6.7680019
H 6.8250019 -11.5260032 -7.2030020
H 7.7770022 -11.2220031 -6.1330017
O 10.8580030 5.8230016 -6.1080017
H 10.2840029 6.5110018 -6.4670018
H 11.7480033 6.0070017 -6.3890018
O -3.6909773 -4.7329409 -6.8317914
H -4.1284816 -4.5747464 -5.9671689
H -3.1328412 -3.9390523 -6.9064270
O -5.0800014 -7.7070022 12.0540034
H -4.3330012 -8.0290022 11.4460032
H -4.5720013 -7.3000020 12.7540036
O -3.8952295 10.7224452 -8.4973895
H -3.8265856 9.7463602 -8.5566731
H -3.8562372 11.0129610 -9.4308235
O -5.9090017 12.0580034 11.0460031
H -5.8470016 11.4150032 11.7990033
H -5.0770014 11.9600033 10.5520030
O 15.9380045 -6.9120019 -8.1570023
H 15.7880044 -6.3230018 -8.9230025
H 16.6370047 -6.4960018 -7.6310021
O 11.8990033 -7.6500021 10.8090030
H 11.8190033 -7.8810022 9.8870028
H 12.7600036 -7.2190020 10.8010030
O 10.9910031 11.9890034 9.6780027
H 11.3290032 11.1290031 9.4020026
H 11.3310032 12.0300034 10.5990030
O -1.1438896 -8.7513736 -4.2258971
H -2.0152473 -8.3301150 -4.1293602
H -0.7956307 -8.6619370 -3.3183924
O -2.6240099 -4.8258767 10.7376088
H -2.3448659 -5.1453788 11.6192434
H -1.8250166 -4.3261034 10.4677254
O -0.2021665 13.1625727 -1.8659389
H 0.5396917 13.3789449 -1.2562039
H 0.2610379 12.8148205 -2.6515570
O 15.9160045 -6.6980019 -4.6690013
H 15.4380043 -5.8180016 -4.8200013
H 15.3830043 -6.9350019 -3.8810011
O 9.2150026 -8.5960024 14.5960041
H 9.0730025 -9.4510026 14.2750040
H 9.3310026 -8.1740023 13.7020038
O -17.0560048 7.9180022 -6.1490017
H -16.4260046 7.3550021 -5.7440016
H -16.6480047 8.8070025 -6.1490017
O 2.4006082 -9.3734231 -6.8781784
H 1.8562834 -9.5287938 -7.6798250
H 2.4738626 -8.3982433 -6.9404332
O -1.9004810 -11.1816089 9.1195620
H -1.6014156 -11.8588462 8.4828438
H -2.1333224 -10.4445105 8.5137770
O 2.5961753 10.1751393 -4.5045684
H 1.8805725 10.8452396 -4.4653222
H 3.1907544 10.5901749 -5.1660267
O 1.2840004 11.4190032 11.1520031
H 0.5900002 11.1570031 11.7820033
H 1.8410005 10.6000030 11.1210031
O -10.1590028 -10.9930031 -3.8910011
H -10.9080031 -11.6380033 -3.8370011
H -10.7320030 -10.2350029 -4.1600012
O -11.3070032 6.6050018 -4.7410013
H -10.7060030 6.1910017 -5.4150015
H -11.1660031 5.8980017 -4.0990011
O -12.2470034 5.9810017 11.6920033
H -12.8640036 5.2250015 11.8720033
H -12.8070036 6.7470019 11.4460032
O 9.2770026 -12.9260036 -4.6940013
H 8.6780024 -12.5130035 -5.3030015
H 8.9000025 -13.7660039 -4.7150013
O 3.3390009 -9.7610027 12.7000036
H 4.0020011 -10.1450028 12.1090034
H 3.9620011 -9.2610026 13.2640037
O 6.6516935 9.2220994 -4.0380524
H 5.8297630 8.7116723 -4.2028810
H 7.3313878 8.5170821 -4.1323851
O 7.9660022 11.7810033 12.8410036
H 7.0690020 12.1630034 12.6700035
H 7.7870022 11.0550031 12.1820034
O -5.5169662 -8.3113641 -8.7177856
H -6.1040473 -7.5320063 -8.5933958
H -4.7965243 -8.0750518 -8.0931564
O -7.7614318 -9.0879284 5.5657371
H -7.9456930 -9.4780379 4.6839821
H -7.6195109 -9.9096892 6.0804498
O -4.3060012 12.6650035 -10.5150029
H -3.8570011 13.4720038 -10.1190028
H -5.2240015 12.9370036 -10.5240029
O -3.9005735 10.2093791 8.6373289
H -3.7809912 11.1502165 8.8826670
H -3.7485714 10.2728119 7.6746343
O 13.5740038 -8.3370023 7.2710020
H 12.9980036 -8.9180025 6.6880019
H 13.8640039 -8.9530025 7.9410022
O 10.6730030 7.5020021 8.1240023
H 11.2130031 6.9390019 7.6040021
H 11.0630031 8.4060024 8.0900023
O -1.3143652 -9.1194701 -7.0354356
H -1.1109854 -9.0132850 -6.0861847
H -2.0812187 -8.5225572 -7.1281965
O -2.3170006 -8.9610025 11.2540031
H -1.4110004 -9.1560026 11.0030031
H -2.3860007 -9.5790027 12.0440034
O -4.0610016 8.0352587 -7.8727328
H -3.9679562 7.4207666 -8.6170164
H -3.5825703 7.5370661 -7.1750253
O -2.7034984 10.4456950 6.1067088
H -2.7716971 11.1544742 5.4237500
H -1.9646314 10.7938315 6.6386240
O 14.2380040 -6.1100017 10.3710029
H 15.0380042 -6.1350017 10.9100031
H 14.0000039 -5.1690014 10.2130029
O 12.2030034 9.8900028 8.5920024
H 12.4180035 10.1900029 7.6800021
H 13.0350036 9.5570027 9.0790025
O -5.3120015 -11.8790033 -6.7480019
H -5.0120014 -12.3440035 -7.4980021
H -5.9740017 -11.2950032 -7.1990020
O -5.7920016 -13.6140038 12.4840035
H -5.1840015 -13.4260038 11.7520033
H -5.4840015 -12.8670036 13.0970037
O -2.2339919 4.1383669 -4.5793789
H -2.8580611 3.8438373 -3.8763387
H -1.3733945 3.9005489 -4.1859070
O -4.8950014 8.4260024 10.5160029
H -4.5230013 8.9270025 9.7600027
H -5.3150015 9.0860025 11.0520031
O 9.9370028 -11.0980031 9.4260026
H 10.5550030 -11.8210033 9.4730027
H 9.1310026 -11.6300033 9.1330026
O 13.0860037 9.2060026 -9.4280026
H 12.9400036 8.9830025 -8.5150024
H 14.0260039 9.0670025 -9.4880027
O 11.9690033 8.7900025 11.8260033
H 12.3960035 8.0680023 11.4240032
H 12.4010035 8.7940025 12.6940036
O -12.5720035 -7.1800020 -7.9840022
H -13.3660037 -7.5500021 -7.5330021
H -12.1830034 -8.0230022 -8.3260023
O -14.1610040 8.7110024 8.0260022
H -14.2950040 9.1020025 8.9490025
H -13.3070037 8.2040023 8.0930023
O 9.1500026 -10.3610029 -10.8170030
H 8.2560023 -10.1020028 -10.4610029
H 9.7320027 -10.0960028 -10.1320028
O 2.7244495 -10.4760872 5.5126150
H 3.4114564 -10.0971412 6.1075073
H 3.2104585 -10.4927318 4.6639882
O 5.8245199 9.4197778 -8.3270784
H 5.6916636 8.5783022 -7.8481185
H 6.5513340 9.8143507 -7.8071985
O 3.5910010 10.6670030 8.9460025
H 3.0740009 11.3470032 9.3850026
H 3.2510009 9.9020028 9.4070026
O -10.7540030 -9.3790026 5.9810017
H -11.4240032 -9.1310026 6.6350019
H -10.0170028 -8.9930025 6.5080018
O -11.6120032 6.6380019 -9.8680028
H -10.9440031 7.2240020 -9.4600026
H -12.1320034 6.4380018 -9.0910025
O -13.4140038 8.3310023 4.5310013
H -14.2630040 8.8130025 4.4260012
H -12.8510036 9.0370025 4.8320014
O 6.1530508 -11.5593798 6.6282651
H 5.6387895 -10.7401496 6.8066000
H 6.2246999 -11.4972988 5.6567938
O 6.4690226 4.3966222 -9.9339088
H 6.1131380 4.2668325 -9.0352011
H 7.3406590 4.7960332 -9.7120915
O 4.2895191 6.5571584 7.1746049
H 4.6486435 7.4566276 7.0516256
H 3.6256090 6.7566445 7.8728555
