3329
4-thiothymidine S0-MIN; verbatim full 3329-atom QM/MM coordinates from ACS SI
N 0.7137070 -0.2919442 -0.9292911
C -0.3009513 -0.2934957 -1.9361297
C -0.3728471 0.6880117 -2.8481644
C 0.5810925 1.7827077 -2.7623278
N 1.5658123 1.6527412 -1.8129100
C 1.7407284 0.6026622 -0.9968964
C -2.1376402 -1.2330345 1.6914739
H -2.8298013 -1.3782627 0.8590294
H -2.6486953 -1.5015403 2.6189204
C -0.8979719 -2.1229844 1.5246234
H -1.2114829 -3.1440867 1.7363507
O -0.4116697 -2.1360006 0.1633442
C 0.8180581 -1.3849193 0.1075167
H 1.6338982 -2.0862274 -0.1890646
H -0.9914425 -1.1140478 -1.9393641
C -1.4125521 0.6460827 -3.9301481
H -2.0666439 1.5037363 -3.8594098
H -0.9388744 0.6491868 -4.9028812
H -2.0205381 -0.2399870 -3.8466682
H 2.0897495 2.5412978 -1.5390535
O 2.7908173 0.4434506 -0.3709970
C 0.2456419 -1.7161351 2.4386698
H -0.0962782 -1.1525666 3.3080004
C 1.1006047 -0.8510606 1.5378664
H 0.7244722 0.1732041 1.6103589
O 0.9246344 -2.8877971 2.9491881
O 2.5060318 -0.7954594 1.8629908
H 2.8726878 -0.2890794 1.0750109
H 0.9844094 -3.5734794 2.2385781
O -1.8453787 0.1631714 1.7725555
H -2.6386222 0.5531035 2.2202855
S 0.5949954 3.1205199 -3.7748100
O -13.2220037 2.3610007 -3.2990009
H -13.2790037 2.6980008 -4.1580012
H -14.1220040 2.0690006 -3.0750009
O 1.2560004 -15.7570044 -1.4500004
H 0.9160003 -15.7940044 -2.3930007
H 0.5620002 -15.1610042 -1.1050003
O 4.3309380 -3.2369633 0.1596138
H 4.7167318 -3.0754825 -0.7285930
H 4.1234910 -4.1796388 0.0709313
O 3.0790009 2.5840007 16.4080046
H 3.6480010 3.3420009 16.1760045
H 2.2090006 2.9160008 16.3270046
O 1.8570005 19.4680054 -2.9100008
H 1.0590003 18.9360053 -2.9230008
H 2.5190007 18.9570053 -3.4510010
O -15.6390044 0.8660002 -2.5550007
H -16.3330046 0.5060001 -2.0000006
H -16.2250045 0.9490003 -3.3350009
O 3.5110010 -14.7870041 0.0920000
H 2.7030008 -15.1600042 0.4820001
H 3.3340009 -15.1010042 -0.8120002
O 2.2820006 0.2210001 -19.1820054
H 2.3510007 0.7400002 -18.3970051
H 2.0940006 -0.7160002 -18.8820053
O -8.0660023 -16.6670047 1.8350005
H -8.3200023 -17.4640049 1.3500004
H -8.0450023 -15.9360045 1.1740003
O -6.9277330 3.2498441 2.0989777
H -7.1843154 4.0185386 1.5515482
H -6.7034085 3.7064816 2.9311272
O 11.1975694 -0.2623201 0.8561831
H 11.6767930 -0.7404851 1.5714413
H 11.2429674 0.6420024 1.1925102
O -14.4160040 3.3100009 -0.3490001
H -13.4700038 3.5680010 -0.3200001
H -14.8050041 3.4420010 -1.2650004
O 7.3190020 -14.5080041 -1.1390003
H 6.8100019 -14.4100040 -0.3040001
H 7.2660020 -13.5580038 -1.5450004
O 7.9200022 0.9820003 -17.6480049
H 8.0760023 0.0290000 -17.4910049
H 8.8040025 1.3000004 -17.3330049
O 2.4699294 3.8988323 -0.9618885
H 2.8888440 4.2502837 -0.1426087
H 1.9685781 4.7040336 -1.2396816
O 0.9796646 0.3629280 11.3243881
H 0.0947404 0.3765548 11.7379564
H 0.8742816 1.0880581 10.6615151
O -2.3940007 -14.7170041 -1.4440004
H -1.8350005 -15.4330043 -1.8090005
H -1.7480005 -14.1310040 -0.9410003
O -3.6560010 5.1860015 -17.6390049
H -3.6850010 4.3930012 -18.2250051
H -3.7500010 4.9520014 -16.7040047
O -6.3779951 1.9383103 -1.1970492
H -5.8640560 2.6948040 -0.8442869
H -6.2308918 1.2880584 -0.4766411
O 10.8570030 -15.2270043 -2.7490008
H 11.7160033 -15.1520042 -2.2770006
H 10.9020031 -14.5920041 -3.4690010
O 13.3630037 3.8550011 1.6850005
H 13.4890038 2.9280008 2.1630006
H 14.2750040 4.1680012 1.5700004
O -9.1775462 -1.7344254 -5.3458923
H -8.5521781 -1.3286429 -5.9863995
H -9.9467402 -1.8601998 -5.9462977
O -8.9420025 -5.9920017 12.3410035
H -8.6070024 -5.6600016 13.2350037
H -8.5070024 -5.3400015 11.7390033
O 9.7467793 -3.3967256 -5.0030547
H 10.5872484 -3.8875290 -4.9136531
H 9.8095873 -3.1409249 -5.9505684
O 9.7860027 0.1920001 14.5570041
H 8.8640025 0.3450001 15.0050042
H 9.7020027 0.9100003 13.8840039
O -4.5520013 0.3510001 -18.6490052
H -4.7830013 -0.5720002 -18.8840053
H -3.6500010 0.4980001 -19.0090053
O -8.8991906 1.8620304 0.8112703
H -8.1831732 2.2771474 1.3373588
H -8.7561379 0.9200584 0.9950505
O 8.5450024 -1.4890004 -16.5020046
H 9.2190026 -2.2050006 -16.6950047
H 8.2660023 -1.7790005 -15.5900044
O 10.8377455 0.4586112 -1.9046238
H 10.2778187 -0.2424793 -2.2996891
H 10.9538805 0.1384035 -0.9894974
O -18.7610053 -6.3820018 -1.4570004
H -18.3970051 -7.2910020 -1.4930004
H -18.0480051 -5.8470016 -0.9820003
O -11.7105016 4.2110832 -0.6083269
H -11.5058133 3.2549204 -0.5033081
H -11.4098376 4.3444988 -1.5275234
O 1.0994474 -10.5337005 0.1584725
H 0.6910334 -11.1045659 0.8475013
H 1.3633815 -11.1918085 -0.5094198
O 0.7327302 5.4708768 2.3272332
H 0.1995224 5.3260302 1.5141520
H 1.6460397 5.3884485 1.9702049
O 0.6400002 6.1370017 17.3010048
H 0.3720001 6.3830018 18.1220051
H 1.4950004 5.7600016 17.5540049
O -16.8320047 3.3460009 1.1310003
H -17.4500049 3.7350010 0.5020001
H -16.0480045 3.2180009 0.5580002
O 1.8020005 -18.0550051 1.7210005
H 2.0870006 -17.7560050 2.5900007
H 1.6380005 -19.0430053 1.9460005
O 0.1790001 3.1610009 -17.0310048
H 0.0250000 4.0810011 -17.4470049
H 0.7140002 3.4640010 -16.2400045
O -1.0174851 4.8833669 0.2302437
H -1.2548807 3.9333510 0.1165913
H -1.8926643 5.3074544 0.1130781
O 17.7410050 1.7230005 -1.9780006
H 18.3480051 1.1930003 -2.4890007
H 17.0520048 1.1080003 -1.7660005
O -6.5590018 -6.9800020 -12.4030035
H -5.9000017 -6.2920018 -12.4010035
H -6.2540018 -7.6100021 -13.1090037
O -7.7669734 -5.0772897 3.0457472
H -7.3768065 -4.3084054 3.5098311
H -8.3075480 -4.6100865 2.3721673
O -6.9880020 11.7150033 -13.8220039
H -6.9770020 12.4740035 -13.3070037
H -6.1750017 11.7680033 -14.2810040
O -7.5300021 16.3790046 -0.7660002
H -6.8580019 15.8030044 -0.3520001
H -7.4810021 15.8290044 -1.6200005
O 9.3880806 -6.6850612 1.9809772
H 10.2578773 -7.0449052 2.2396650
H 9.2294288 -6.0459329 2.7069747
O 10.9890031 12.2640034 -1.2580004
H 10.7160030 13.1540037 -0.9770003
H 10.6630030 12.2160034 -2.1780006
O -15.0590042 -3.7000010 -1.5480004
H -15.7440044 -3.6270010 -2.2360006
H -15.0710042 -2.6890008 -1.2730004
O 2.2470006 -2.2720006 -18.1530051
H 1.8080005 -3.1660009 -17.9430050
H 2.9350008 -2.5990007 -18.7430052
O 3.1930199 -6.3762494 1.9848546
H 2.9484005 -7.3227355 1.9550528
H 2.3411959 -5.9456155 1.7691484
O -0.0380000 -4.3410012 17.5470049
H 0.2170001 -4.4020012 16.6370047
H -0.8050002 -4.9430014 17.6360049
O 3.5720010 17.8050050 -4.1120012
H 4.5470013 17.7970050 -4.1570012
H 3.4240010 16.9230047 -3.6500010
O -2.7680008 -5.8890016 -17.9160050
H -1.9280005 -5.6120016 -18.3510051
H -2.7260008 -6.8960019 -18.0800051
O -5.4458837 -6.6926397 -1.4670153
H -5.7655601 -6.8981168 -2.3692879
H -5.7933099 -7.4934617 -1.0184009
O -7.7830022 -4.7940013 14.3360040
H -7.4310021 -4.8730014 15.2010043
H -7.2610020 -3.9900011 14.1550040
O -3.8890011 15.0050042 -2.1220006
H -4.1890012 15.9380045 -2.2300006
H -4.2450012 14.5910041 -2.8410008
O 15.2830043 -2.7450008 -4.4390012
H 15.8410044 -1.9120005 -4.3270012
H 14.4610040 -2.5930007 -3.9380011
O -14.7820041 -7.0280020 -2.1460006
H -14.5000041 -6.6220019 -1.3420004
H -14.0330039 -7.5740021 -2.2810006
O -13.0630037 13.3900037 -2.9660008
H -12.4810035 12.9610036 -3.6420010
H -13.2990037 14.1460040 -3.5320010
O 4.4432012 -5.4920191 -1.7703500
H 5.2657934 -5.4881260 -1.2352004
H 4.7148924 -6.0587622 -2.5194427
O 2.8160008 -1.7670005 16.3250046
H 2.9320008 -2.1720006 17.2220048
H 3.2180009 -2.3680007 15.6650044
O 6.1610017 17.4020049 -3.8660011
H 6.4530018 16.6980047 -3.2620009
H 6.3600018 17.0880048 -4.7370013
O -4.9510014 -2.3400007 -18.9020053
H -5.3340015 -3.1830009 -18.9740053
H -4.4070012 -2.4870007 -18.1140051
O -8.4090262 -0.9814792 1.1819448
H -8.2327081 -0.7635659 2.1225840
H -7.5919344 -1.4818405 0.9756977
O -4.1510012 19.0830053 0.4430001
H -3.8220011 19.3080054 -0.4300001
H -5.1130014 19.2780054 0.3800001
O 12.7100036 0.2510001 -4.0510011
H 12.5370035 -0.7410002 -3.7980011
H 12.0320034 0.6590002 -3.5060010
O -2.2080006 -18.0080050 -0.3020001
H -2.7660008 -18.8190053 -0.1540000
H -2.2990006 -17.7980050 -1.3060004
O -3.7576007 -2.3273514 -1.4601801
H -3.7251667 -3.1783715 -0.9735725
H -4.6487490 -2.3978625 -1.8736247
O -7.1420020 -1.3160004 17.3150048
H -6.4210018 -1.6400005 16.8060047
H -7.8430022 -1.1380003 16.5990046
O 18.1500051 -2.2520006 -1.7830005
H 18.9000053 -1.7270005 -1.6350005
H 17.9500050 -1.8280005 -2.6090007
O -7.7920022 -4.1490012 -12.5320035
H -7.8490022 -3.5440010 -13.2920037
H -8.6080024 -4.8160013 -12.6390035
O -9.8219640 -2.5497481 6.5647066
H -10.2830373 -1.7639163 6.2073465
H -10.5908994 -3.0668559 6.8800423
O -9.5630027 13.9430039 2.8650008
H -10.2170029 14.7090041 2.9770008
H -9.9800028 13.2980037 3.4970010
O 9.0130025 -4.6630013 -13.2630037
H 8.4100024 -4.7070013 -14.0780039
H 8.6090024 -5.3950015 -12.7530036
O 9.5398550 -5.1270690 4.2526052
H 8.9807892 -4.6501084 4.8992977
H 9.7536285 -5.9274686 4.7643139
O 8.8020025 16.7050047 4.7590013
H 7.8470022 16.7150047 4.4780013
H 8.9110025 15.7470044 4.8090013
O -3.5270010 -3.7980011 -14.1270040
H -2.6640007 -4.3430012 -14.1830040
H -4.0620011 -4.3400012 -13.5190038
O -4.9098890 -6.5688313 4.1461500
H -4.9155912 -5.6574714 3.7910079
H -5.3471236 -6.4801593 5.0144127
O -7.1440020 13.9400039 1.8020005
H -7.4750021 13.3210037 1.1560003
H -7.9300022 13.9510039 2.4060007
O 13.7900039 -5.3760015 -2.4890007
H 13.2940037 -5.6660016 -1.6650005
H 14.6620041 -5.1250014 -2.1140006
O 14.0230039 13.0250036 0.8850002
H 14.7370041 13.4770038 0.4480001
H 13.9180039 13.6090038 1.6030004
O -15.9460045 4.4580012 -2.4050007
H -16.4020046 3.9350011 -3.1320009
H -15.1900043 4.9850014 -2.7210008
O 2.2180006 -16.9780048 -5.1200014
H 1.8810005 -17.1470048 -6.0190017
H 2.2420006 -17.8190050 -4.6700013
O -0.0560000 -13.6800038 12.4980035
H 0.0220000 -14.4210040 13.1220037
H 0.8500002 -13.2740037 12.7570036
O -0.0350273 3.6392843 12.6699197
H 0.1449814 4.3857969 13.2828771
H -0.9915723 3.5030195 12.7643883
O -18.5520052 2.9300008 3.7940011
H -17.9840050 3.1780009 3.0810009
H -18.0630051 2.1400006 4.1940012
O -4.8240014 -16.7640047 0.4300001
H -4.8370014 -16.2180045 1.2170003
H -4.0400011 -16.4990046 -0.0160000
O -1.8070005 1.5020004 -17.4900049
H -2.0570006 1.2400003 -16.5590046
H -1.0580003 2.1260006 -17.4290049
O -2.5110007 19.0510053 2.6990008
H -3.1350009 19.1360054 1.8620005
H -3.0680009 19.3230054 3.4840010
O 16.4920046 3.9830011 3.3480009
H 17.3590049 3.7670011 2.8630008
H 16.4560046 4.8620014 2.8930008
O -14.8940042 -5.6620016 0.6570002
H -15.1510042 -4.9500014 0.0880000
H -14.7850041 -5.1440014 1.5240004
O 6.6307038 -5.5393676 -0.1399027
H 6.6340118 -5.0993654 0.7436816
H 7.5412243 -5.3157098 -0.4167264
O -5.2010015 -4.9240014 -18.4350052
H -5.4200015 -4.8350014 -17.5020049
H -4.4080012 -5.4010015 -18.3160051
O -6.0903671 -2.5135227 1.0428632
H -5.5752917 -3.0636881 1.6671178
H -6.4238891 -3.2282587 0.4465160
O -3.0720009 14.7530041 0.9880003
H -3.0890009 13.8330039 0.7280002
H -3.0300008 15.1750042 0.1050000
O 13.4170038 -2.4810007 -0.9530003
H 13.3060037 -3.3940009 -0.5410002
H 13.4510038 -1.9040005 -0.1890001
O -5.7220016 -15.3570043 2.6700007
H -6.0890017 -14.4810041 2.6190007
H -6.4090018 -15.8680044 2.2550006
O -4.2250012 5.3950015 -15.0470042
H -4.6400013 4.6080013 -14.5650041
H -3.2600009 5.2460015 -14.8950042
O -3.7591438 3.8587196 2.4027723
H -2.8241577 3.7789640 2.6899493
H -3.9916339 4.7301693 2.7900478
O 11.8810033 -14.1840040 2.1090006
H 11.3470032 -14.9260042 2.4310007
H 12.7990036 -14.5440041 2.0890006
O 16.6280047 8.2530023 3.2120009
H 17.4000049 7.7030022 3.2600009
H 17.1360048 9.0680025 3.3800009
O -6.3231637 3.2834549 -4.5037239
H -5.5660043 3.1474777 -3.9067404
H -5.9817606 3.9606089 -5.1174317
O -9.5660027 6.5370018 12.7180036
H -9.0680025 7.1420020 12.0870034
H -10.4390029 6.5470018 12.2640034
O 12.9370036 -13.8750039 -4.1800012
H 13.7530038 -13.9040039 -3.6610010
H 12.8400036 -12.8940036 -4.3910012
O 10.8965956 2.9723554 -2.9716296
H 11.5864699 3.2192190 -2.3205863
H 10.6666585 2.0858814 -2.6182195
O 7.2780020 3.6230010 15.3510043
H 7.1360020 3.9330011 16.2500045
H 6.9940020 2.6930008 15.4460043
O -14.5390041 -10.2520029 -0.3070001
H -14.8730042 -9.5330027 0.2280001
H -14.9120042 -10.9050031 0.3420001
O -9.7018597 6.1001119 3.7086843
H -10.2618581 6.0260622 2.9046275
H -9.0009206 6.6815725 3.3646092
O 7.7580022 -14.8240041 2.3460007
H 7.1890020 -15.5800044 2.3960007
H 7.0310020 -14.1660040 1.9950006
O 5.7813610 7.1030365 -1.4184296
H 4.8860549 7.2197875 -1.0293515
H 5.6332253 7.4574783 -2.3067687
O -10.9979689 -5.6106894 2.8538996
H -10.5143221 -4.9003319 2.3872917
H -10.3150442 -5.9537922 3.4599793
O -10.3060029 13.4760038 -0.2670001
H -10.6470030 14.0130039 0.4880001
H -9.7410027 12.7630036 0.1930001
O 7.1992783 -8.3964979 2.6768900
H 6.7301086 -8.3380334 1.8204089
H 8.0597810 -8.0058906 2.4240718
O 9.0340025 14.7620041 1.9870006
H 9.9980028 14.9100042 1.8300005
H 9.0750025 14.2920040 2.8740008
O -17.4190049 7.3950021 -0.0480000
H -16.8920047 7.8060022 -0.7210002
H -18.1870051 8.0560023 -0.0930000
O -0.4460001 -9.1550026 -17.4820049
H -0.4360001 -9.8370028 -16.7780047
H -1.3430004 -8.9670025 -17.6490049
O -1.1726893 -8.0709111 1.3597683
H -1.5669813 -7.1752493 1.4161218
H -0.5402868 -8.0137922 2.1052770
O -3.0990009 -9.1880026 16.4430046
H -3.7470010 -8.6730024 15.9640045
H -2.2920006 -9.1510026 15.8820044
O 1.5210004 14.0460039 0.0620000
H 2.4390007 13.8720039 0.3370001
H 1.1920003 14.4860041 0.8540002
O 15.3060043 -8.2090023 2.8280008
H 15.6150044 -9.1660026 2.8620008
H 15.4000043 -7.9880022 3.7690011
O 15.4460043 10.7520030 -0.1100000
H 16.0220045 11.1870031 0.5030001
H 14.6660041 11.3470032 -0.0430000
O -13.5510038 7.8710022 -5.9490017
H -12.6470035 7.4420021 -5.7960016
H -14.0260039 7.0720020 -6.3110018
O 3.4380010 -12.9130036 -4.9810014
H 4.2160012 -13.3870037 -4.6520013
H 3.4340010 -12.1870034 -4.3000012
O 1.6960005 -10.7140030 16.5440046
H 2.3710007 -10.5890030 15.8370044
H 1.9250005 -9.9760028 17.1230048
O 3.7528313 3.4042835 -3.7381563
H 2.7882099 3.2810228 -3.8284361
H 3.7572282 4.3685084 -3.5950383
O 0.6620002 5.4570015 14.6310041
H 1.4770004 6.0670017 14.6520041
H 0.5090001 5.4470015 15.5530044
O -10.9150031 -11.3250032 -0.5910002
H -11.3450032 -12.0570034 -0.9550003
H -11.1880031 -11.3930032 0.3100001
O -11.6657772 1.4882286 -0.6867836
H -11.9561449 1.1297194 0.1812497
H -12.4136719 1.2832058 -1.2672277
O 5.5280015 -14.0410039 -3.8830011
H 5.9610017 -13.2910037 -3.4380010
H 5.2830015 -14.5600041 -3.0940009
O 2.1830006 -12.2310034 12.2510034
H 2.5070007 -11.2960032 12.5190035
H 3.0830009 -12.6880036 12.2720034
O 2.2020006 5.3150015 -17.7290050
H 1.4090004 5.6970016 -18.1560051
H 2.3190006 5.9390017 -16.9560047
O 5.9978605 1.7349500 -2.9125766
H 5.3705765 0.9949623 -2.7625482
H 5.3715273 2.4566224 -3.1009319
O 4.6650013 4.5740013 15.3250043
H 5.4230015 4.8110013 15.8730044
H 4.0990011 5.3860015 15.2970043
O -13.1250037 -12.7670036 3.7570011
H -13.6670038 -12.7800036 4.5140013
H -12.2870034 -13.2400037 4.1270012
O -8.0230022 0.5440002 -16.5310046
H -8.2080023 -0.4560001 -16.4490046
H -8.2920023 0.6250002 -17.4190049
O -12.9070036 5.7040016 4.3420012
H -13.0100036 6.6160019 4.6610013
H -13.0750037 5.7980016 3.3940009
O 7.8080022 2.5930007 -13.0480037
H 7.4150021 1.9830006 -13.7350038
H 7.7250022 3.4740010 -13.4160038
O 3.9918348 4.5116131 5.2740613
H 3.0264771 4.6016025 5.1465037
H 4.1427063 5.2643216 5.8834270
O -17.4810049 3.1720009 -4.0950011
H -17.2990048 2.4780007 -4.7910013
H -18.3520051 2.9010008 -3.7370010
O -0.6370002 -19.4900055 -4.3850012
H -1.4890004 -19.3230054 -3.9520011
H -0.5220001 -18.6040052 -4.8050013
O 2.6204292 -0.0540998 -4.7936563
H 3.1523862 -0.1141610 -3.9701307
H 2.5447975 -1.0083248 -5.0149504
O -0.5340720 -2.3895634 12.3617457
H 0.0194936 -2.3177161 13.1639838
H -1.0131163 -1.5447949 12.4021861
O 15.1860043 -1.0580003 9.8340028
H 15.0100042 -0.7410002 8.9340025
H 14.6470041 -0.5070001 10.4560029
O -15.3760043 -1.4580004 -10.2100029
H -14.9430042 -0.5990002 -10.3270029
H -14.7790041 -1.7550005 -9.5160027
O 5.5614582 0.6182623 -8.0157684
H 5.1918736 0.9316989 -7.1634722
H 6.0445470 -0.1812084 -7.7220199
O -0.0955123 -3.7892657 10.1096183
H 0.2734576 -3.1332130 9.4879377
H -0.1758405 -3.2474501 10.9319576
O -10.3845451 2.0994732 6.4943484
H -9.7564714 2.6110532 5.9394383
H -10.4823922 2.6698920 7.2840994
O 5.7860016 1.3240004 -14.8120041
H 5.1400014 2.0170006 -15.1040042
H 6.3240018 1.3390004 -15.5550044
O 8.3197775 2.7238581 1.8681950
H 8.0711909 2.1827947 1.0829462
H 7.5097291 3.2518102 1.9676711
O -9.2573539 0.6222022 -3.9662427
H -9.4581971 0.3964565 -3.0268849
H -9.3402358 -0.2610717 -4.3811025
O 4.1855556 -0.2753714 -2.4853730
H 4.5980711 -1.1552068 -2.3490068
H 3.8296572 -0.0765463 -1.5749868
O 2.6440183 0.4320083 13.4904130
H 3.3013327 1.1504782 13.5757395
H 2.2257121 0.6385949 12.6280218
O -11.1510031 -0.3150001 -14.0320039
H -11.2490031 0.4060001 -14.6780041
H -11.9410033 -0.8500002 -14.3040040
O -14.8860042 0.1630000 2.9420008
H -15.8530044 0.1200000 3.1370009
H -14.4940041 -0.3660001 3.6630010
O 3.1910009 -16.4360046 4.5060013
H 3.4040010 -17.3870049 4.5080013
H 2.3860007 -16.3830046 5.0600014
O 5.2320015 -3.3520009 -14.8320042
H 5.0230014 -2.4060007 -14.7610041
H 4.4230012 -3.8390011 -14.6980041
O 4.7526098 -1.9616340 5.4157417
H 5.2847916 -1.2627601 4.9790321
H 4.4238760 -2.4123196 4.6104332
O -2.9520008 -17.9980050 -3.3370009
H -3.9040011 -18.0270050 -3.5310010
H -2.7520008 -17.1140048 -3.6600010
O -3.5427033 0.4767567 -1.3469418
H -3.5383192 -0.4913361 -1.4876753
H -4.2232181 0.5070879 -0.6399030
O 15.2030043 0.2980001 -5.2660015
H 14.8930042 0.5390002 -6.1010017
H 14.3110040 0.1440000 -4.8250014
O 12.3990035 -0.6230002 14.9750042
H 11.4190032 -0.3930001 14.9410042
H 12.4560035 -1.4670004 14.4680040
O -0.1460000 -13.7020038 -0.3430001
H 0.3940001 -13.1370037 -0.9680003
H 0.1420000 -13.2930037 0.4610001
O -1.2270003 6.6530019 -15.5920044
H -0.7210002 6.2200017 -14.9090042
H -0.9150003 7.5990021 -15.4790043
O -0.6303173 8.0325229 2.6960102
H 0.0504101 8.7184636 2.8711799
H -0.0928148 7.2207181 2.6446246
O 14.9960042 -8.3460023 -2.4940007
H 14.3790040 -9.1540026 -2.5750007
H 14.8970042 -8.1580023 -1.5010004
O 16.4060046 3.9830011 -1.4080004
H 15.6720044 3.7760011 -1.9390005
H 16.8300047 3.0720009 -1.4430004
O -5.4520015 0.8830002 -15.7750044
H -6.3210018 0.7800002 -16.1870045
H -5.0180014 0.5610002 -16.6070046
O 15.2660043 -0.4270001 -1.3780004
H 14.6800041 -1.1510003 -1.6490005
H 15.2620043 -0.4920001 -0.3600001
O -15.6860044 -8.2440023 1.4930004
H -15.3520043 -7.5590021 0.9070003
H -16.6100046 -7.9390022 1.7500005
O -13.2690037 9.3680026 0.8700002
H -14.2360040 9.4020026 0.9040003
H -13.1410037 8.4720024 0.6320002
O 0.1179802 -12.3380573 1.9975179
H -0.6756598 -12.8438623 2.2687115
H 0.6304863 -12.3724699 2.8337567
O 2.7280008 6.8740019 -15.5300043
H 3.7220010 6.9520019 -15.5790044
H 2.4020007 7.6210021 -14.9180042
O 4.5724949 1.7822679 0.8719422
H 5.1524353 0.9966524 0.8483931
H 3.8133129 1.3693740 0.3687823
O 18.1660051 5.8390016 -2.2490006
H 18.1290051 6.4940018 -1.4960004
H 17.6840049 5.0560014 -1.8200005
O -3.7130010 -15.7530044 -10.3330029
H -3.1880009 -16.1640045 -11.0710031
H -3.1930009 -16.0270045 -9.5500027
O -3.8460011 -16.0270045 4.6380013
H -4.4780013 -16.3200046 5.3410015
H -4.5150013 -15.5820044 3.9800011
O -2.1442917 0.5430938 -11.3577240
H -1.3166166 0.8015029 -10.8983372
H -2.3922301 1.3815856 -11.8001101
O -2.3433695 2.2643188 7.1520281
H -2.8477324 3.0179075 6.7833614
H -1.7894247 1.9920499 6.3892434
O -0.2950001 18.6790052 4.3190012
H -0.6480002 18.4000051 5.1700014
H -1.1730003 18.7250052 3.7710011
O 15.3150043 3.2070009 5.6350016
H 15.7300044 3.2660009 4.7690013
H 14.6130041 2.6240007 5.3120015
O -12.3620035 0.5440002 -7.8660022
H -13.3290037 0.8050002 -7.8110022
H -12.0380034 1.2490003 -7.2880020
O -15.5090043 -0.7790002 11.4150032
H -15.3490043 -1.4120004 10.7110030
H -15.0710042 -1.1920003 12.2390034
O 7.2086879 -1.2882070 -6.8040780
H 8.0558150 -1.6868945 -7.0731417
H 7.4855833 -0.7014190 -6.0684972
O 0.6250138 2.3823767 9.5899740
H -0.1923141 2.9153827 9.6259112
H 1.0728194 2.7743291 8.8172834
O -2.9593178 1.2789802 -14.6302208
H -3.8712681 1.2462467 -14.9868386
H -3.0545000 1.9128824 -13.8933539
O -6.6621606 4.9786484 4.2787104
H -5.7850581 5.3682837 4.0828165
H -6.8743844 5.4480979 5.1106442
O -4.3990012 16.5470046 5.4800015
H -4.5430013 16.0690045 4.6210013
H -5.3920015 16.6770047 5.6990016
O 9.7874125 1.8951315 4.1917931
H 9.3968595 2.5094269 4.8478890
H 9.3399232 2.1770847 3.3687050
O -13.6570038 5.6980016 -3.5030010
H -12.9960036 6.3340018 -3.7740011
H -13.9460039 5.2900015 -4.3330012
O 1.4660004 -12.3200034 -1.9990006
H 1.0270003 -11.8670033 -2.7730008
H 2.4040007 -12.0420034 -2.1590006
O 3.3736014 7.6124718 -0.2752117
H 2.7669735 7.9495248 -0.9708722
H 3.2950133 8.3367013 0.3841467
O -1.0910003 7.8050022 15.6270044
H -0.4980001 7.2150020 16.1290045
H -0.5700002 8.0020022 14.8010041
O -3.3280009 -11.7420033 -13.2320037
H -3.1460009 -11.4460032 -12.3520035
H -3.4140010 -10.8770030 -13.7060038
O -5.9520017 -13.6930038 6.5220018
H -6.3660018 -12.7940036 6.3720018
H -6.7990019 -14.2520040 6.6080018
O -3.2192953 2.9144535 -12.3113701
H -2.6785618 3.7304679 -12.2121825
H -4.0230791 3.1903174 -11.8247378
O -3.8554572 4.4936745 6.5523462
H -4.6391354 3.9046856 6.4374883
H -4.2342048 5.1514200 7.1715384
O 14.1310040 5.9080017 -11.9960034
H 14.2920040 5.9910017 -11.0520031
H 13.4300038 5.2050015 -12.0440034
O 14.1570040 7.5580021 3.9630011
H 14.5940041 6.9160019 4.5260013
H 14.9370042 7.9000022 3.5040010
O -12.2070034 -10.7100030 -6.8700019
H -11.5750032 -11.4460032 -6.7060019
H -11.9490033 -10.0620028 -6.1740017
O -12.7310036 -11.2510031 7.6670021
H -13.3770037 -11.3480032 8.3710023
H -12.3880035 -10.3550029 7.9180022
O -8.1370023 10.1770028 -2.6820008
H -7.4000021 10.6770030 -3.0430009
H -8.6900024 11.0070031 -2.5310007
O 5.6020016 -11.0070031 -8.4050024
H 4.7170013 -11.4730032 -8.2520023
H 5.5260015 -10.6520030 -9.2830026
O 6.1866497 -5.9651326 9.7110214
H 5.4443729 -5.4533583 9.3356460
H 5.8959446 -6.8666031 9.5140726
O 7.3032746 10.6054333 -6.3403973
H 7.0220904 10.1718906 -5.5075090
H 8.1845528 10.9218077 -6.0536362
O 5.7160016 13.2040037 12.0880034
H 4.9180014 13.4300038 12.6230035
H 5.2740015 12.9030036 11.2440031
O -3.6796356 -1.7686705 -5.4728008
H -4.4035253 -1.1381599 -5.6615703
H -3.2991916 -1.9039015 -6.3603743
O -4.5940013 1.8110005 14.8890042
H -4.2610012 1.2970004 15.6630044
H -5.3440015 2.3450007 15.1810042
O 15.6680044 0.4620001 -8.5420024
H 15.6040044 -0.4250001 -8.9570025
H 15.1020042 1.0870003 -9.0310025
O 11.6590033 2.6950008 11.8360033
H 10.7470030 2.3800007 12.1020034
H 11.7810033 3.2680009 12.5980035
O -10.3930029 -13.1260037 -6.5510018
H -9.7610027 -13.4480038 -5.8340016
H -9.9820028 -13.3590037 -7.4090021
O -10.9890031 -11.8530033 10.6610030
H -11.7020033 -12.4180035 10.2330029
H -11.5280032 -11.1860031 11.2030031
O -10.0010028 8.0530023 -8.0560023
H -9.8620028 7.6750021 -7.2150020
H -9.1740026 8.4140024 -8.1720023
O -12.9030036 5.0150014 7.0770020
H -12.8850036 5.1970015 6.1150017
H -13.6990038 5.3540015 7.4210021
O 11.5190032 -12.6940036 -8.2620023
H 10.8850030 -13.1220037 -7.7420022
H 10.9010031 -11.9900034 -8.5940024
O 6.6470019 -9.5540027 11.6620033
H 6.6750019 -10.2250029 12.4160035
H 7.6260021 -9.5820027 11.4440032
O 8.7121725 5.4992655 -8.8543990
H 9.2392505 6.3200235 -8.8592727
H 8.3620645 5.5267469 -7.9473634
O 8.2080232 6.2247031 7.7961147
H 8.1805733 6.1479895 6.8201750
H 9.1193018 6.5611594 7.9303892
O -8.8730025 -15.2040043 4.0870011
H -8.8990025 -14.3900040 3.5520010
H -8.6300024 -15.8630044 3.4230010
O -7.1803584 6.4299864 6.6337946
H -7.0911637 7.3317667 7.0153017
H -6.5423095 5.9744314 7.2182043
O 11.2520031 4.1300012 -15.6760044
H 10.5260029 4.6500013 -16.0550045
H 11.0990031 3.2770009 -16.1750045
O 9.9536453 4.2922902 0.2614053
H 9.1514639 4.5678080 -0.2269586
H 9.5431509 3.6880174 0.9130185
O -8.6640024 -9.5580027 -14.7320041
H -7.7770022 -9.9310028 -14.5880041
H -8.5040024 -8.6110024 -14.8890042
O -8.7700025 -12.6810035 3.0200008
H -7.8520022 -12.4880035 2.7990008
H -8.9810025 -11.7750033 3.1840009
O -5.8050016 6.9870020 -17.7680050
H -5.1110014 6.3140018 -17.8590050
H -5.2790015 7.7730022 -17.5660049
O -4.5720904 3.8406640 -0.2564348
H -4.1920606 4.7436039 -0.2898520
H -4.4335912 3.6614676 0.6984750
O 8.6020024 -16.7130047 -1.8570005
H 9.2420026 -16.0780045 -2.3150006
H 8.0480023 -16.0750045 -1.4410004
O 7.3950021 4.6560013 -14.5760041
H 8.0500023 5.0610014 -15.2450043
H 6.5860018 5.0650014 -14.9680042
O 11.6063586 7.1407272 -1.6784407
H 12.0853722 7.9425786 -1.3639920
H 10.7265216 7.4042971 -1.3417172
O -10.3120029 -11.9100033 6.3330018
H -11.1180031 -11.9670033 6.8060019
H -10.3590029 -10.9730031 6.0470017
O -8.7850025 5.0080014 -13.4550038
H -8.7190024 4.3340012 -14.1980040
H -8.9020025 5.8580016 -13.8040039
O -9.9060028 9.5040027 5.7030016
H -10.8300030 9.7960027 5.8150016
H -10.1180028 8.5080024 5.9710017
O 7.9020022 -12.7240036 8.5810024
H 7.8950022 -13.6060038 8.1620023
H 7.2710020 -12.2310034 8.0330022
O 9.9870028 5.2490015 -11.6770033
H 9.6680027 4.7340013 -10.9250031
H 9.3150026 5.9700017 -11.7230033
O 7.9536389 5.7950800 5.0586863
H 8.5004827 6.1977080 4.3468035
H 7.0760362 5.8521239 4.6616399
O 0.1590000 -13.2930037 -14.1310040
H 0.3560001 -12.4260035 -13.7110038
H -0.3970001 -13.6290038 -13.4270038
O -1.4910004 -14.8980042 5.5800016
H -2.0240006 -14.1940040 5.9490017
H -2.1530006 -15.6180044 5.3190015
O 2.1906515 1.0349307 -11.1583272
H 1.3061289 1.1754885 -10.7605646
H 2.1099874 0.0900706 -11.4134366
O -1.4737089 5.3844843 5.5240881
H -1.6838461 6.3391538 5.4358405
H -2.2965991 5.0798073 5.9668973
O 15.7830044 5.4940015 0.9350003
H 16.2160045 5.1390014 0.1040000
H 15.3810043 6.2900018 0.5780002
O -14.9660042 8.6900024 -1.5750004
H -15.8570044 8.8240025 -2.0170006
H -14.5230041 9.5650027 -1.7910005
O 2.2841429 -8.8869160 -4.1079654
H 1.9544271 -7.9661064 -4.1636010
H 2.1872064 -9.1726787 -5.0375240
O 0.0350000 -11.0440031 11.0450031
H -0.6740002 -11.1730031 10.4110029
H 0.0600000 -11.8970033 11.5290032
O 1.8139453 8.9455399 -2.1641316
H 2.1193128 9.3570439 -3.0008690
H 0.9375638 8.5958766 -2.4342484
O 0.0150000 7.6320021 11.1670031
H -0.9190003 7.4600021 11.2370031
H 0.2120001 7.8650022 12.0950034
O -5.3110015 -15.0220042 -1.6750005
H -5.6190016 -14.0870039 -1.7840005
H -4.3420012 -14.9340042 -1.9200005
O -3.9349142 2.9046726 -2.7698212
H -4.1611650 3.3482468 -1.9247996
H -3.8780843 1.9829286 -2.4471470
O -5.7810016 6.2460017 16.3830046
H -5.9470017 6.4520018 17.3130048
H -6.6050018 6.4950018 15.9140045
O 13.2810037 -10.4440029 -1.7990005
H 14.0060039 -11.0530031 -1.5890004
H 12.5760035 -11.1300031 -1.7170005
O 14.2670040 7.0230020 -2.5910007
H 14.7850041 7.1500020 -1.7530005
H 13.3500037 6.8040019 -2.2880006
O -14.5530041 -8.8390025 -6.8440019
H -13.8960039 -9.4220026 -7.3410021
H -14.5370041 -9.2200026 -5.9890017
O -11.0440031 9.3140026 11.1830031
H -10.8320030 9.0340025 10.2630029
H -10.3570029 9.9090028 11.4420032
O 3.4090010 -11.8860033 -7.4740021
H 3.0930009 -11.1060031 -7.0240020
H 3.4600010 -12.4940035 -6.7430019
O 2.0488736 -9.9435683 9.5750320
H 1.3304916 -10.2455028 10.1622060
H 1.7032459 -9.0848052 9.2670563
O 5.1447479 7.2923501 -6.7370530
H 4.7643747 7.4900305 -5.8588157
H 4.3320415 7.1897179 -7.2835140
O 2.8030008 9.1880026 11.3370032
H 3.6540010 8.7800025 11.5150032
H 2.4500007 9.2910026 12.2620034
O -14.2470040 -10.1500028 -4.3180012
H -14.0600039 -11.1130031 -4.0830011
H -13.3650037 -9.7120027 -4.1310012
O -15.6110044 9.9300028 -5.2900015
H -15.3270043 10.2290029 -4.3570012
H -14.7550041 9.4570026 -5.4920015
O -14.6430041 7.0770020 10.7770030
H -15.1190042 6.3810018 11.2910032
H -14.5760041 6.6880019 9.8620028
O 3.6026282 -10.9941176 -3.0188602
H 4.1033278 -10.4543657 -2.3805303
H 3.0902917 -10.2695348 -3.4502653
O 0.6770002 -8.8780025 12.5090035
H 1.5930004 -8.7060024 12.7050036
H 0.7570002 -9.7360027 12.1340034
O 3.3644366 12.7987882 -1.8923083
H 3.9366666 12.0724932 -2.2263978
H 3.7893511 12.9706694 -1.0285556
O 0.0510000 8.9590025 13.5990038
H 0.9530003 9.1110025 13.7460038
H -0.4840001 9.7170027 14.0220039
O -11.8190033 -2.2580006 -11.6470033
H -11.3130032 -1.8410005 -12.3960035
H -12.0570034 -3.0470009 -12.1200034
O -14.3210040 -3.2050009 10.3560029
H -13.5610038 -3.1730009 10.9660031
H -13.9120039 -3.9060011 9.7360027
O 7.6070021 -6.9860020 -12.1660034
H 7.2490020 -7.8740022 -12.1920034
H 7.9310022 -6.9890020 -11.2180031
O 5.8730627 -3.2619264 7.5871583
H 5.4906312 -2.7383796 6.8485717
H 5.0955423 -3.7944274 7.8607211
O 5.1670014 16.0490045 7.2770020
H 5.6440016 16.5010046 7.9590022
H 4.3080012 16.6110046 7.3420021
O -7.6550021 -15.8090044 6.5100018
H -6.9340019 -16.4110046 6.1460017
H -8.1250023 -15.5900044 5.7080016
O -5.7180016 3.4910010 -13.9580039
H -5.5340015 2.7290008 -13.4190038
H -6.4600018 3.0490009 -14.5340041
O -5.9578286 2.7817108 6.6012585
H -6.4785710 3.0036370 7.4048582
H -6.1882006 1.8453981 6.4648700
O 11.4880032 -12.1060034 3.7520011
H 11.8090033 -12.4800035 4.5900013
H 11.7610033 -12.8000036 3.1540009
O 12.1730034 3.7020010 -13.3150037
H 11.3020032 3.8760011 -12.9170036
H 11.9340033 3.9340011 -14.1990040
O 11.5468242 6.0185162 1.6922188
H 12.2270739 5.3440332 1.8874387
H 10.9751671 5.5020661 1.0890230
O -3.3940009 -9.1400026 -14.1780040
H -2.9130008 -8.5620024 -13.6380038
H -4.0980011 -8.5600024 -14.6410041
O -3.4282187 -4.9795509 -0.6662409
H -2.8123094 -5.2761886 -1.3685017
H -4.1792459 -5.5896948 -0.8402770
O -5.2770015 -6.7170019 17.0740048
H -6.0510017 -7.3190020 16.8490047
H -4.9820014 -7.1100020 17.9340050
O -2.5090007 9.6440027 -13.7350038
H -2.5800007 9.5430027 -14.6670041
H -2.6270007 10.6520030 -13.5730038
O -3.7730011 12.0210034 0.2040001
H -2.9660008 11.4660032 0.1700000
H -3.9030011 12.1610034 -0.7580002
O 17.2670048 -6.2800018 1.5500004
H 16.5510046 -5.6420016 1.5700004
H 16.8230047 -7.0980020 1.6770005
O -17.4310049 -2.4460007 4.9520014
H -17.1650048 -3.3950010 4.6550013
H -16.7400047 -2.4070007 5.5620016
O 1.7228433 -6.9794499 -10.0787034
H 1.4991549 -7.8667560 -9.7200849
H 1.2478518 -6.4135831 -9.4399247
O -0.8985811 -5.9220609 5.3819306
H -0.3046925 -6.2819359 4.6921224
H -1.5433974 -6.6643296 5.4155196
O 2.8050008 11.9890034 -11.0020031
H 2.6600007 11.3520032 -10.2760029
H 2.5890007 12.8020036 -10.6130030
O 2.3290007 15.2780043 2.7610008
H 1.8680005 14.8110041 3.4970010
H 1.7620005 16.0670045 2.7160008
O -12.5950035 -4.5360013 -12.7470036
H -13.1010037 -4.8940014 -11.9280033
H -13.1470037 -4.7490013 -13.4420038
O -13.6480038 -1.3910004 4.8870014
H -13.9720039 -2.0160006 5.4800015
H -12.8420036 -1.0100003 5.2930015
O 7.5570021 -5.0600014 -15.6130044
H 6.9850020 -4.4060012 -15.2240043
H 6.8980019 -5.6980016 -15.9830045
O 1.6721648 -5.1829063 6.6454884
H 1.3938606 -4.3171742 6.2808183
H 0.8366606 -5.6669183 6.5404496
O 5.9320017 16.0170045 4.7230013
H 5.5560016 15.9300045 5.6560016
H 5.9270017 16.9830048 4.7090013
O -11.2885760 2.9354674 -6.9974639
H -10.9087922 3.4019646 -7.7747145
H -10.5018750 2.8957738 -6.4178221
O -14.6530041 -0.2880001 8.3190023
H -14.4090040 0.3590001 7.5950021
H -15.1620042 0.2840001 8.8950025
O 4.0981250 -2.5960313 -10.6120520
H 4.7494852 -1.8646705 -10.7048315
H 4.6254018 -3.3579687 -10.9154768
O 4.6314347 0.3083451 8.8517304
H 4.3967338 1.2191257 9.1326387
H 4.2246411 -0.2299228 9.5569895
O 4.4250012 -8.5980024 -10.3310029
H 4.2610012 -7.8110022 -10.8910030
H 5.2650015 -9.1080025 -10.5760030
O 0.9985285 -1.9795094 8.2089075
H 0.8616248 -2.4776355 7.3737058
H 1.5924988 -1.2861687 7.8414331
O 0.4659285 11.9631115 -4.3762888
H 0.4630804 12.3828135 -5.2582185
H -0.4523316 11.6414194 -4.2944755
O -0.6720002 15.5460044 10.7860030
H 0.1620000 15.0540042 10.5560030
H -0.7680002 15.3170043 11.7760033
O -3.4040010 -2.2010006 -16.7250047
H -3.6370010 -2.2340006 -15.8120044
H -2.5390007 -2.6470007 -16.7910047
O -4.2357597 1.1902076 2.8879752
H -4.1983593 2.1549093 2.6982602
H -4.6373157 1.1916920 3.7663912
O -0.2500001 16.6230047 1.3770004
H -1.1300003 17.0220048 1.5520004
H -0.2680001 16.7100047 0.4480001
O 12.4480035 -5.1930015 0.0900000
H 12.3970035 -6.1390017 0.2170001
H 11.8490033 -4.9150014 0.8280002
O -4.9851339 -4.6743726 -4.3800287
H -5.8787872 -4.9171989 -4.6885223
H -5.1901235 -3.8588943 -3.8758278
O -8.8980025 -1.6510005 15.3000043
H -8.6730024 -1.2080003 14.4670040
H -9.5580027 -2.3640007 15.1210042
O -2.1740006 16.9150047 -6.5670018
H -2.5900007 17.4640049 -5.8890016
H -2.3570007 17.4950049 -7.3520021
O 17.4300049 -0.7820002 -4.3570012
H 16.7540047 -0.2330001 -4.8310014
H 18.2570051 -0.5430002 -4.8640014
O 12.7380036 -3.1410009 13.6830038
H 12.1430034 -3.7730011 13.2280037
H 13.4540038 -3.0880009 13.0100036
O -13.0890037 -0.4790001 -4.2080012
H -12.4790035 0.1370000 -4.6740013
H -13.5270038 -0.8840002 -4.9910014
O 2.6065979 -2.7384106 -5.3028813
H 3.4919455 -2.9381355 -5.6785821
H 2.6212834 -3.2484686 -4.4611401
O -1.5810004 -0.6090002 15.1950043
H -0.5700002 -0.7360002 15.0600042
H -1.6670005 -0.2550001 14.3020040
O 3.3130009 14.4290040 -6.0850017
H 3.3180009 15.0780042 -6.7960019
H 2.6360007 13.7900039 -6.4140018
O -17.2580048 0.6430002 4.6940013
H -17.3130048 -0.2610001 4.4270012
H -16.9860048 0.6040002 5.6270016
O 2.8944267 -1.6430331 -8.2082986
H 3.5939310 -2.0359380 -7.6499377
H 3.1888853 -1.9510657 -9.0858584
O -1.7465699 -1.3174962 5.2192991
H -1.4327451 -0.4092081 5.0110151
H -2.4966342 -1.0822157 5.8004531
O -0.0980000 15.9520045 8.1770023
H 0.7750002 15.5650044 8.4000024
H -0.5750002 15.7770044 9.0310025
O 17.6160049 -4.0290011 7.7500022
H 17.5400049 -3.2940009 8.4490024
H 17.4600049 -4.8100013 8.2780023
O -13.8010039 -1.0060003 -1.5750004
H -14.6110041 -0.4600001 -1.5780004
H -13.3990037 -0.7980002 -2.4230007
O 0.2129887 -4.5494088 -1.3336975
H -0.4576824 -5.1003607 -1.7923270
H -0.3162948 -3.7848240 -1.0579562
O 0.8350002 -1.4380004 14.5470041
H 1.2820004 -0.8150002 13.9080039
H 1.4770004 -1.3290004 15.2500043
O 0.5640002 16.0110045 -4.7950013
H 0.5120001 15.1770042 -5.2630015
H 1.1920003 15.9160045 -4.0210011
O -5.5250015 -4.4190012 -15.7350044
H -6.3240018 -3.9870011 -15.3920043
H -4.8450014 -3.9740011 -15.1890043
O -11.2514940 -0.3401740 5.6933748
H -10.9948490 0.4564954 6.2102872
H -10.9319127 -0.0322755 4.8179770
O -2.5020007 14.9500042 -9.7500027
H -2.4200007 15.8820044 -10.1460028
H -3.3070009 15.1570042 -9.1430026
O -4.7840013 15.3660043 3.1330009
H -5.4260015 14.7330041 2.7940008
H -4.1390012 15.3130043 2.3490007
O 11.2707807 -4.2008364 2.3071799
H 11.4199604 -3.2501730 2.4798930
H 10.6588091 -4.4362790 3.0390872
O 13.5450038 13.6440038 3.4620010
H 14.2580040 12.9990036 3.8480011
H 13.1830037 13.9230039 4.3860012
O 0.2358042 -5.5541818 -8.2829425
H 0.1590599 -4.6328756 -7.9736040
H -0.5309881 -5.6506801 -8.8813408
O -5.0517922 -4.0300187 9.7066273
H -4.1991097 -4.2968811 10.1205087
H -4.8817428 -4.2543232 8.7710706
O -0.1550000 13.3830037 -9.5350027
H -0.9360003 14.0040039 -9.5800027
H 0.6530002 13.8660039 -9.8440028
O -0.7620002 12.2300034 7.6840022
H -1.1640003 12.8800036 7.0030020
H 0.0660000 12.7570036 7.9630022
O 15.1710042 -4.3760012 6.2870018
H 15.9690045 -3.9480011 6.5310018
H 14.5120041 -3.9430011 6.8450019
O -8.5965563 -6.7855152 -0.6735053
H -8.1323246 -7.6367164 -0.7153218
H -9.3744871 -6.9364689 -1.2501350
O -9.2370026 12.7670036 -2.6620007
H -10.0120028 12.6300035 -3.2230009
H -9.6350027 13.1240037 -1.9180005
O 10.3733416 -6.2423920 -2.2959968
H 10.0592299 -5.6546891 -1.5666803
H 10.8867500 -5.6213640 -2.8394559
O 6.9150019 -2.8570008 16.1870045
H 6.7520019 -3.4000010 16.9180047
H 7.8480022 -2.7380008 16.2890046
O 9.3280026 13.4410038 -3.1740009
H 9.6050027 14.1780040 -3.7570011
H 8.6210024 13.8190039 -2.5750007
O -7.4755325 -5.2297359 -5.5909621
H -7.3379195 -4.3612970 -6.0414090
H -7.2980170 -5.7852517 -6.3821270
O -7.5270309 -4.2124500 10.8603511
H -6.7038703 -4.1386740 10.3311326
H -8.1477035 -3.6378140 10.3907231
O -5.9540017 16.3770046 -5.7620016
H -6.0190017 17.1600048 -5.2000015
H -6.5090018 16.6240047 -6.5460018
O 10.1030028 -5.8530016 -7.5080021
H 10.9850031 -6.3800018 -7.5780021
H 10.1960029 -5.3020015 -8.3040023
O 12.4440035 -3.8350011 10.2750029
H 11.9740034 -3.0480009 9.8280028
H 11.7670033 -4.4940013 10.2160029
O 9.7250027 15.3230043 -5.1600014
H 10.3230029 14.8590042 -5.7220016
H 9.2020026 15.7920044 -5.8510016
O -17.6530049 -0.9360003 -1.0040003
H -18.6760052 -0.8670002 -1.0980003
H -17.5280049 -0.5510002 -0.1360000
O 2.3890007 -18.2730051 -0.9480003
H 2.1690006 -17.3260048 -1.3030004
H 2.4110007 -18.1830051 0.0730000
O 2.9410008 -0.5280001 -15.8100044
H 3.7040010 -0.8090002 -16.2980046
H 3.3140009 -0.4650001 -14.8740042
O 3.9879761 -2.9332868 2.9422014
H 4.2267608 -3.1091949 2.0099808
H 3.3129704 -2.2375501 2.7915856
O -0.3900001 -2.0270006 18.6680052
H -0.0300000 -1.2580004 18.1970051
H -0.0220000 -2.7890008 18.2050051
O 2.1300006 18.8340053 0.1270000
H 2.4510007 19.4190054 -0.5660002
H 2.1160006 17.9840050 -0.3110001
O 18.1510051 -1.2260003 3.3700009
H 18.4080052 -1.8380005 2.6110007
H 18.0860051 -1.9480005 4.0470011
O 1.3660004 -4.8160013 -17.7050050
H 0.6050002 -5.2830015 -18.1710051
H 1.7560005 -5.5650016 -17.1920048
O -2.0552118 -2.6879162 -3.5350736
H -2.6676632 -2.3944779 -4.2501648
H -2.6746957 -2.6883576 -2.7777707
O -2.6140007 -5.4430015 16.6760047
H -3.4940010 -5.7160016 17.0050048
H -2.8130008 -4.4600012 16.3510046
O -1.4400004 15.6000044 -1.4120004
H -2.3410007 15.3370043 -1.7520005
H -0.9260003 14.7790041 -1.5190004
O 16.0680045 -4.1350012 -1.6470005
H 16.7230047 -4.7930013 -1.9660006
H 16.5920046 -3.2920009 -1.7140005
O -6.0502713 -2.5008775 -2.9248098
H -6.9562960 -2.8283443 -2.7568272
H -6.2284124 -1.5587011 -3.1350222
O -7.8800022 -1.1860003 12.7690036
H -8.0720023 -1.6440005 11.9560033
H -7.0140020 -0.6690002 12.6070035
O -4.7340013 17.5420049 -2.4170007
H -5.4110015 18.1370051 -2.7590008
H -4.0650011 18.2100051 -2.2900006
O 12.1770034 -2.4110007 -3.3700009
H 12.2830034 -3.3220009 -3.5960010
H 12.3000034 -2.4570007 -2.3600007
O -17.3010048 0.4350001 -4.8700014
H -17.7980050 -0.3010001 -4.4690013
H -17.2360048 0.0490000 -5.7610016
O -0.5746075 -4.5163703 -4.8593211
H -0.2188853 -4.0452073 -5.6384987
H -1.0182056 -3.7743026 -4.3889485
O -4.9220014 -2.7900008 15.6770044
H -3.9140011 -2.8990008 15.6080044
H -5.1920015 -2.9000008 14.7340041
O 0.6960002 13.5120038 -6.8050019
H -0.1360000 13.9920039 -6.7370019
H 0.8070002 13.6400038 -7.7720022
O 14.8240041 -3.5160010 11.1820031
H 15.2270043 -2.8360008 10.6400030
H 13.8940039 -3.5850010 10.8680030
O -17.5800049 -4.0380011 0.4240001
H -17.5020049 -3.1310009 0.3910001
H -18.4780052 -4.2710012 0.1560000
O 2.5240007 -5.3990015 -14.3900040
H 2.5640007 -5.8310016 -13.5260038
H 2.4930007 -6.1180017 -15.0570042
O 6.1127688 -8.2132277 0.1190557
H 5.2806164 -8.2912625 -0.4035280
H 6.2618576 -7.2417754 0.0623569
O 7.1090020 16.1620045 0.6600002
H 7.9640022 15.7490044 1.0420003
H 6.4380018 15.7850044 1.2470003
O -16.8870047 -0.7860002 -7.1630020
H -17.1720048 -1.7110005 -7.0890020
H -17.2710048 -0.5910002 -8.0390022
O -2.1671969 -2.5022051 -7.6542810
H -2.2090469 -2.8115896 -8.5872859
H -1.2220522 -2.6838585 -7.4557019
O -5.3178715 -1.3255155 10.0813731
H -6.2575723 -1.1781151 9.8619940
H -5.2495092 -2.3000942 10.0373882
O 15.3670043 -1.8230005 -9.8670028
H 14.6530041 -2.4120007 -9.6100027
H 15.8600044 -2.3360007 -10.4330029
O 13.8450039 -2.2550006 7.3320021
H 12.9310036 -2.2880006 7.6180021
H 14.0480039 -1.4620004 6.9320019
O -11.3280032 -9.1880026 -9.5670027
H -10.7050030 -8.9270025 -10.2730029
H -10.9710031 -10.0310028 -9.2530026
O -11.9760034 -8.6760024 8.4280024
H -12.2530034 -8.6880024 9.3390026
H -11.1400031 -8.1420023 8.4750024
O -12.5660035 9.3310026 -10.7020030
H -11.9880034 10.1110028 -10.7160030
H -11.9990034 8.6250024 -11.0080031
O -12.3210034 10.1150028 6.5980018
H -11.8380033 10.6630030 7.2940020
H -13.1450037 9.9330028 7.0510020
O 4.6983279 -9.2936493 6.9327640
H 4.4174982 -8.3968402 6.6314229
H 5.1696585 -9.0762779 7.7675834
O 6.0644919 8.8478614 -11.0488073
H 5.9589722 8.9823957 -10.0871020
H 6.3252243 9.7427989 -11.3278831
O 6.7760019 7.8680022 9.4080026
H 7.2050020 8.6830024 9.1750026
H 7.3580021 7.3200020 8.8640025
O -6.5336161 1.0295550 -12.6605492
H -7.3322290 0.4764345 -12.7137807
H -6.0861499 0.6445075 -11.8956819
O -7.8950022 7.3520021 10.5790030
H -7.1600020 7.8060022 10.1000028
H -8.3030023 6.8790019 9.8110027
O 10.8420030 -14.6440041 5.7740016
H 10.0450028 -14.6990041 6.2830018
H 10.6220030 -15.0420042 4.9170014
O 12.8790036 2.1070006 5.5830016
H 13.0910037 2.0090006 6.5370018
H 11.8810033 2.1100006 5.4890015
O -0.5650002 -3.3180009 -16.2490045
H 0.3230001 -3.5310010 -16.5020046
H -0.5250001 -2.3740007 -16.0220045
O -1.9763797 -5.4921328 1.6521360
H -2.6189676 -5.2514279 0.9500461
H -2.3156558 -4.9930316 2.4161951
O -3.3790009 0.3310001 17.0170048
H -3.3590009 -0.3490001 17.6640049
H -2.7730008 -0.1810001 16.4340046
O -1.0110003 17.9290050 -3.3620009
H -0.5150001 17.3120048 -3.9410011
H -1.4410004 17.3130048 -2.7340008
O -6.3843119 -7.5953059 -3.9280614
H -6.7309923 -8.5009893 -4.1207639
H -7.0632890 -7.0627205 -4.3640083
O -5.5560016 -4.1340012 12.9760036
H -6.1940017 -4.4080012 12.3060034
H -4.8510014 -4.7830013 12.7710036
O -2.2499735 10.8823286 -4.1209559
H -2.1828526 10.8654137 -5.0963471
H -2.5205407 9.9664179 -3.9063981
O 12.1690034 -4.9550014 -4.6280013
H 12.8990036 -5.2750015 -4.0230011
H 12.2470034 -5.5590016 -5.4110015
O 10.5240029 -4.7060013 13.0740037
H 10.1480028 -3.8550011 12.7050036
H 9.7100027 -5.2650015 12.9190036
O 12.6400035 11.5500032 -3.3930009
H 13.6250038 11.4220032 -3.2070009
H 12.4510035 10.6350030 -3.6160010
O 10.8630030 7.1210020 14.6950041
H 10.4390029 7.0680020 13.7410038
H 10.4250029 6.3240018 15.0410042
O -1.5830004 -5.7960016 -15.1960043
H -2.2730006 -6.1040017 -15.8330044
H -1.3250004 -4.9150014 -15.6030044
O -6.7891822 -2.8631706 4.3989071
H -6.9123146 -2.7556019 5.3625287
H -7.1745926 -2.0167321 4.0820117
O -6.7260019 -4.3980012 17.1410048
H -6.2300017 -5.2080015 16.8280047
H -6.1550017 -3.7310010 16.8450047
O 1.9780006 16.4530046 -1.3700004
H 1.8170005 15.6310044 -0.9220003
H 2.4860007 16.1430045 -2.1250006
O 17.8070050 -2.9750008 1.2190003
H 17.4540049 -2.9810008 0.3430001
H 18.7650053 -3.1210009 1.0210003
O -0.7520002 -17.1290048 -5.9010017
H -1.4950004 -17.3320049 -6.5000018
H -0.0140000 -17.2430048 -6.5950018
O 1.0338883 0.2692380 -7.3758264
H 1.6407282 -0.3758613 -7.8072413
H 1.5169595 0.4083989 -6.5431705
O -1.5336935 0.2953856 12.5561203
H -2.0853788 0.1370919 11.7529098
H -1.8821977 1.1833602 12.8007854
O -10.2124341 0.9307907 3.4848310
H -10.8898977 0.8975179 2.7768173
H -10.0220355 1.8838816 3.5368212
O 6.2440017 -16.7970047 3.7920011
H 5.3940015 -17.1920048 3.6970010
H 6.1110017 -16.2740046 4.6550013
O 4.5340013 2.9500008 -16.7930047
H 3.6180010 3.1260009 -16.8280047
H 4.7160013 2.3500007 -17.4890049
O 5.8844499 4.1773055 1.0682465
H 6.4595439 4.3361985 0.2924289
H 5.4852302 3.3022396 0.8611801
O 1.6280005 1.9530005 19.1370054
H 1.3400004 1.3040004 18.5300052
H 0.9000003 2.6290007 18.8830053
O -15.1260042 -4.4050012 -7.2470020
H -15.9240045 -3.7480010 -7.2500020
H -15.1430042 -4.8930014 -6.3530018
O 5.6300016 -8.5420024 -6.2630018
H 5.3050015 -7.8600022 -6.8680019
H 4.9570014 -9.2040026 -6.3070018
O 2.2034695 -4.8576229 12.7216833
H 2.1447894 -5.2897267 11.8450818
H 2.9818877 -4.2872185 12.5634831
O 4.2608747 11.2104766 -6.5162802
H 3.7524882 11.1211694 -7.3450385
H 5.1275713 10.8904086 -6.8200891
O -16.1750045 3.9660011 5.9950017
H -15.8320044 3.1400009 6.2200017
H -17.1540048 4.0380011 6.0730017
O -0.6140002 -13.8930039 -11.4460032
H -0.2170001 -14.2860040 -10.6680030
H -1.0360003 -14.7140041 -11.7060033
O -0.6770002 -18.7140052 6.2110017
H 0.1540000 -18.4190052 6.4800018
H -0.8660002 -18.2750051 5.3740015
O 4.8350014 -0.9180003 -13.6690038
H 5.0680014 -0.9600003 -12.7890036
H 5.3490015 -0.1410000 -14.0230039
O -0.9843626 1.3361928 4.8972899
H -0.0003800 1.2369147 4.9146859
H -1.0716901 2.0504917 4.2337710
O 3.4610010 19.3370054 2.4380007
H 2.9510008 18.9450053 1.6390005
H 4.3590012 18.9500053 2.3870007
O -14.2500040 -1.4810004 -6.4920018
H -14.9420042 -0.9020003 -6.8740019
H -13.9180039 -2.0430006 -7.2300020
O -11.4710032 12.6340035 -4.9380014
H -10.9130031 13.2590037 -5.3840015
H -11.4940032 11.9060033 -5.5980016
O 5.6274844 -2.6058378 -2.2049992
H 6.0391856 -3.1637769 -2.9040125
H 6.4240029 -2.1697633 -1.8440915
O 4.3846617 -3.2874610 11.6544444
H 3.8372115 -2.5983184 11.2242463
H 5.2203092 -3.1735792 11.1629446
O 2.9740008 16.3710046 -8.1520023
H 2.1730006 16.9750048 -8.3040023
H 3.5980010 17.0310048 -8.5090024
O -0.5720002 -16.6810047 1.4560004
H 0.3030001 -17.1390048 1.4520004
H -1.0050003 -17.1690048 0.7060002
O -5.3975280 0.1367499 0.6202651
H -5.5975590 -0.8068215 0.8024009
H -5.1064803 0.4550956 1.5019459
O 13.6800038 1.4760004 2.9460008
H 14.5200041 1.3490004 3.3760009
H 13.1030037 1.6930005 3.7180010
O -14.9700042 1.3950004 -7.9430022
H -15.5410043 1.8840005 -8.5920024
H -15.4350043 1.5840004 -7.1340020
O 1.1780003 -14.3580040 -4.9820014
H 1.9080005 -13.8760039 -4.5220013
H 1.6190005 -15.2060043 -5.0350014
O 4.4363596 1.7428416 -5.7862800
H 4.3103562 2.3658390 -5.0394426
H 3.7696909 1.0674621 -5.5414134
O -2.8250008 2.6630007 13.0670037
H -3.5140010 2.4270007 13.7290038
H -3.3230009 3.3510009 12.6010035
O -6.0430017 -1.3960004 -14.1140040
H -6.0240017 -1.3880004 -13.1380037
H -5.8450016 -0.4420001 -14.3150040
O -10.1370028 0.5840002 10.0780028
H -10.8720030 0.0570000 9.6680027
H -10.5720030 1.4480004 9.9420028
O 12.6370035 0.8320002 -13.5610038
H 12.3670035 1.6860005 -13.1910037
H 12.8850036 0.2780001 -12.7700036
O 8.8834300 -0.4389825 5.4145605
H 8.1526902 -0.1972097 6.0304408
H 9.0919322 0.4257004 5.0040682
O 1.8118027 -1.6034591 -11.7096900
H 1.7136676 -1.9541673 -12.6206122
H 2.6313116 -2.0535956 -11.4103923
O -1.8144288 -1.7043121 8.3937429
H -1.9888132 -2.6096714 8.0432939
H -0.8401178 -1.6743203 8.3492892
O -3.9920011 15.1030042 8.9760025
H -4.8330014 14.6470041 8.8050025
H -3.4640010 14.2790040 9.0930025
O 16.2790046 0.5810002 4.1550012
H 16.8490047 -0.1870001 4.0630011
H 16.7780047 1.2380003 3.6600010
O -12.2330034 5.8710016 -12.3480035
H -11.6360033 5.0890014 -12.3900035
H -12.0540034 6.3000018 -11.5180032
O -14.6460041 10.6040030 4.3230012
H -15.2150043 10.8920030 3.5380010
H -14.9710042 11.1730031 5.0250014
O 3.4240010 -12.8380036 -13.2910037
H 3.8360011 -11.9680033 -13.5290038
H 3.1520009 -12.6540035 -12.3640035
O 1.1700003 -16.1410045 6.3610018
H 0.3060001 -15.7400044 6.0950017
H 0.8410002 -16.5740046 7.2200020
O 3.2728293 2.9619221 -12.7301052
H 2.8204164 2.2330802 -12.2524219
H 4.1880563 2.8037709 -12.4306020
O 1.2482579 4.9990982 5.1154580
H 1.1753458 5.2150415 4.1673820
H 0.3344334 5.2043994 5.4063648
O 18.9190053 1.3450004 2.7960008
H 18.5880052 0.5060001 3.1380009
H 19.4080054 1.1390003 2.0280006
O -11.2510031 -1.8240005 -7.0430020
H -11.5870032 -2.5470007 -7.6080021
H -11.3390032 -0.9440003 -7.5190021
O -11.9940034 -3.2150009 12.6320035
H -11.6630033 -3.6260010 13.5390038
H -12.6100035 -2.5090007 12.9330036
O -9.5260027 14.5750041 -5.4300015
H -9.3330026 15.3360043 -4.8460014
H -9.2890026 15.1210042 -6.2060017
O 10.0230028 -2.4520007 -7.5720021
H 10.2910029 -3.0280008 -8.3040023
H 10.5580030 -1.6290005 -7.7030022
O 7.6630021 -0.7490002 11.8860033
H 7.4320021 -1.3310004 11.1830031
H 6.7700019 -0.6330002 12.3780035
O -8.6940024 -0.9460003 -13.0360036
H -8.5800024 -1.7190005 -13.6520038
H -9.5110027 -0.5070001 -13.4220038
O -9.2905850 5.5869214 8.8212011
H -9.9448484 4.8555763 8.8643784
H -9.4936740 5.9606741 7.9457222
O 9.9750028 -15.7950044 3.2190009
H 9.5520027 -16.6400047 3.0560009
H 9.3040026 -15.2240043 2.8940008
O 10.1600028 1.6750005 -11.6550033
H 9.2650026 2.0010006 -11.9770034
H 10.2650029 0.7650002 -12.1790034
O 9.0986091 7.0584118 2.8949770
H 8.6213184 7.2236205 2.0557888
H 10.0006955 6.8589050 2.5702783
O -12.3840035 -12.3370035 -3.5350010
H -12.0670034 -12.9850036 -2.9040008
H -13.3080037 -12.8110036 -3.4830010
O -9.2578654 5.5021416 -6.1662573
H -9.1518275 4.5451448 -5.9665730
H -8.7449045 5.5766050 -6.9989455
O -13.9110039 3.9780011 12.1700034
H -13.8440039 3.3780009 12.9340036
H -14.8240041 4.2540012 12.1490034
O 8.0550023 -15.4260043 -5.0740014
H 7.2670020 -15.1690042 -4.5250013
H 7.6290021 -15.5270043 -5.9350017
O 8.3833469 7.1640592 -4.4730600
H 8.8661137 6.5200560 -3.9075557
H 8.1026916 6.5740001 -5.1985828
O 7.3280021 5.6620016 13.3570037
H 8.1830023 5.7730016 12.8460036
H 7.4210021 4.7990013 13.8110039
O -15.2290043 -12.5620035 2.1650006
H -14.3700040 -12.8650036 2.5610007
H -15.5400043 -11.8540033 2.7220008
O -12.3803014 0.3520704 1.7110359
H -13.2562892 0.4399322 2.1422772
H -12.3831096 -0.5935968 1.4606526
O 6.1580017 -17.4430049 0.7700002
H 6.0520017 -16.9440047 -0.0270000
H 5.7690016 -18.2550051 0.5710002
O 5.6278405 -0.8034079 0.8644631
H 5.0309483 -1.5548375 0.6811803
H 6.3413066 -0.9685314 0.2198372
O -3.5310010 2.3260007 18.9870053
H -3.5340010 1.7450005 18.1130051
H -4.4610012 2.1330006 19.1840054
O -18.0120050 4.9980014 -0.8700002
H -17.1890048 4.9210014 -1.4510004
H -17.8310050 5.9040017 -0.4810001
O -0.7020002 -15.9480045 -3.4170010
H -0.3280001 -15.2040043 -3.8870011
H -1.0260003 -16.4980046 -4.1420012
O -0.6510002 5.7120016 -17.9450050
H -0.8290002 6.1470017 -17.0860048
H -1.5210004 5.8240016 -18.2750051
O 0.7326619 5.9142237 -1.6072142
H 0.0760307 5.5692336 -0.9650435
H 0.2067149 6.6285779 -2.0270148
O -0.9320003 3.1660009 18.5590052
H -1.1990003 3.7740011 17.8970050
H -1.7000005 2.6190007 18.6220052
O 14.4080040 2.2360006 -2.3870007
H 14.4040040 1.3890004 -1.8580005
H 13.7480038 2.8710008 -2.0000006
O 12.0960034 4.2730012 14.1200040
H 12.8830036 4.8190013 14.2540040
H 11.3160032 4.7170013 14.5650041
O -4.4942271 3.3032274 -8.1873275
H -4.1673284 2.9279804 -7.3375822
H -4.4037650 2.4695481 -8.7108169
O -6.1110017 0.7540002 12.7640036
H -6.7210019 1.5580004 12.7370036
H -5.4660015 0.9900003 13.4390038
O 12.1580034 -0.5230001 -8.3250023
H 12.7650036 0.0570000 -7.7830022
H 11.6440033 0.2290001 -8.6380024
O 9.9930028 0.5320001 9.6150027
H 9.0020025 0.5370002 9.5700027
H 10.1960029 1.1810003 10.3220029
O -3.5270010 -15.4840043 -4.3260012
H -4.4260012 -15.0780042 -4.2400012
H -3.0370008 -14.7480041 -4.6760013
O -1.6214909 2.2150623 -0.1309224
H -2.2799952 1.7193082 -0.6512076
H -1.5081541 1.5986389 0.6167331
O 0.5330001 2.1110006 15.0860042
H 1.1340003 2.0040006 14.3240040
H -0.1240000 2.7900008 14.7510041
O 16.0470045 2.8360008 -4.6070013
H 15.4890043 2.6630007 -3.7780011
H 16.0120045 1.8850005 -5.0290014
O -17.1730048 8.2340023 4.0720011
H -17.0830048 8.2160023 5.0830014
H -16.6610047 7.4640021 3.9020011
O 0.1730000 -10.6150030 -13.2690037
H 0.8270002 -10.0750028 -12.8660036
H -0.5750002 -10.5040029 -12.5230035
O -0.5817460 -11.3459287 5.7822292
H -0.0982234 -11.8411117 5.0979134
H -0.4933141 -11.9564811 6.5376521
O 0.2541758 6.2175871 -13.2903910
H 1.1660157 5.9246025 -13.0811781
H 0.3676967 7.1938016 -13.2886006
O -2.4314927 7.8767391 4.8199683
H -2.4548223 8.7135381 5.3233190
H -1.8257229 8.0936278 4.0811815
O -2.5998654 -10.6732853 -2.3985669
H -3.2542150 -10.6252446 -1.6639256
H -1.9135934 -10.0694689 -2.0440434
O -8.3480023 -9.0120025 13.4690038
H -8.0380022 -9.9170028 13.6630038
H -8.3550023 -8.8790025 12.4720035
O -0.5867906 7.8795357 -3.0000057
H -0.4579306 7.8500638 -3.9745222
H -1.5467002 8.0664130 -2.9559643
O -2.7680008 8.6140024 13.8640039
H -2.3270007 8.3740023 14.6720041
H -2.1430006 9.2530026 13.5890038
O 11.7250033 -9.1760026 -6.4400018
H 11.4530032 -9.0900025 -5.4770015
H 12.0870034 -10.1140028 -6.3890018
O 16.7530047 7.9590022 -3.4810010
H 17.1170048 7.0770020 -3.1870009
H 15.7900044 7.6120021 -3.3390009
O 9.5980027 4.9270014 15.4950043
H 8.6650024 4.7290013 15.3320043
H 9.5500027 5.0250014 16.4620046
O -13.9880039 5.6310016 1.9490005
H -13.7670039 6.0490017 1.0430003
H -14.2560040 4.7650013 1.7790005
O 3.8260011 -13.9840039 3.3100009
H 4.3010012 -14.4810041 2.6340007
H 3.5660010 -14.7580041 3.8680011
O 1.9910006 4.0360011 -15.0200042
H 2.3340007 3.6180010 -14.2200040
H 2.5240007 4.8580014 -15.0180042
O -1.2129321 3.6881147 3.4155781
H -0.4795742 4.1384480 2.9606893
H -1.3126489 4.2671524 4.2032900
O -13.6280038 3.8050011 -5.6880016
H -13.0410036 3.5950010 -6.4430018
H -14.5150041 3.6620010 -6.1430017
O -15.7790044 2.1920006 9.2170026
H -16.3500046 2.5960007 9.9080028
H -16.4730046 1.8460005 8.5420024
O 4.6620013 -15.8140044 -5.9060017
H 3.9260011 -16.3930046 -5.6440016
H 4.6700013 -15.0780042 -5.2240015
O 4.8160013 -13.5550038 8.1700023
H 5.1050014 -12.8590036 7.5570021
H 3.9010011 -13.1700037 8.3720023
O 5.3220980 3.7292443 -7.4852809
H 4.6172163 3.4602826 -8.1075689
H 5.1571765 3.0635180 -6.7877303
O 3.8575077 2.9562892 9.2811466
H 4.5994533 3.5767396 9.1398040
H 3.1963435 3.2995851 8.6427459
O -9.9100028 8.3690023 -11.7480033
H -10.5100029 8.8210025 -12.2890034
H -9.0760025 8.8580025 -11.9710034
O -12.4860035 10.9560031 2.8690008
H -12.6410035 10.3110029 2.1880006
H -13.2630037 10.9860031 3.4070010
O 1.4753804 -12.6272333 4.3447327
H 1.9143421 -11.8998972 4.8351334
H 2.2481451 -13.1422950 4.0483380
O 2.7960220 5.6315842 -12.3167443
H 3.7612349 5.8286673 -12.3574312
H 2.8679208 4.6566006 -12.3898730
O 4.0898163 9.4893260 4.8489942
H 4.6015764 9.4047746 5.6820748
H 3.1855981 9.3978645 5.2153971
O -8.5900024 -13.7090038 -4.1450012
H -8.7930025 -14.4100040 -3.4720010
H -8.8920025 -12.9170036 -3.7590011
O -8.5070024 9.3220026 -5.3120015
H -8.4910024 8.4690024 -4.8180013
H -7.5590021 9.3650026 -5.5630016
O -11.2390031 11.4530032 8.5570024
H -10.3610029 11.3530032 8.7840025
H -11.6200033 11.4490032 9.4080026
O 8.3870023 -13.8100039 -8.8040025
H 8.3470023 -13.3350037 -7.9140022
H 7.4170021 -13.9130039 -8.8390025
O 5.7640016 -7.7810022 13.9260039
H 6.3880018 -8.0210022 13.2950037
H 6.0700017 -6.8940019 14.2700040
O 9.9460028 7.9440022 -8.0430023
H 10.4100029 8.2360023 -8.7970025
H 9.6950027 8.7650025 -7.5970021
O 7.5950021 9.5270027 11.4730032
H 8.4920024 9.1400026 11.2070031
H 7.0330020 8.8480025 11.0970031
O -5.1328762 -4.7313570 -12.1067306
H -6.0511605 -4.3959364 -12.1786124
H -5.0078014 -4.7252473 -11.1333388
O -6.1909642 -7.1046942 6.6374608
H -6.0393930 -7.6377126 7.4388186
H -6.7956293 -7.7264745 6.1772223
O -0.8640002 11.3890032 -11.3040032
H -0.6370002 12.1010034 -10.7090030
H -0.7510002 10.5740030 -10.7490030
O -3.8320011 13.5570038 6.6310019
H -3.3480009 13.4620038 5.7560016
H -3.4510010 14.4090040 6.9800020
O 11.5400032 -3.7070010 -12.6990036
H 10.6040030 -3.9610011 -12.9290036
H 11.8450033 -4.5940013 -12.5620035
O 11.5890032 -6.0850017 7.1840020
H 11.2780032 -6.8000019 6.6080018
H 12.5230035 -6.4300018 7.4250021
O 8.2550023 9.9150028 -13.4280038
H 8.4780024 10.5770030 -14.1100039
H 7.8210022 10.4450029 -12.7210036
O -11.2920032 -13.7810039 -1.4470004
H -10.7430030 -13.9600039 -0.6600002
H -10.9410031 -14.5080041 -2.0360006
O -10.8502569 4.2273305 -3.2364847
H -10.0933501 3.7022385 -2.8932181
H -11.5260166 3.5354698 -3.3615999
O 3.7790011 -16.0220045 -2.8370008
H 4.4970013 -16.6150047 -2.7730008
H 3.2210009 -16.4950046 -3.5420010
O 4.4920013 -13.5820038 12.4550035
H 4.6770013 -14.5510041 12.4000035
H 5.3490015 -13.1360037 12.2210034
O 7.7832671 0.5759403 -4.8040956
H 7.1669203 0.9740635 -4.1541247
H 8.0876920 1.3858891 -5.2672412
O 2.8441997 -1.3785458 10.3370186
H 2.2830326 -1.7512858 9.6355936
H 2.1992230 -0.7784417 10.7725335
O -6.0810017 -11.3940032 -14.3630040
H -5.6080016 -12.1820034 -14.0670039
H -6.1250017 -10.8960030 -13.5330038
O -5.9500017 -12.5750035 2.4990007
H -5.1240014 -12.4470035 2.9780008
H -5.6210016 -12.7070036 1.6270005
O -6.0887101 5.8088555 -12.4572398
H -5.7635924 5.2017681 -11.7591989
H -6.2093355 5.1419829 -13.1609589
O -8.1304846 7.9654475 2.2173274
H -8.0913999 8.2227973 1.2703705
H -8.8423023 8.5758302 2.5284106
O 10.0330028 -9.8010027 2.7220008
H 10.5860030 -10.4510029 3.2050009
H 10.7630030 -9.3260026 2.2040006
O 12.3600035 8.6370024 2.1880006
H 13.0810037 8.3910023 2.7880008
H 12.3030034 7.7080022 1.8180005
O -14.6590041 5.0770014 -9.7970027
H -15.0810042 5.3540015 -10.6530030
H -14.3980040 4.1800012 -10.1200028
O -3.3740009 -13.1960037 7.5540021
H -3.8080011 -12.3560035 7.7590022
H -4.0980011 -13.7130038 7.1560020
O -0.0862253 1.4909711 -9.7523741
H 0.2790249 1.2009022 -8.8939406
H -0.2261036 2.4522261 -9.6118145
O 0.0765405 7.7352120 6.9927724
H 0.2886610 6.9657163 7.5468410
H -0.8026864 7.9475960 7.3800999
O -3.1600009 -15.7620044 -7.2070020
H -2.7870008 -16.6180047 -7.5130021
H -3.5760010 -16.1660045 -6.4320018
O -2.6140007 -15.4080043 9.1790026
H -2.6600007 -15.0780042 10.0460028
H -2.6750007 -14.5120041 8.7740025
O 1.2044912 5.3606711 -5.9923917
H 0.8446517 4.5043369 -5.7199350
H 1.5640170 5.1291635 -6.8778322
O -2.1370006 4.3900012 15.9180045
H -3.0390009 4.1240012 15.6300044
H -1.9080005 5.0710014 15.2760043
O 16.2560045 5.2620015 -5.6980016
H 15.7270044 4.6150013 -5.1550014
H 17.0300048 4.6200013 -5.8070016
O 15.3040043 5.2850015 9.3830026
H 15.9800045 4.6950013 8.9500025
H 14.9580042 4.5410013 9.8260028
O -5.2650015 -17.5070049 -6.0490017
H -5.9320017 -17.0750048 -6.5540018
H -5.6990016 -17.3060048 -5.1950015
O -5.4511458 0.3241142 -5.8731135
H -5.8023139 0.3945798 -4.9583737
H -4.8006917 1.0564009 -5.8921231
O -7.7280022 2.7990008 13.5460038
H -8.6610024 3.0640009 13.6810038
H -7.3980021 2.6710007 14.4500040
O 13.2130037 1.2870004 -6.6200019
H 12.7800036 0.7990002 -5.8370016
H 12.9760036 2.1930006 -6.3990018
O 9.2330026 1.6670005 12.3760035
H 8.8520025 0.9170003 12.0270034
H 8.4260024 2.2380006 12.3440035
O 3.7362681 -6.3057315 -11.8345900
H 4.3816459 -5.5758674 -11.7643744
H 3.1129046 -6.1436886 -11.1000413
O 0.8002017 -5.1211879 1.2741407
H -0.1114984 -5.3925821 1.5005839
H 0.7341484 -5.0503720 0.2997637
O 3.4850010 12.0140034 3.8290011
H 2.5430007 12.2110034 3.9410011
H 3.5940010 11.0880031 4.1260012
O 18.4580052 -5.9760017 4.1250012
H 17.7280050 -6.4310018 4.5680013
H 18.0960051 -6.0240017 3.2450009
O -12.6760035 -6.2990018 -4.8780014
H -12.6070035 -5.3350015 -4.6060013
H -13.5020038 -6.4650018 -4.4100012
O 2.4236159 -4.1467228 -2.9559911
H 3.1958993 -4.5084452 -2.4622917
H 1.7139805 -4.2275613 -2.2854834
O 0.7920002 -5.0050014 15.0740042
H 1.2700004 -4.8510014 14.2040040
H 0.8580002 -5.9960017 15.0940042
O 5.2158324 10.7997762 -2.2831143
H 5.7684164 10.7215685 -1.4787347
H 5.7581977 10.3083180 -2.9327034
O 3.1070009 13.0990037 13.7850039
H 3.8380011 13.0890037 14.3960040
H 2.9160008 14.0590039 13.8710039
O -16.2080045 3.6790010 -6.5310018
H -16.6130046 3.6240010 -7.4440021
H -16.9370047 3.7800011 -5.9110017
O 0.1942809 -11.3183232 -4.2245267
H -0.5506755 -11.9135063 -4.4140432
H -0.2062214 -10.4353942 -4.3348966
O -2.7420008 -13.7770039 11.6760033
H -3.0430009 -13.6220038 12.5290035
H -1.7960005 -13.7920039 11.8560033
O 4.2941403 7.9750838 -4.1848229
H 3.6816691 7.2446506 -3.9317060
H 3.6704224 8.7324719 -4.2282646
O 0.2867515 5.8549725 9.0660530
H -0.4557335 5.2136633 9.1520350
H 0.1061247 6.4311266 9.8430161
O -16.8740047 -2.8900008 -3.5400010
H -16.6110046 -2.9760008 -4.5020013
H -17.4800049 -2.0970006 -3.5510010
O 0.4552533 -3.0541997 -7.0185627
H 0.7013394 -2.6358356 -7.8778874
H 1.2681578 -2.8586947 -6.4964290
O -2.3080006 -3.1550009 15.2930043
H -2.0230006 -2.2570006 15.2470043
H -1.4340004 -3.6290010 15.1480042
O -2.0230006 14.2850040 -6.1270017
H -2.0460006 15.2990043 -6.3200018
H -2.6740007 14.1120039 -5.3880015
O 18.1760051 -4.0540011 -5.0550014
H 17.4960049 -3.4180010 -4.8300014
H 18.0030050 -4.6610013 -4.3130012
O 13.4520038 0.2040001 11.4890032
H 12.9010036 1.0440003 11.6310033
H 12.8100036 -0.4630001 11.7050033
O -17.1540048 0.6530002 1.0540003
H -17.2540048 1.5760004 1.4240004
H -16.2150045 0.7060002 0.8970003
O 1.5420004 -2.7040008 -14.2210040
H 1.9070005 -2.2090006 -15.0060042
H 1.8390005 -3.5890010 -14.5070041
O -3.6068649 -0.1823696 6.9574252
H -3.1167727 -0.7159034 7.6168871
H -3.2505072 0.7104452 7.1570354
O 4.9720014 15.3230043 2.2750006
H 4.0290011 15.3380043 2.3560007
H 5.2340015 15.6800044 3.1440009
O 18.3110051 -3.2280009 5.1360014
H 18.0690051 -3.5260010 6.0690017
H 18.3200051 -4.1730012 4.8750014
O -16.2400045 -5.6370016 -4.1580012
H -15.7280044 -5.9630017 -3.3530009
H -16.7990047 -4.9410014 -3.8100011
O 1.5009972 -6.2524582 -4.4434692
H 1.9583830 -5.5725440 -3.9071204
H 0.6490571 -5.7905798 -4.5911784
O -0.5350001 -9.1820026 15.0460042
H 0.3530001 -9.3950026 15.4680043
H -0.1380000 -8.9430025 14.2170040
O 2.9800008 15.1970043 -3.4600010
H 3.1060009 14.3820040 -2.8840008
H 3.0610009 14.9090042 -4.2870012
O 1.6400005 14.0600039 11.1830031
H 2.4950007 14.1170040 11.5510032
H 1.2960004 13.1410037 11.1990031
O -2.1020006 -12.9230036 -3.8630011
H -2.0650006 -13.4840038 -3.0990009
H -2.1480006 -12.0500034 -3.4750010
O -4.3040012 -11.8100033 10.5040029
H -3.6470010 -11.2450031 10.0890028
H -3.6390010 -12.5580035 10.6190030
O 2.5898583 5.9669939 -3.6678211
H 2.0637275 5.7583558 -4.4681782
H 1.9066010 5.9053432 -2.9686004
O -5.2940015 10.1460028 13.0180036
H -4.6740013 9.5180027 13.4160038
H -6.2090017 10.0860028 13.4690038
O 11.7260033 5.5120015 10.2270029
H 12.2020034 5.9080017 9.4500026
H 11.7310033 4.5950013 9.8980028
O -3.7008757 -7.1358342 -4.2165607
H -4.5516402 -7.5831262 -4.0153556
H -4.0397475 -6.2127067 -4.2575704
O -3.6790010 -6.0560017 13.9640039
H -3.9410011 -5.7930016 14.8810042
H -2.7110008 -5.9930017 14.0530039
O -0.1876566 7.7108045 -5.6836439
H 0.4313220 6.9773434 -5.8948062
H 0.0963420 8.3973726 -6.3264995
O -1.5200004 12.7580036 11.8640033
H -1.6410005 12.2990034 12.7080036
H -1.8440005 13.6610038 12.1180034
O 15.3740043 -3.7410010 -7.0980020
H 16.1390045 -3.2840009 -7.4550021
H 15.5010043 -3.8020011 -6.1710017
O 11.6910033 -7.0420020 14.1090039
H 11.4510032 -6.3050018 13.5100038
H 11.2680032 -6.7480019 14.9610042
O -10.1200028 -5.7340016 -12.8480036
H -10.8760030 -5.1350014 -12.9340036
H -10.6630030 -6.4300018 -12.4240035
O -13.4110038 -5.8020016 4.1060011
H -13.7420038 -4.8980014 4.2450012
H -12.5770035 -5.6210016 3.6180010
O 7.7370022 -7.9650022 -15.3460043
H 7.8530022 -7.4420021 -14.5070041
H 7.8470022 -7.3720021 -16.0660045
O 3.7003281 -6.9415827 5.9803212
H 2.9337114 -6.3894056 6.2254541
H 4.1020445 -6.3992601 5.2781837
O 8.6640024 13.8340039 4.8770014
H 8.8590025 12.9460036 5.1340014
H 7.6770021 13.7700039 4.8180013
O -12.4749653 -2.1871943 0.5267207
H -12.9364602 -1.8015016 -0.2507348
H -11.6802404 -2.5522410 0.0925794
O 5.2710015 -0.6120002 -17.1120048
H 6.1820017 -0.9200003 -17.2510048
H 5.1890015 0.0900000 -17.8420050
O 4.8058099 -5.3850405 3.9055317
H 4.4650465 -4.4782416 3.7478920
H 4.3041090 -5.8492227 3.1912211
O 0.8620002 0.0750000 17.2950048
H 0.5690002 0.4880001 16.4330046
H 1.7950005 -0.2040001 17.1350048
O -6.2560018 -15.0960042 -5.1210014
H -6.7670019 -15.4110043 -5.8610016
H -6.8550019 -14.4200040 -4.7160013
O -6.8160019 -12.6300035 9.4980027
H -6.5340018 -13.5350038 9.2440026
H -5.9580017 -12.3000034 9.7500027
O -3.3661031 2.1108728 -6.0932669
H -2.8455363 2.7868571 -5.6111740
H -2.6739666 1.5103672 -6.4483116
O -3.7500010 5.8580016 14.4070040
H -3.9570011 6.6620019 13.9740039
H -4.2100012 5.9780017 15.2290043
O 13.6450038 5.9820017 -6.8240019
H 13.9170039 6.9330019 -6.9800020
H 14.5010041 5.7200016 -6.4580018
O 12.6590035 5.5020015 7.6250021
H 13.5260038 5.1100014 7.5490021
H 12.0090034 4.7590013 7.4360021
O -6.8229724 -3.1585408 -7.2131067
H -7.0520025 -2.2132296 -7.1350871
H -6.9382958 -3.2807842 -8.1745647
O -7.9692147 -1.1096179 9.4057994
H -8.3634234 -0.2168063 9.4188992
H -8.7308684 -1.5893050 9.8023625
O -4.6130013 15.3070043 -8.2400023
H -4.7760013 14.3420040 -8.1250023
H -4.8820014 15.6310044 -7.4000021
O 12.9740036 -3.2220009 -8.6030024
H 12.9720036 -2.3080006 -8.3350023
H 13.8640039 -3.5180010 -8.2260023
O 11.4550032 -1.6760005 8.9320025
H 10.8350030 -0.8840002 9.0730025
H 11.0630031 -2.2210006 8.1780023
O -8.5140024 -6.7220019 -14.7730041
H -7.6530021 -6.2660018 -14.4690040
H -9.1510026 -6.3090018 -14.0810039
O -11.4000032 -11.5590032 1.9900006
H -11.3070032 -10.5920030 2.2300006
H -12.0930034 -11.7870033 2.5660007
O -8.9450025 7.4990021 -14.4200040
H -9.4030026 7.9110022 -13.6710038
H -7.9730022 7.6060021 -14.2640040
O -10.6222309 6.0212611 1.1459918
H -11.1475311 5.3849945 0.6128233
H -10.8572281 6.8741427 0.7232033
O 5.6270016 -13.4880038 1.3180004
H 4.8150013 -13.6820038 0.7740002
H 5.6480016 -12.4950035 1.3490004
O 9.6758838 5.4271919 -2.8111696
H 10.4823038 5.9001591 -2.5188740
H 10.0429959 4.5326418 -2.9812561
O 4.7860013 8.3970024 15.4090043
H 4.4380012 8.9900025 16.0940045
H 5.7840016 8.4870024 15.5570044
O -6.6422448 -9.1116982 -0.8738944
H -7.3088738 -9.7572012 -1.1913260
H -5.8667540 -9.6976066 -0.7882873
O -5.7362056 7.4534013 -1.2480304
H -6.5306288 7.8928597 -0.8895569
H -6.1651544 6.6729279 -1.6483347
O 14.0010039 -7.6470021 0.2760001
H 14.4100040 -8.0470023 1.0370003
H 13.1430037 -8.0550023 0.2510001
O 13.6640038 13.8370039 -2.1020006
H 13.0480037 13.2360037 -2.5640007
H 13.0090036 14.0550039 -1.4090004
O -7.4650021 -14.6890041 0.0900000
H -7.3240020 -13.9910039 -0.5440002
H -6.4870018 -14.9990042 0.0700000
O -8.0961473 6.9107639 -4.0748352
H -8.5298152 6.2772473 -4.6816620
H -8.0336237 6.3843052 -3.2443576
O -6.5420018 3.4810010 16.1020045
H -7.1540020 3.3990010 16.8760047
H -6.4290018 4.4420012 15.9940045
O 11.4930032 -11.3860032 -4.7570013
H 11.2430031 -11.2030031 -3.8610011
H 10.8170030 -12.0570034 -4.9050014
O 11.2395054 3.1676314 -5.6651496
H 11.2194716 3.1223245 -4.6868420
H 11.2258980 4.1378854 -5.8173158
O 4.5840013 7.1010020 12.3450035
H 4.6050013 6.4410018 11.6120032
H 5.4470015 6.9570019 12.7390036
O -7.1920020 -10.0870028 -7.5660021
H -6.5600018 -9.4480026 -8.0450023
H -7.8090022 -10.3560029 -8.3390023
O -8.8400025 -10.4340029 9.5220027
H -9.4960027 -11.1360031 9.7950027
H -7.9720022 -10.8180030 9.7900027
O -7.5729034 6.0424282 -8.3195274
H -7.4294634 7.0042018 -8.4409010
H -7.8164414 5.7857922 -9.2340221
O -6.8597638 8.8039807 7.9442015
H -7.2082029 9.6192275 8.3703019
H -6.3229895 9.1984033 7.2258918
O 8.3042026 -7.0383467 7.3053564
H 9.0390412 -7.3302562 6.7378240
H 7.5782401 -7.1028640 6.6406433
O 11.7040033 8.1810023 -11.4610032
H 11.6700033 7.2600020 -11.1870031
H 12.0390034 8.6080024 -10.7040030
O 9.7120027 8.7640025 10.2080029
H 9.8920028 8.2150023 9.3680026
H 10.6330030 8.7280024 10.5970030
O -5.4270015 -13.9120039 -9.0610025
H -5.0970014 -14.4470040 -8.3220023
H -4.6260013 -14.0350039 -9.5650027
O -4.6705381 -10.8163142 6.8335897
H -4.0420898 -10.1106840 7.0839397
H -5.5030704 -10.4856972 7.2049400
O -2.6940198 5.3716763 -8.5447779
H -2.6306979 5.7017718 -7.6254222
H -3.3511709 4.6558248 -8.4614639
O -2.6417995 6.8929623 10.9052486
H -3.4404837 7.4409910 11.0468335
H -3.0265956 5.9980967 10.9737259
O 14.1850040 7.9000022 9.8470028
H 14.4640040 6.9670019 9.9260028
H 14.4370040 8.1330023 8.9400025
O -16.3750046 7.3470021 6.8350019
H -15.9250045 6.4780018 7.0370020
H -15.7180044 7.9680022 7.1240020
O 0.1410000 -13.2470037 -7.0790020
H 0.4840001 -13.6840038 -6.2700018
H 0.4700001 -12.3290035 -6.8340019
O -0.2680001 -13.1780037 7.7790022
H -0.7530002 -13.8480039 7.2530020
H 0.0530000 -13.7540038 8.5020024
O 1.6572860 7.5855665 -10.7451308
H 2.0147073 6.8023673 -11.2189100
H 2.0111567 8.2957121 -11.3262842
O 1.6132707 9.7058055 6.0252175
H 1.0834885 8.9285085 6.3363817
H 1.5552966 10.2747789 6.8040522
O 15.6070044 6.0500017 5.7300016
H 15.4580043 5.0880014 5.7680016
H 16.3620046 6.1260017 6.3180018
O -15.2710043 5.1690014 8.7660025
H -16.2210045 5.3430015 8.8880025
H -15.2500043 4.2520012 8.6470024
O 0.9770003 -14.6990041 -9.2740026
H 0.7320002 -14.3090040 -8.4130024
H 0.8380002 -15.6540044 -9.0990025
O 0.9520003 -14.4110040 10.0040028
H 0.7140002 -14.3190040 10.9110031
H 1.6930005 -13.8380039 10.0620028
O 2.8882146 7.1510493 -8.3183618
H 2.6806428 6.1954008 -8.3232738
H 2.4603558 7.4018215 -9.1622004
O 2.6353193 7.3362672 9.2176329
H 1.8232466 6.7984326 9.1801058
H 2.4585043 7.8722399 10.0112670
O -12.4230035 9.9530028 -8.0140022
H -13.2360037 9.5120027 -7.6680021
H -12.2080034 9.4620026 -8.8100025
O -11.7250033 7.6260021 8.3140023
H -11.2190031 7.4390021 7.4490021
H -11.5950032 6.7870019 8.8390025
O 5.8370016 -15.0540042 -9.3020026
H 4.9440014 -15.4680043 -9.4010026
H 6.3730018 -15.3650043 -10.0810028
O 2.5150007 -12.3870035 8.5100024
H 2.4110007 -11.5200032 8.9900025
H 1.8460005 -12.4430035 7.8090022
O 7.1927337 5.4903838 -6.4877008
H 6.5790974 4.7780375 -6.7716858
H 6.5698822 6.2449517 -6.5892090
O 2.6050619 3.0630832 11.8599542
H 2.7336906 2.9742024 10.8969242
H 1.6468302 3.2604719 11.9234441
O -7.6196854 2.6272513 -9.5794255
H -7.7262491 1.6838152 -9.8215747
H -7.9688644 2.6368275 -8.6831886
O -10.3430029 3.0870009 13.9330039
H -10.4670029 2.1570006 13.6770038
H -11.0110031 3.5800010 13.4700038
O 8.5340024 -14.0870039 11.1190031
H 9.3920026 -13.9460039 10.7030030
H 7.9600022 -13.9680039 10.3170029
O 13.4720038 2.4850007 -9.8160027
H 13.1860037 2.2640006 -10.6770030
H 12.6050035 2.3540007 -9.3570026
O 10.9130031 3.4250010 7.7140022
H 11.1500031 2.4940007 7.6930022
H 9.9600028 3.4030010 7.5120021
O -5.9470017 -15.3160043 9.2960026
H -5.5590016 -15.7310044 10.0780028
H -6.0090017 -16.0230045 8.7190024
O -3.7638256 0.9085719 -9.1777863
H -3.3186634 0.6662969 -10.0135711
H -3.0840631 0.6436518 -8.5311130
O -4.1743544 4.5584686 10.7058950
H -4.9672882 4.8184605 11.2350605
H -4.3739755 3.5947005 10.6020565
O 15.9570045 3.8590011 -9.0000025
H 15.0670042 3.3780009 -9.0380025
H 16.3160046 3.4720010 -9.8530028
O 12.9490036 1.0800003 8.3090023
H 13.3990037 0.8770002 7.4410021
H 12.4590035 0.2190001 8.4820024
O -3.3177772 -1.8659342 -11.9301381
H -2.7974919 -1.0329878 -11.8526567
H -3.1573070 -2.1114655 -12.8605334
O -1.6781304 3.9197392 9.2855960
H -2.5210629 4.0908595 9.7384698
H -1.9536606 3.2824724 8.5907354
O 16.9400047 3.7350010 7.8500022
H 16.4300046 3.5710010 7.0440020
H 17.4120049 2.9150008 7.8020022
O -14.9530042 5.9690017 -7.1940020
H -14.9910042 5.7650016 -8.1200023
H -15.3510043 5.1730014 -6.9080019
O 1.5860004 -17.0670048 -7.7650022
H 1.8060005 -17.9600050 -8.1010023
H 2.3970007 -16.6000046 -8.2100023
O 1.9904699 4.5223523 -8.4643806
H 1.1832512 4.4158432 -9.0120241
H 2.5151947 3.7377970 -8.7340936
O 1.8507120 4.0220542 7.7099230
H 1.3527892 4.7537988 8.1264514
H 1.7039954 4.2081612 6.7619997
O -8.4450024 3.0300008 -15.4250043
H -8.2830023 3.2890009 -16.3380046
H -8.3900023 2.0800006 -15.3540043
O -15.9150045 5.7330016 3.8540011
H -15.1350042 5.5520016 3.2590009
H -15.8970044 4.9860014 4.5390013
O 5.5250015 -15.5120043 6.3300018
H 4.9810014 -16.2570045 6.6260019
H 5.1430014 -14.8170041 6.9370019
O 5.7130429 2.1636046 -11.3673861
H 5.8401750 2.9124116 -10.7477631
H 6.4876089 2.3190151 -11.9463233
O 4.0318482 2.0069266 3.6283778
H 4.1132107 2.1003859 2.6565925
H 4.1133796 2.9238178 3.9417097
O 2.6840008 4.9850014 18.4910052
H 2.8150008 3.9660011 18.7090052
H 3.5380010 5.2100015 18.8230053
O -5.9109994 -1.5167442 -11.2218242
H -6.1795752 -2.2788079 -10.6744603
H -4.9476667 -1.6898016 -11.3454834
O -10.2490029 0.4360001 12.7550036
H -10.2470029 0.3830001 11.7650033
H -9.3490026 0.1040000 12.9850036
O -6.5390018 13.0630037 7.5350021
H -6.9970020 12.5880035 6.8040019
H -5.7720016 13.3510037 7.0430020
O 13.3100037 -0.0550000 -11.1490031
H 12.8120036 -0.4940001 -10.4370029
H 14.2360040 -0.3310001 -11.0060031
O 11.4799324 -1.2620852 5.4453003
H 10.5653725 -0.9088856 5.4563344
H 11.3407195 -2.1007524 5.9301258
O -1.7339523 0.2389220 -7.3390740
H -0.7526145 0.2700671 -7.3827910
H -1.8796053 -0.7181818 -7.4722864
O -4.7187100 1.9423029 10.6493482
H -5.2561395 1.3544810 11.2132394
H -4.0156992 1.3162435 10.3823283
O 18.1280051 0.7850002 -7.3650021
H 18.1940051 1.7400005 -7.3850021
H 17.2130048 0.6080002 -7.7400022
O 13.7240038 3.1080009 10.1180028
H 13.3150037 2.5850007 9.4570026
H 13.0480037 3.1820009 10.8670030
O -1.5990721 -1.0861597 -14.2942433
H -2.1238650 -0.2576528 -14.3025961
H -0.9526605 -0.8640970 -14.9887676
O -7.8253752 -0.3911383 3.8105044
H -8.6572046 0.1314054 3.8423585
H -7.3102488 0.0095502 4.5404462
O 2.2490006 19.2120054 4.9780014
H 1.2800004 19.1560054 4.7410013
H 2.7090008 19.2380054 4.1380012
O 12.2892989 -1.6914966 2.8996873
H 12.0449251 -1.4329978 3.8203047
H 13.1910072 -2.0485648 3.0513760
O 0.1524734 -2.2944870 -9.6343035
H -0.5507604 -2.6940827 -10.1669397
H 0.7412474 -1.9471999 -10.3364820
O -2.9400636 -0.1393752 10.3098491
H -2.4403550 -0.6711150 9.6539677
H -3.8063588 -0.6139415 10.2825904
O -3.7830011 17.7080050 7.7200022
H -3.7680011 17.0290048 8.4610024
H -3.9590011 17.2650048 6.8820019
O 15.0910042 0.3330001 6.5720018
H 15.4340043 0.3620001 5.6620016
H 15.9000044 0.6300002 7.0550020
O -13.6630038 2.3210006 -12.4830035
H -12.8010036 2.8260008 -12.2130034
H -13.7360038 1.5710004 -11.8880033
O -17.5570049 0.5350001 7.5420021
H -18.0520051 -0.3370001 7.5200021
H -18.3290051 1.2030003 7.4180021
O 0.2640001 -16.9500047 8.6390024
H 0.0750000 -17.5670049 9.3200026
H 0.2360001 -16.1520045 9.1420026
O 3.5579367 2.3032419 -9.1006740
H 3.1721102 1.8806359 -9.8964738
H 4.2153342 1.6196278 -8.8549753
O 1.6998980 1.0030540 4.8908357
H 2.1043035 0.4874661 5.6168166
H 2.4941169 1.2770326 4.3914663
O 17.6860049 1.0920003 7.6100021
H 18.5560052 1.1930003 7.2600020
H 17.8830050 0.9560003 8.5580024
O -13.3170037 0.3970001 -10.6440030
H -12.8220036 -0.4460001 -10.7740030
H -12.8060036 0.7380002 -9.9310028
O -12.9680036 2.3580007 9.8740028
H -13.0390036 2.7070008 10.8130030
H -13.8830039 2.0980006 9.6020027
O 8.4873449 -0.7353000 -10.1683031
H 9.1934682 -0.5880427 -10.8260578
H 8.5628719 0.0613432 -9.6013430
O 5.9081133 2.9119405 6.5001491
H 5.1863184 3.2973840 5.9615903
H 5.8417807 3.4629230 7.3064801
O -0.8088663 -3.4078053 -12.9125895
H -1.2067524 -2.6160211 -13.3269953
H 0.0894950 -3.3178930 -13.2777139
O -7.1982250 -2.4637184 7.1051933
H -8.1565381 -2.5900333 6.8858949
H -7.3123894 -2.0185692 7.9715241
O -1.2040003 14.3800040 5.9260017
H -1.0100003 14.6260041 5.0270014
H -0.8760002 15.0750042 6.4680018
O 13.0860037 -5.3680015 4.1080011
H 13.8910039 -4.9900014 4.4130012
H 12.9270036 -4.8110013 3.3710009
O -0.1440000 -6.9190019 -13.0190036
H -0.4570001 -6.8150019 -13.9740039
H -0.4550001 -6.0520017 -12.6850036
O -4.7246184 -3.9577119 3.0410915
H -3.8629775 -3.8068042 3.4870985
H -5.3534499 -3.4863866 3.6302268
O -3.1610009 -2.2470006 18.8060053
H -3.3000009 -3.2080009 18.8580053
H -2.2360006 -2.1130006 18.9310053
O -0.8300002 14.3160040 2.7940008
H -1.5790004 14.1840040 2.2200006
H -0.5190001 15.2170043 2.4980007
O 14.7390041 -2.9160008 2.9810008
H 15.6960044 -3.0840009 3.2480009
H 14.7550041 -3.4660010 2.1980006
O -1.6950005 -17.7210050 3.7530011
H -1.4630004 -17.4100049 2.8870008
H -2.4310007 -17.1480048 3.9440011
O 0.1260000 -0.6260002 -16.5090046
H 1.0950003 -0.5770002 -16.2560045
H -0.0440000 0.2570001 -16.8770047
O -6.1831568 0.0129558 6.0609365
H -5.2404248 -0.0408801 6.3409627
H -6.5308473 -0.7832095 6.4985803
O 15.0120042 -0.4680001 1.3810004
H 14.5440041 0.1290000 1.9830006
H 15.2890043 -1.2090003 1.9600005
O -13.0720037 -2.5770007 -9.1920026
H -12.7000036 -3.4040010 -8.9100025
H -12.7930036 -2.5370007 -10.0570028
O -16.0450045 -2.4250007 7.4830021
H -15.5990044 -1.7000005 7.9770022
H -16.8830047 -2.4960007 8.0020022
O 4.9746399 -2.9086612 -6.7673201
H 5.4609955 -3.6988418 -7.0787740
H 5.7375536 -2.3003945 -6.6625539
O 2.9224984 -0.5253143 6.8795143
H 3.5284732 -1.0900606 6.3527451
H 3.5586877 -0.1393209 7.5185877
O 5.4160015 13.4160038 -9.4260026
H 5.9380017 13.9540039 -10.0290028
H 5.8870016 13.5270038 -8.5480024
O -10.7890030 3.6840010 -11.6840033
H -10.0600028 3.9800011 -12.3230034
H -10.3770029 3.4100010 -10.8080030
O -12.6160346 2.8313614 4.9242464
H -11.7474945 2.7150648 5.3464086
H -12.5985899 3.7588978 4.6291369
O 5.8858846 -0.6005514 -11.1338520
H 5.7290412 0.3669312 -11.0503705
H 6.7819556 -0.6747892 -10.7394251
O 5.7504844 -0.2077952 3.5434979
H 5.5919579 -0.3757445 2.5895509
H 5.1885252 0.5817911 3.6846728
O -2.2744857 -3.7094449 -10.1506233
H -1.9148036 -4.5431707 -10.5257308
H -2.5178980 -3.2048264 -10.9597861
O -5.1299538 -4.5671177 6.9940027
H -5.6019431 -5.4225796 6.8993789
H -5.8602762 -3.9212859 6.9509829
O -1.8671815 11.4701722 -6.7855492
H -2.5813016 11.2857577 -7.4294284
H -1.8820860 12.4455577 -6.7378185
O -4.9350014 14.2060040 12.3870035
H -5.3340015 13.5080038 11.8600033
H -5.1890015 13.8840039 13.2750037
O 10.8033582 -3.4305111 6.9471543
H 9.8531225 -3.6539394 6.8310144
H 11.1886207 -4.3336132 6.9565595
O -1.3889002 -6.3359323 -10.4547309
H -0.7170673 -6.8235433 -10.9577969
H -2.0268417 -7.0657794 -10.2798646
O -2.7326752 -7.9181804 5.1423841
H -3.5213345 -7.4890059 4.7452853
H -2.5811721 -8.6276029 4.4758752
O -1.9210005 12.6190035 -13.3620037
H -1.6630005 12.3260034 -12.5290035
H -2.3360007 13.5160038 -13.1920037
O 0.9260003 12.7590036 4.0350011
H 0.9110003 12.9460036 5.0230014
H 0.0790000 13.1300037 3.7510010
O 15.7240044 -7.0860020 5.2250015
H 15.5690044 -6.3680018 5.8750016
H 15.2440043 -7.7880022 5.7230016
O -16.5510046 -5.4540015 5.7230016
H -17.4590049 -5.4030015 6.0180017
H -16.6340047 -5.5240015 4.7390013
O 2.3570816 -6.6699164 -6.9817754
H 2.1506344 -6.4704312 -6.0430081
H 1.5731258 -6.2729710 -7.4203847
O -2.3539186 -4.1220787 7.2311414
H -3.2872701 -4.3411901 7.0389099
H -1.8686984 -4.8092684 6.7456066
O 2.1660006 14.7020041 -10.1390028
H 1.7740005 15.5310043 -10.5040029
H 2.7280008 15.2720043 -9.5560027
O 1.6750005 13.6550038 8.3440023
H 2.2260006 13.8080039 9.1020025
H 2.4150007 13.5810038 7.6520021
O -14.6220041 -3.6110010 5.7160016
H -15.1600042 -4.4270012 5.5850016
H -15.1620042 -3.1350009 6.4150018
O 5.9340017 -4.5560013 -11.5360032
H 6.4140018 -5.3850015 -11.4730032
H 6.5150018 -3.7630011 -11.1940031
O 0.5247775 -2.8721994 5.6783858
H -0.2639609 -2.2991567 5.5838169
H 0.8364943 -2.8810017 4.7470032
O 4.9720014 13.9570039 -12.2350034
H 4.4650012 13.4030038 -11.6050032
H 4.3670012 14.0120039 -13.0330036
O 0.8310002 16.4030046 5.3400015
H 0.5090001 17.2060048 4.8720014
H 1.3730004 16.7580047 6.0630017
O -13.7390038 -5.3720015 -10.1660028
H -13.5450038 -6.2090017 -9.6480027
H -14.0780039 -4.8520014 -9.4310026
O -16.2260045 -7.3690021 7.5970021
H -16.4310046 -6.4490018 7.6820021
H -15.2950043 -7.2550020 7.2750020
O 4.7421402 -6.8180273 -8.2837072
H 4.5594215 -7.5175646 -8.9481941
H 3.8458778 -6.6661226 -7.9116328
O 0.5826492 -7.7483599 8.6200611
H 0.5749962 -8.0821721 7.6957705
H -0.3510312 -7.4807324 8.7377031
O 7.2020020 13.6600038 -7.2990020
H 7.2480020 13.3700037 -6.3840018
H 7.3720021 14.5830041 -7.1320020
O 3.8870011 13.1170037 6.5870018
H 4.5820013 12.4740035 6.7860019
H 4.4490012 13.8990039 6.7250019
O -3.5539073 -7.4762919 -6.9663191
H -3.6186802 -7.5093937 -5.9917193
H -3.5074566 -6.5031093 -7.0863393
O -6.0140017 -9.0390025 8.7960025
H -6.4960018 -8.6510024 9.4870027
H -5.1380014 -9.0530025 9.1850026
O -5.2320015 12.7280036 -7.2940020
H -6.1480017 12.5170035 -7.0590020
H -4.8090013 11.8840033 -7.6780021
O -5.4490015 12.1400034 3.1830009
H -5.8190016 12.9810036 2.8370008
H -6.0080017 11.4710032 2.7620008
O 9.5610027 -9.0370025 11.4920032
H 9.7750027 -9.7290027 10.8540030
H 10.2750029 -8.4190024 11.2570032
O 11.4400032 11.9390033 -10.2840029
H 11.2990032 11.2850032 -9.6250027
H 12.1270034 11.5240032 -10.8150030
O 10.6200030 13.4320038 7.4690021
H 9.7340027 13.0290036 7.3610021
H 10.9330031 12.8650036 8.1280023
O -17.0490048 -5.0560014 3.1780009
H -17.2880048 -5.9660017 2.8730008
H -17.4790049 -4.5570013 2.4140007
O -3.0970009 -11.1220031 -9.0500025
H -2.9730008 -12.0960034 -8.8630025
H -3.3090009 -10.9030031 -8.1040023
O -2.7939274 -9.0271236 7.6207968
H -2.6871571 -8.6611078 6.7126377
H -2.5282770 -8.2469714 8.1530602
O -0.7099520 8.8943429 -10.0443319
H 0.0672416 8.3506285 -10.3030937
H -1.4298378 8.4342535 -10.5237422
O -5.6445065 8.7031279 3.0510547
H -5.5155656 9.3221610 2.3109570
H -6.5477512 8.3741206 2.8567251
O 0.6274795 -9.2910280 -8.9864647
H 0.2960652 -9.9172254 -9.6637150
H -0.1357237 -9.2580186 -8.3668890
O -2.0173514 -7.0660425 9.2939800
H -2.2003538 -7.6071732 10.0903122
H -2.2566257 -6.1749081 9.6261734
O 0.1728501 9.7086610 -7.5771310
H -0.2207559 9.4203336 -8.4298815
H -0.4629815 10.3960264 -7.2923412
O -2.9760008 12.7120036 9.3800026
H -2.2220006 12.3110034 8.9330025
H -2.4160007 12.9800036 10.1810028
O -2.3480007 -13.5580038 -8.2350023
H -1.4580004 -13.4730038 -7.7760022
H -2.6660007 -14.3400040 -7.7330022
O -1.1440003 -6.1330017 12.7720036
H -0.7690002 -7.0120020 12.6740035
H -0.3620001 -5.6060016 12.6140035
O -0.4935395 4.2189829 -9.6915692
H -0.7810879 4.4796402 -10.5892168
H -1.2029629 4.6745722 -9.1877401
O -2.1676033 8.0501375 8.4330650
H -2.7392683 8.8278141 8.5546864
H -2.2552186 7.5960564 9.2922537
O 13.9540039 8.6430024 -6.8040019
H 13.6650038 8.8690025 -5.9270017
H 14.6100041 9.2920026 -6.9930020
O -7.5180021 -16.0440045 -7.3960021
H -7.3800021 -16.3280046 -8.3410023
H -8.1950023 -15.3480043 -7.5530021
O -5.7461337 5.1086884 -6.5155521
H -5.3093271 4.4922434 -7.1360211
H -6.4186801 5.4901473 -7.1203636
O -6.5170018 5.0580014 11.9770034
H -7.0730020 5.8570016 12.0020034
H -6.9490019 4.4130012 12.5660035
O 12.8380036 5.6510016 -9.3620026
H 13.2030037 5.9290017 -8.4960024
H 12.4480035 4.8530014 -9.0790025
O 9.9130028 6.4610018 12.1490034
H 10.6070030 5.9170017 11.7100033
H 9.4290026 6.8810019 11.4150032
O -8.5090024 -10.9290031 -1.7730005
H -9.3500026 -11.0870031 -1.2580004
H -8.9870025 -10.6650030 -2.6120007
O -5.3865125 7.1232330 -4.6413506
H -5.3105511 6.3706408 -5.2672833
H -6.2980592 6.9918625 -4.3101192
O 10.3010029 -10.7320030 -1.9200005
H 9.4890027 -10.2780029 -1.6380005
H 10.2890029 -11.5210032 -1.3120004
O 10.1511411 9.2209572 -3.4660321
H 9.9254935 9.0579299 -2.5290829
H 9.5768489 8.5723526 -3.9104986
O -4.8450014 -11.8810033 -3.6070010
H -4.8610014 -11.7770033 -4.6100013
H -4.0750011 -11.3940032 -3.3800009
O -7.9409173 5.5100183 0.9004910
H -7.7370989 6.2648157 1.4803915
H -8.9205993 5.5117106 0.9676185
O 6.9180019 -12.0940034 -2.3150006
H 6.3620018 -11.6730033 -1.6250005
H 7.5830021 -11.3460032 -2.4780007
O 12.4239637 3.6429795 -0.8514689
H 11.5297753 3.9210232 -0.5571320
H 12.8792029 3.7116699 0.0129990
O -8.3817495 -9.8467286 3.0002752
H -9.2944817 -9.5689358 2.7730089
H -7.8753911 -9.0834584 2.6513542
O -5.9500017 8.0080022 -14.3920040
H -5.1030014 8.1000023 -14.8900042
H -5.8050016 7.0420020 -14.2130040
O -8.1345437 8.6464602 -0.4412540
H -8.1076348 9.1772258 -1.2697726
H -9.1051403 8.5116158 -0.3591032
O 8.6570024 -11.1900031 0.8070002
H 9.1690026 -10.6160030 1.4730004
H 9.1840026 -11.9970034 0.6090002
O 9.3760026 10.4250029 1.1300003
H 8.6990024 10.8910030 1.6340005
H 10.2310029 10.8270030 1.4840004
O -9.0570025 -9.2070026 -11.7240033
H -9.3330026 -8.7900025 -12.5550035
H -9.1300026 -10.1230028 -11.9730034
O -11.1320031 -14.0880039 5.0540014
H -10.5250029 -13.3560037 5.3530015
H -10.5290029 -14.7000041 4.5240013
O -8.6660024 5.5860016 -10.8490030
H -8.9840025 6.4650018 -11.0070031
H -8.3810023 5.3760015 -11.7500033
O -9.9065538 6.8063563 6.3286124
H -10.0788939 6.4549248 5.4244149
H -8.9274557 6.7046516 6.3449511
O 9.0200025 -10.2270029 5.5240015
H 8.7220024 -10.7890030 4.7120013
H 8.2480023 -10.2960029 6.1330017
O 8.4620024 7.5410021 -11.8220033
H 7.5150021 7.7260022 -11.6440033
H 8.7550025 8.3090023 -12.3230034
O 7.7788344 9.0528852 4.3239189
H 8.3689400 8.3811183 3.9251748
H 7.0415060 9.0545847 3.6908909
O -9.0040025 -14.0890039 9.4230026
H -8.3330023 -13.3780037 9.4250026
H -9.7110027 -13.4770038 9.7710027
O -10.1960029 4.2740012 -9.1590026
H -10.8370030 4.7880013 -9.6700027
H -9.3150026 4.4640012 -9.5100027
O -11.2120031 3.6370010 8.5920024
H -11.7440033 3.0840009 9.2770026
H -11.9220033 4.0920011 8.1000023
O 6.8330019 -16.6130046 -7.2560020
H 5.9480017 -16.5600046 -6.8430019
H 6.6060018 -15.9600045 -7.9390022
O 6.3340018 -15.3370043 9.7070027
H 5.7840016 -14.7640041 9.0960025
H 5.7440016 -15.4750043 10.4430029
O 8.1387061 1.5044316 -8.5046147
H 7.1779933 1.3256083 -8.4940914
H 8.2286097 2.0204272 -7.6756572
O 5.8704920 4.7613996 8.5300481
H 6.7579616 5.1718258 8.4824406
H 5.3319285 5.4745668 8.1249183
O -9.7860027 -15.7380044 -2.7630008
H -9.9170028 -16.2920046 -3.5220010
H -9.5540027 -16.4610046 -2.1290006
O -8.8605872 2.8539644 -5.5069609
H -9.0948009 2.0626522 -4.9694506
H -7.9458721 2.9840566 -5.1661539
O 8.5621288 2.8741855 -6.1666274
H 8.3255738 3.8159483 -6.1138595
H 9.5406658 2.9209436 -6.0626223
O 4.6640013 2.5050007 13.4810038
H 4.5250013 3.2810009 14.0940039
H 4.0210011 2.7230008 12.7690036
O -6.5615596 0.2187800 -3.3534139
H -7.4910197 0.4346591 -3.5654135
H -6.4137413 0.8303633 -2.6003494
O 5.6510016 -17.9360050 -2.4890007
H 5.2880015 -18.8140053 -2.7450008
H 6.5570018 -18.0650051 -2.8280008
O 7.4937774 1.5406362 -0.4740889
H 7.5933037 0.5892772 -0.6540102
H 7.0662445 1.8316165 -1.3016651
O 6.7560019 0.8760002 15.3770043
H 5.9020017 0.8220002 14.8660042
H 6.4240018 0.6070002 16.2550045
O -10.0710028 -14.0290039 0.8400002
H -9.1460026 -14.3240040 0.7170002
H -9.9160028 -13.2600037 1.4380004
O -7.6323229 5.4627386 -1.8140259
H -8.0259419 4.5743178 -1.9423437
H -7.6819421 5.5019746 -0.8332856
O 7.5806859 5.0357149 -1.0431275
H 8.2079928 5.1540646 -1.7869526
H 6.9456146 5.7588130 -1.2244032
O 4.5550013 0.4670001 17.4120049
H 4.2240012 -0.3190001 17.0650048
H 3.9160011 1.0710003 17.0500048
O -14.7900041 -8.5760024 3.9190011
H -14.0980039 -7.8890022 3.9930011
H -15.0050042 -8.6430024 2.9920008
O -9.1031251 3.5565962 4.5744528
H -9.4258962 4.4182316 4.2391956
H -8.1442641 3.7337077 4.5436581
O 8.5360024 -12.5340035 3.8600011
H 8.2790023 -13.3890037 3.5150010
H 9.4600026 -12.6890036 3.8230011
O 4.9670014 5.3870015 -15.9340045
H 5.0950014 6.0170017 -16.7010047
H 4.8040013 4.5080013 -16.3940046
O 7.2782243 7.7844669 0.8561023
H 6.6571818 8.3188218 1.3855332
H 6.7065399 7.4863996 0.1208599
O -7.6266593 -0.5567594 -7.2639555
H -6.8234452 -0.0995568 -6.9255008
H -7.6745498 -0.2604152 -8.1941177
O -12.5660035 -0.9320003 13.8530039
H -12.8280036 -0.5410002 14.7160041
H -11.9100033 -0.2760001 13.5400038
O 8.0900023 -14.8850042 6.8390019
H 8.4810024 -15.7460044 7.0230020
H 7.2300020 -15.2080043 6.4750018
O 10.8500030 1.7360005 -9.0400025
H 10.7060030 1.8080005 -9.9810028
H 9.9540028 1.8780005 -8.7000024
O 6.9690020 3.1440009 11.9030033
H 6.1710017 3.0740009 12.4060035
H 6.7450019 3.9030011 11.4440032
O -9.5560027 -5.0690014 -8.9100025
H -10.4360029 -5.0160014 -8.5200024
H -9.6180027 -5.8300016 -9.5090027
O -9.9760028 -2.4400007 10.6080030
H -10.4180029 -2.7540008 11.4270032
H -10.6950030 -2.4560007 9.9530028
O -7.7610022 15.0020042 9.5160027
H -8.4170024 15.5970044 9.0430025
H -7.5340021 14.2580040 8.9100025
O 8.2130023 -3.5050010 -10.1450028
H 8.3190023 -2.4940007 -9.9980028
H 9.1320026 -3.7610011 -10.1510028
O 6.7570609 -2.7900074 10.1739744
H 7.4530127 -3.4589641 10.1592312
H 6.4675518 -2.8002649 9.2360638
O -9.5477083 -0.1696388 -1.3879902
H -10.2088633 0.4654254 -1.0443554
H -9.1968035 -0.5485532 -0.5639039
O 7.6725126 -1.2251936 -1.0026247
H 8.2370797 -1.2514165 -1.8112176
H 8.2561149 -1.6972048 -0.3642707
O 5.2480015 -0.5880002 13.2170037
H 5.1800014 -1.5190004 13.5770038
H 4.2860012 -0.4540001 13.1810037
O 9.9820028 16.3910046 -2.3540007
H 9.8660028 16.6380047 -3.2340009
H 9.0000025 16.1660045 -2.1850006
O -5.6650016 -17.2870048 -3.1200009
H -5.5430016 -16.5250046 -2.4950007
H -5.9640017 -17.9870050 -2.4690007
O -8.8609823 3.0063201 -1.7113328
H -7.9997986 2.5405353 -1.7546666
H -9.1515687 2.6524217 -0.8415896
O 9.2723508 -2.2839880 0.8958621
H 8.8407766 -2.1867531 1.7739004
H 9.9587057 -1.5872381 0.9366916
O -7.9010282 -0.0660626 -10.0339207
H -8.6020117 -0.4449213 -10.5836592
H -7.1336628 -0.5722549 -10.3769034
O -7.2873254 3.6303689 8.8509676
H -6.9722979 3.5908670 9.7606169
H -7.9230819 4.3695321 8.8863382
O 3.5890010 -17.0990048 7.9110022
H 2.7640008 -16.6180047 7.6460021
H 3.4100010 -17.3370049 8.8200025
O 10.1690028 -0.9610003 -12.5460035
H 10.8010030 -1.6940005 -12.5440035
H 9.3430026 -1.3570004 -12.9730036
O 3.3034731 5.3046127 1.2259131
H 4.2339043 5.0264874 1.3676060
H 3.4229867 6.1542670 0.7481212
O -7.5953406 -3.4320212 -9.8865565
H -8.3594081 -3.8965094 -9.4757834
H -7.7367990 -3.6775745 -10.8233922
O -12.0430034 -1.0570003 8.9840025
H -12.9490036 -0.8400002 8.7670025
H -12.0330034 -1.8260005 8.3530023
O 10.7390030 -4.4290012 -9.6380027
H 10.9140031 -4.9360014 -10.4730029
H 11.6280033 -4.0750011 -9.5440027
O 6.8022765 0.3700984 7.0509989
H 6.1477779 0.1508314 7.7414386
H 6.4556934 1.2392694 6.7657927
O -11.7880033 -4.6510013 -7.5880021
H -11.8370033 -4.6750013 -6.6330019
H -11.9460033 -5.6150016 -7.6880022
O -13.3110037 -5.5620016 9.1120026
H -12.8740036 -6.3110018 9.6840027
H -13.6320038 -6.0550017 8.4220024
O -10.6420030 12.9240036 -9.1070025
H -10.0680028 12.3840035 -8.4330024
H -10.8300030 13.7510038 -8.6870024
O 6.6493958 -4.8957833 -7.8582625
H 7.1150149 -4.5866970 -8.6561761
H 6.0167989 -5.5648571 -8.2018125
O 3.8146369 -4.8580492 8.5251416
H 3.1725651 -4.9887855 7.8003037
H 3.2447100 -5.1137986 9.2794052
O 8.2150023 11.3410032 -9.4320026
H 7.6250021 11.8030033 -8.8030025
H 8.8580025 10.9710031 -8.8150025
O 4.4000012 13.6380038 9.4960027
H 4.6980013 14.4510040 9.0560025
H 4.9390014 13.0030036 9.0300025
O -8.6667710 -3.4983525 -3.3316488
H -8.8977098 -2.8229371 -4.0074843
H -8.3727740 -4.2298290 -3.8931434
O -8.7230024 16.5410046 -3.7780011
H -8.1680023 15.9040045 -3.3440009
H -8.0920023 17.2570048 -4.0160011
O 7.1951198 -3.9840856 -4.0639376
H 7.0974710 -4.7541804 -4.6405696
H 8.0902020 -3.6910569 -4.3308222
O 4.8460014 -2.8390008 14.5830041
H 5.4870015 -2.7300008 15.3260043
H 5.2360015 -3.4460010 13.9320039
O -14.1130039 -3.5230010 2.5330007
H -13.4790038 -3.0120008 1.9700006
H -14.2210040 -2.9430008 3.3090009
O 6.9379411 -4.3594706 2.2873822
H 7.3099416 -3.5472124 2.6856277
H 6.3620422 -4.6855563 2.9977760
O 4.0090011 -6.3100018 17.3370049
H 4.9890014 -6.1510017 17.4520049
H 3.5980010 -5.4850015 17.3630049
O -8.0480023 -2.9720008 -14.8710042
H -8.3590023 -2.7550008 -15.7740044
H -7.2660020 -2.2690006 -14.9330042
O -14.5860041 1.4840004 6.2340017
H -14.6100041 0.7720002 5.5710016
H -13.7870039 1.9780006 5.9790017
O 7.6150021 -1.5980004 -13.4520038
H 6.9060019 -2.2450006 -13.4780038
H 7.1220020 -0.7370002 -13.3990037
O 7.9255072 -1.9329171 3.2995251
H 7.1473126 -1.3374323 3.3263182
H 8.3898652 -1.5960932 4.0947339
O -4.7224862 -4.6666072 -9.3703682
H -3.8493591 -4.3104517 -9.6326529
H -4.5647944 -4.7409634 -8.4060405
O -12.1970034 -3.5130010 7.5250021
H -12.2790034 -4.3650012 8.0670023
H -12.9770036 -3.6080010 6.9170019
O -9.7840027 13.2470037 6.7570019
H -10.3240029 13.3530037 5.9600017
H -9.1750026 12.5720035 6.4440018
O 11.9160033 -6.2570018 -11.2350031
H 11.8690033 -7.1860020 -11.2020031
H 12.8450036 -6.1400017 -11.5510032
O 8.2227104 -4.2925348 6.5585361
H 8.0311601 -5.1877884 6.8878505
H 7.4248382 -3.8111729 6.8688333
O -10.2760029 -11.8380033 -9.2220026
H -9.2900026 -12.0050034 -9.2440026
H -10.5570030 -12.1030034 -10.1500028
O -9.0670025 -8.0200022 8.4920024
H -8.7780025 -8.9550025 8.5210024
H -8.5270024 -7.7570022 9.2340026
O -7.2600020 8.7910025 -8.5890024
H -6.5690018 8.7260024 -9.3020026
H -6.9790020 9.5050027 -8.0830023
O -7.9340022 11.2740032 5.8970017
H -7.2030020 10.7290030 5.5680016
H -8.5710024 10.4940029 5.9940017
O 10.6740030 -9.4060026 -8.7570025
H 11.3760032 -9.1130026 -9.3790026
H 11.1640031 -9.4320026 -7.9000022
O 6.3720018 -8.9250025 9.0580025
H 6.4760018 -9.1380026 10.0390028
H 7.1770020 -8.4310024 8.8880025
O 7.7740022 9.9060028 7.4440021
H 8.4740024 10.3460029 6.9020019
H 7.2080020 9.5390027 6.7460019
O -10.8670030 -7.0520020 -2.2560006
H -11.5920032 -6.3990018 -2.0660006
H -11.3510032 -7.9280022 -2.3890007
O -6.8980019 14.5230041 -2.5090007
H -7.5640021 13.7950039 -2.5240007
H -6.2120017 14.1630040 -3.1120009
O 7.9910022 -6.3160018 -5.8430016
H 7.4650021 -5.9570017 -6.6020018
H 8.8880025 -6.1280017 -6.2350017
O 6.6340019 -5.3830015 14.1920040
H 6.9640019 -5.1720014 13.2980037
H 6.8690019 -4.6150013 14.7450041
O 9.6020027 11.4600032 -5.0760014
H 10.0820028 10.9310031 -4.3720012
H 9.3540026 12.2400034 -4.4800013
O -5.3700015 -7.4170021 -15.2640043
H -5.9770017 -7.8040022 -15.8850044
H -5.1670014 -6.4840018 -15.5930044
O -6.9480289 -4.6228724 -0.4131684
H -6.3084199 -5.2442362 -0.8074540
H -7.7270363 -5.2190610 -0.4076499
O -5.9671861 10.5095189 0.8358255
H -5.7928543 9.9192735 0.0905694
H -5.2172581 11.1439459 0.7360560
O 9.3185213 -4.8919935 -0.1660624
H 9.3705600 -3.9995371 0.2408867
H 9.3379136 -5.4648207 0.6307255
O -9.3640026 -4.7870013 -16.9110047
H -8.7830025 -5.2130015 -16.2570045
H -9.9560028 -4.2460012 -16.3680046
O -9.5110163 -3.6099387 1.5214356
H -9.3134645 -2.6565159 1.5289051
H -9.7443239 -3.7163500 0.5732060
O 9.1748689 -1.2599036 -3.2504921
H 9.5152501 -1.9801735 -3.8246602
H 8.7346871 -0.6780483 -3.9074868
O 11.5960032 14.9860042 -0.5270001
H 10.9700031 15.4230043 -1.1890003
H 11.8800033 15.6830044 0.1380000
O -6.9429906 -6.0773679 -8.1906091
H -7.8288426 -5.9719549 -8.5903430
H -6.4207069 -5.4391883 -8.7116894
O -11.0440031 -6.1870017 6.7710019
H -10.5720030 -5.9080017 5.9870017
H -10.3270029 -6.7530019 7.1180020
O -7.9100022 12.4600035 -6.5980018
H -8.7670025 12.0270034 -6.8770019
H -8.3230023 13.2510037 -6.2500017
O -11.6400033 13.2120037 4.6160013
H -12.1340034 13.5660038 3.8270011
H -12.3260034 12.6730035 4.9060014
O 6.8063215 -6.9909255 5.0501439
H 6.1075236 -6.3881090 4.7323328
H 6.9223050 -7.5565445 4.2605598
O 9.3460026 11.0550031 5.3520015
H 8.6900024 10.4630029 4.8570014
H 10.1530028 10.9060031 4.9280014
O -12.6810035 -3.5610010 -4.9410014
H -13.2700037 -3.2750009 -5.6570016
H -12.0710034 -2.7900008 -5.0460014
O -12.8010036 -7.5120021 11.1000031
H -12.0790034 -7.4020021 11.8190033
H -13.6080038 -7.4470021 11.6060032
O -6.5110018 11.4920032 -4.4060012
H -6.2080017 10.6830030 -4.9430014
H -7.0120020 11.8810033 -5.1340014
O 8.6790024 -7.5080021 -9.7740027
H 9.3230026 -8.2350023 -9.6440027
H 8.5830024 -7.2010020 -8.8670025
O 9.6930027 -5.3660015 9.3480026
H 10.5060029 -5.6990016 8.8710025
H 8.9550025 -5.8210016 8.8700025
O 6.5060018 12.4570035 7.3910021
H 7.2840020 12.8340036 7.8330022
H 6.6620019 11.5030032 7.3670021
O -10.3828698 -3.4839607 -1.0606586
H -10.9443747 -4.1558854 -1.4825685
H -9.7018960 -3.3597686 -1.7558255
O -11.0630031 -7.6730021 13.2180037
H -11.0080031 -7.9920022 14.1470040
H -10.3470029 -7.0150020 13.2100037
O -4.6220013 14.1770040 -4.7490013
H -5.1250014 14.9280042 -4.9980014
H -4.8810014 13.5120038 -5.4680015
O 8.2220023 -9.7200027 -5.1260014
H 8.8390025 -8.9660025 -4.8560014
H 7.3920021 -9.3290026 -5.4560015
O 8.1690023 -5.5450016 11.6100032
H 8.7480024 -5.5720016 10.7880030
H 7.3920021 -5.6580016 11.0620031
O 12.7150036 11.9090033 -6.2800018
H 12.7210036 11.8650033 -5.3210015
H 12.3000034 12.8250036 -6.3560018
O -12.6170035 -9.4280026 -1.9850006
H -13.4090038 -9.7800027 -1.4920004
H -11.9170033 -9.9870028 -1.5710004
O -10.6460030 8.7860025 -2.7820008
H -9.6340027 8.8370025 -2.9380008
H -10.9010031 8.2410023 -3.5520010
O 6.0430111 -10.9953874 0.1792434
H 5.9112178 -10.0333112 0.2516969
H 7.0065403 -11.0571647 0.3824288
O 4.6130013 -9.0710025 15.8540044
H 5.0620014 -8.3710023 15.3110043
H 3.9440011 -8.4340024 16.1230045
O 6.9142490 11.1958161 -0.1471645
H 6.8832922 11.6245135 0.7287554
H 7.8086260 10.8125592 -0.1237816
O 3.0280008 6.6770019 14.5070041
H 3.4710010 6.6380019 13.6560038
H 3.6350010 7.3720021 14.9370042
O -8.5880024 -6.9760020 -10.5810030
H -9.0560025 -7.7180022 -10.9950031
H -7.8320022 -6.8870019 -11.2430031
O -9.1932424 -6.7193019 4.6981839
H -8.7001000 -7.5141491 4.9740000
H -8.5133287 -6.2217672 4.1964376
O -6.8010019 14.0990039 -10.7370030
H -7.4730021 14.1820040 -11.4360032
H -6.8170019 14.9680042 -10.3550029
O -8.6200024 11.6500033 0.8800002
H -7.7970022 11.2520031 0.5000001
H -8.7190024 10.8950030 1.5330004
O 11.9500033 -9.1310026 -11.1190031
H 11.3620032 -9.4300026 -11.7920033
H 12.6280035 -9.8430028 -11.1400031
O 10.1420028 -7.7520022 5.2070015
H 9.7170027 -8.6100024 5.1360014
H 10.6530030 -7.7420022 4.3690012
O 11.5510032 11.9160033 1.3970004
H 11.2650032 12.1610034 0.4450001
H 12.4810035 12.1780034 1.3520004
O -7.4430021 -11.9530033 -9.6600027
H -7.3130020 -12.3150034 -10.5920030
H -7.0970020 -12.6830035 -9.1850026
O -7.6130021 -11.5940032 6.8910019
H -8.4330024 -11.8790033 6.6160019
H -7.5160021 -11.7710033 7.8410022
O -5.4095859 3.8005752 -10.7379927
H -6.2793742 3.3850669 -10.5454481
H -5.0496266 3.8254175 -9.8329720
O -5.1024469 6.0475289 8.5007752
H -5.1184810 6.9252745 8.9130071
H -4.8093059 5.4936713 9.2488523
O 11.8130033 -10.5700030 6.7920019
H 11.3510032 -10.4420029 7.6490021
H 11.1410031 -10.4400029 6.0890017
O 10.7620030 6.5770018 -14.1690040
H 10.6030030 5.8820016 -13.5110038
H 11.3530032 7.2040020 -13.7250038
O 8.5802763 3.3601543 6.1421331
H 7.6549174 3.0741802 6.2921309
H 8.4289155 4.2622052 5.7899185
O -0.8580002 -10.9610031 -10.7280030
H -1.6670005 -10.8770030 -10.1560028
H -0.8370002 -11.9430033 -10.8780030
O -3.9329434 -11.9111001 4.2574130
H -3.2571990 -11.2354482 4.0746696
H -4.1855054 -11.7013285 5.1767569
O -1.8475614 5.2487470 -11.9156007
H -2.2612169 6.1090695 -11.6982382
H -1.0908703 5.5531598 -12.4682702
O -4.3430194 6.3162131 3.5883026
H -4.7680958 7.1453054 3.2874262
H -3.6275641 6.7091711 4.1317640
O 12.9150036 -12.8120036 5.9410017
H 12.2900034 -13.4230038 6.3210018
H 12.7130036 -12.0760034 6.4840018
O 14.9660042 8.3950023 7.2770020
H 15.8770044 8.6920024 7.0880020
H 14.8080041 7.6300021 6.6950019
O 2.5000007 -12.6320035 -10.4220029
H 3.0510009 -12.6090035 -9.6020027
H 1.9140005 -13.3260037 -10.1130028
O 0.5337016 -8.9045720 6.1060197
H 1.3892930 -9.3704519 5.9848722
H -0.0695248 -9.6772429 6.0120719
O 2.5840007 9.5970027 -12.3290035
H 2.7760008 10.3440029 -11.6890033
H 3.3340009 9.7540027 -12.9740036
O 1.1022641 10.0410757 3.3743237
H 0.9078829 10.9990680 3.3948116
H 1.2461527 9.8759313 4.3324780
O 6.3760018 -9.8690028 -12.0080034
H 5.4280015 -10.0060028 -12.4270035
H 6.8960019 -10.5800030 -12.4650035
O 0.4415451 -7.6985238 3.6172814
H 0.4708764 -8.1487801 4.4870671
H 1.2157474 -8.1060829 3.1747656
O 2.6283692 10.3214350 -8.7483396
H 3.1224771 9.4868414 -8.7064511
H 1.8053346 10.0835126 -8.2707466
O 5.0700014 9.2110026 7.3730021
H 5.7230016 9.0370025 8.0830023
H 4.4010012 9.7270027 7.9060022
O -11.8910033 -7.6650021 -12.2760034
H -12.8380036 -7.4200021 -12.3680035
H -12.0420034 -8.6050024 -12.2620034
O -10.8830030 -8.7860025 2.7030008
H -11.2550031 -8.0410023 2.2300006
H -10.9270031 -8.4810024 3.6310010
O -11.0880031 11.4200032 -11.4590032
H -10.5360029 11.8270033 -12.2040034
H -10.9720031 12.0270034 -10.6850030
O -9.9790028 9.7930027 2.9440008
H -10.8190030 10.1990029 2.6590007
H -10.0090028 9.9110028 3.8940011
O 6.4618309 -10.7842720 3.8807547
H 6.7759561 -9.9410908 3.4812623
H 7.1943526 -11.3976525 3.6595346
O 6.7760019 11.4560032 -11.7330033
H 6.1630017 12.2320034 -11.7080033
H 7.2490020 11.6470033 -10.8720030
O 7.3030020 11.6440033 2.6210007
H 6.8080019 12.1090034 3.3270009
H 6.8400019 10.7820030 2.5310007
O -5.7540016 -10.2110029 -11.8610033
H -6.0360017 -9.4190026 -11.3940032
H -5.6020016 -10.8440030 -11.1620031
O -5.2151813 -9.8203825 2.0890780
H -5.8306516 -9.0568697 2.0985614
H -5.7692018 -10.5191528 2.4814570
O -5.7970016 8.0190022 -10.8860030
H -6.1460017 7.2960020 -11.4680032
H -6.3360018 8.6960024 -11.3610032
O -5.5538391 9.7094056 5.6404396
H -5.5325118 9.2856335 4.7569308
H -4.6338825 10.0144206 5.7137511
O 11.5790032 -8.2730023 -0.5820002
H 11.5090032 -9.1210026 -1.0440003
H 11.0400031 -7.5960021 -1.0500003
O 11.7530033 10.8030030 4.1460012
H 11.7630033 11.5460032 3.4660010
H 11.5940032 10.0710028 3.5030010
O -3.1200009 -8.4340024 -10.1370028
H -3.2480009 -9.0860025 -9.5080027
H -4.0560011 -8.1790023 -10.3170029
O -2.6695803 -9.6779145 3.0810312
H -3.5607184 -9.7304244 2.6731809
H -2.1414214 -9.3062788 2.3482898
O -2.8686148 7.8708051 -11.5487714
H -3.8303496 7.8854458 -11.3936812
H -2.7785842 8.4522112 -12.3343982
O -2.9312161 12.3595055 4.1989295
H -3.8389356 12.2600670 3.8256946
H -2.5520124 13.0349835 3.6269209
O 11.8690033 -7.6170021 2.9740008
H 12.4680035 -6.8630019 3.1810009
H 12.5430035 -8.3490023 2.6890008
O 13.4720038 10.7990030 6.1760017
H 13.0670037 10.8480030 5.3130015
H 14.0280039 10.0380028 6.0280017
O -15.8470044 8.9020025 1.6530005
H -16.4250046 8.2570023 1.1150003
H -16.2540045 8.7150024 2.5390007
O 1.9040005 -8.5840024 -12.3950035
H 2.2860006 -7.9500022 -11.7340033
H 1.0940003 -8.1060023 -12.4210035
O -2.2457604 -3.8308686 4.0964958
H -1.6746605 -4.4565668 4.5876336
H -2.0479872 -2.9899124 4.5609604
O 2.0240006 13.4070038 -13.3950037
H 1.9780006 12.7280036 -14.1940040
H 2.2760006 12.8670036 -12.6300035
O 3.0841518 9.6751318 1.4826705
H 2.6619850 10.3110696 0.8654482
H 2.4454577 9.7262990 2.2242467
O -13.7560038 -6.9130019 6.4590018
H -13.8890039 -6.6340019 5.5430016
H -12.7600036 -6.7030019 6.6220019
O -15.2230043 12.0830034 1.8070005
H -15.4620043 11.1670031 1.7550005
H -14.6620041 12.2900034 1.0720003
O 3.9400011 -10.0760028 -13.2540037
H 3.1540009 -9.5340027 -13.0520037
H 4.3300012 -9.5300027 -13.9240039
O 2.3691069 -9.0332111 2.1206493
H 1.9471303 -9.4699938 1.3508237
H 2.9554300 -9.7560546 2.4296833
O 4.7270013 9.2660026 -14.4390040
H 4.8180013 10.2050029 -14.7900041
H 5.6740016 9.0520025 -14.3520040
O 5.6049424 9.3636402 2.5651154
H 4.8370362 9.5500379 1.9805626
H 5.1059619 9.3354283 3.4146528
O -14.8510042 -10.0700028 6.0640017
H -14.2080040 -9.4560026 6.4050018
H -15.0470042 -9.5110027 5.2100015
O -7.4090021 9.3760026 -12.6130035
H -7.3800021 10.2840029 -12.9810036
H -6.6260019 8.9770025 -13.0970037
O -13.3520037 12.9590036 -0.0480000
H -12.4370035 13.0170036 0.1390000
H -13.3200037 13.1620037 -1.0200003
O 3.9090011 -8.8700025 -16.3320046
H 4.5320013 -9.2130026 -16.9830048
H 3.5810010 -9.7440027 -16.0590045
O 3.9005072 -11.1686751 3.1112852
H 4.8430277 -11.0001897 3.3353831
H 3.9032452 -12.1477360 3.0600538
O 5.5230376 5.4253507 -12.3142634
H 6.3243736 5.4127627 -12.8542487
H 5.8718962 5.1836367 -11.4329616
O 6.1330017 13.0420037 4.5460013
H 5.2580015 12.6690035 4.6640013
H 5.8700016 14.0000039 4.3810012
O -4.3091017 -10.6745786 -0.3007176
H -4.5459704 -10.2868500 0.5686813
H -4.2062120 -11.6149791 -0.0445214
O -4.4610012 -11.8770033 14.4810041
H -3.9880011 -11.0380031 14.3200040
H -3.7200010 -12.4300035 14.8540042
O -3.8910011 8.0070022 -16.2830046
H -2.9990008 8.3400023 -16.4600046
H -3.7370010 7.0400020 -16.2350045
O -3.4113973 6.3327581 -0.2735418
H -4.2355487 6.7494269 -0.6018693
H -2.9480520 7.1422781 0.0455904
O 10.0350028 -13.0860037 -0.5340001
H 10.4080029 -13.6520038 0.0940000
H 9.8260028 -13.6880038 -1.2330003
O 12.3770035 9.4940027 -0.6120002
H 12.1200034 10.4290029 -0.7690002
H 12.2560034 9.4610026 0.4060001
O -3.7390010 -13.2150037 0.6890002
H -3.4530010 -13.8580039 0.0080000
H -2.9590008 -13.3020037 1.3260004
O -1.3590004 9.0370025 -16.8340047
H -1.0550003 9.0140025 -17.7900050
H -1.0780003 9.9220028 -16.5890046
O -2.2437401 8.6475390 0.5193104
H -1.7197030 8.4680304 1.3272181
H -1.8383967 9.4811322 0.2090887
O 15.1340042 7.8960022 -0.0410000
H 15.8700044 7.9910022 0.5700002
H 14.9230042 8.8550025 -0.1290000
O -18.5280052 6.2630018 2.4970007
H -17.6520049 6.1360017 3.0200008
H -18.1290051 6.2530018 1.6270005
O -1.0920003 -11.0120031 -15.7360044
H -0.9120003 -11.8220033 -15.2410043
H -0.8310002 -10.4110029 -15.0750042
O -1.8140005 -14.2830040 2.5960007
H -1.3320004 -15.1050042 2.1650006
H -1.8130005 -14.4940041 3.5190010
O 0.3570001 8.9070025 -13.5840038
H -0.4500001 9.4460026 -13.6630038
H 1.0830003 9.4770027 -13.2750037
O 1.6563675 11.0114142 -0.4190311
H 1.7306474 10.2838103 -1.0746437
H 2.1200594 11.7342812 -0.8823808
O 12.9570036 -10.0560028 2.3720007
H 12.6290035 -10.8280030 2.8550008
H 13.7710039 -10.4290029 1.9990006
O 1.8820005 -7.0700020 -16.4330046
H 1.2320003 -7.7590022 -16.6700047
H 2.6680007 -7.6500021 -16.5910046
O -1.7952642 -5.8000292 -2.7375823
H -1.3933286 -5.4248739 -3.5491556
H -2.4184721 -6.4363262 -3.1396350
O 4.0790011 13.1720037 0.8580002
H 4.7820013 13.7710039 1.0330003
H 3.6250010 13.0380036 1.7080005
O 15.0380042 -4.6540013 0.8590002
H 15.2720043 -4.4620012 -0.0140000
H 14.3770040 -5.2910015 0.7770002
O -12.6030035 -5.1850015 -1.4830004
H -12.6020035 -5.0810014 -0.5460002
H -13.3480037 -4.5910013 -1.7730005
O -10.8540030 8.4970024 -0.1070000
H -11.0580031 8.5790024 -1.1010003
H -11.3940032 9.2610026 0.2450001
O 5.4700015 -6.5940018 -16.5050046
H 5.1370014 -7.4710021 -16.2600046
H 4.8370014 -6.3650018 -17.2230048
O 7.9532255 -9.3628640 -1.7083403
H 7.4098717 -8.9819288 -0.9950016
H 7.8975231 -8.6544396 -2.3821027
O 7.4230021 15.6750044 -2.1520006
H 6.9910020 14.7950041 -2.1810006
H 7.2850020 15.8850044 -1.1540003
O -6.8202194 -7.6448918 2.5061760
H -7.2378341 -6.7809557 2.3229482
H -6.0666004 -7.3410415 3.0560927
O -4.3461455 11.7891866 -2.5004453
H -3.5464599 11.5921382 -3.0291048
H -5.0465443 11.7240504 -3.1711783
O 7.9049753 -7.0921057 -3.2721063
H 7.9955077 -6.8363608 -4.2221326
H 8.6818771 -6.6421375 -2.8902261
O 9.8130027 -2.0280006 12.7670036
H 9.0650025 -1.5500004 12.3180034
H 9.7580027 -1.5340004 13.6710038
O 9.3582983 8.4968724 -0.8330171
H 9.5893136 9.2167910 -0.2070509
H 8.6071996 8.1149218 -0.3394252
O -6.4850018 -12.6270035 -1.4980004
H -7.3370021 -12.1580034 -1.6780005
H -5.9750017 -12.4050035 -2.3240007
O -7.3780021 -7.9480022 15.9800045
H -7.7090022 -8.8570025 15.8840044
H -7.9140022 -7.6400021 15.2910043
O -3.3297176 8.4034949 -3.2819593
H -3.9315248 7.8640571 -3.8388246
H -3.8205982 8.3846353 -2.4465867
O -7.8410022 9.2650026 14.2530040
H -7.8790022 9.4620026 15.1970043
H -7.8640022 8.2950023 14.3040040
O 10.4430029 -8.6420024 -3.7960011
H 10.4460029 -9.2780026 -3.0840009
H 10.3850029 -7.8080022 -3.3560009
O 12.9460036 8.6840024 -4.3160012
H 12.0610034 8.5070024 -4.0430011
H 13.4290038 8.0440023 -3.7950011
O -9.8060027 -6.8160019 -5.4200015
H -9.0520025 -6.1820017 -5.4030015
H -10.4060029 -6.5170018 -4.7250013
O -7.4190021 -7.8320022 10.9260031
H -6.5220018 -7.8810022 11.2720032
H -7.7930022 -7.2770020 11.5720032
O -5.7573775 9.4085204 -6.0300833
H -5.5673166 8.6360949 -5.4491879
H -5.1501856 9.1773578 -6.7620775
O -7.6260021 11.2030031 9.0480025
H -7.3410021 11.8850033 8.3460023
H -7.2380020 11.6220033 9.8260028
O 12.8000036 -6.6760019 -6.8830019
H 13.7730039 -6.9340019 -6.8100019
H 12.4150035 -7.5870021 -6.6120019
O 10.5330029 10.7380030 -7.5680021
H 11.3300032 11.2270031 -7.8300022
H 10.3610029 10.9930031 -6.6430019
O 8.4060024 12.9940036 9.4440026
H 9.2060026 12.5560035 9.8910028
H 8.3760023 13.7000038 10.0700028
O -13.3720037 6.6340019 -0.5010001
H -13.9190039 7.2090020 -1.1490003
H -12.7400036 6.1660017 -1.0230003
O -0.7359683 -9.0024361 -1.2629473
H -1.0376434 -8.5510815 -0.4479613
H 0.0147501 -9.4957934 -0.8755841
O -2.3570007 -10.6970030 13.4100038
H -2.0530006 -11.6290033 13.5500038
H -1.7030005 -10.0890028 13.7720039
O -1.1398508 11.1020265 -0.2359616
H -1.0518820 11.8056045 -0.9105366
H -0.1882688 10.9856213 -0.0390512
O -1.5900004 11.1710031 14.4090040
H -0.9930003 11.7810033 14.8080041
H -2.2520006 10.9010031 15.1770042
O 15.3930043 10.3240029 -2.8200008
H 15.7090044 9.3920026 -2.9950008
H 15.5840044 10.4430029 -1.8650005
O -17.0060048 -8.4730024 -2.0390006
H -17.0330048 -8.5470024 -3.0050008
H -16.0980045 -8.0500023 -2.0280006
O -13.4830038 10.5850030 -2.9220008
H -12.5260035 10.4120029 -2.9750008
H -13.6250038 11.5390032 -3.0810009
O 4.0730310 -8.6200586 -1.6297597
H 4.4205614 -8.1837118 -2.4395182
H 3.1352355 -8.3989672 -1.6966591
O 2.0040006 -7.6460021 15.7080044
H 2.6630007 -6.9610019 15.9030045
H 1.3120004 -7.6910022 16.3690046
O 6.4750018 13.3350037 -1.8570005
H 6.4480018 12.6170035 -1.2110003
H 6.0380017 12.8680036 -2.6220007
O -11.4830032 -8.8050025 -5.0370014
H -12.0610034 -8.0510023 -4.9750014
H -10.6880030 -8.3000023 -5.4380015
O -10.2100029 10.9980031 -6.8950019
H -10.8920030 10.4410029 -7.2530020
H -9.6730027 10.3950029 -6.3840018
O 5.2583974 -7.3222791 -3.7139892
H 5.3115385 -7.6873838 -4.6190262
H 6.2164577 -7.2254477 -3.5185923
O 1.7746026 -5.7809531 10.1605021
H 1.0407371 -5.1366581 10.0588857
H 1.4424061 -6.5345303 9.6274515
O 5.3390015 13.2920037 -4.8190013
H 5.0880014 12.4900035 -5.2750015
H 4.7640013 13.9100039 -5.3040015
O 2.3180006 10.2840029 14.0620039
H 2.5490007 11.1390031 13.6690038
H 2.7610008 10.3700029 14.9140042
O -7.4860021 -9.9090028 -4.8330014
H -7.5680021 -9.9240028 -5.8070016
H -7.9290022 -10.7490030 -4.6030013
O -8.8970025 -12.0910034 12.6900036
H -9.7970027 -12.0580034 12.2850034
H -8.3750023 -12.2250034 11.8810033
O -2.5923720 6.4502956 -6.0564959
H -2.5199126 5.6826999 -5.4465513
H -1.7598237 6.9288236 -5.8502271
O -8.1780023 6.6270019 15.1950043
H -8.8730025 6.6060018 15.8090044
H -8.7100024 6.5110018 14.3940040
O 7.5790021 -11.9280033 -6.7680019
H 6.8250019 -11.5260032 -7.2030020
H 7.7770022 -11.2220031 -6.1330017
O 10.8580030 5.8230016 -6.1080017
H 10.2840029 6.5110018 -6.4670018
H 11.7480033 6.0070017 -6.3890018
O -3.6918431 -4.7384247 -6.8279910
H -4.1318980 -4.5613876 -5.9689736
H -3.1357383 -3.9438309 -6.9199129
O -5.0800014 -7.7070022 12.0540034
H -4.3330012 -8.0290022 11.4460032
H -4.5720013 -7.3000020 12.7540036
O -3.9070318 10.7113587 -8.4870753
H -3.8249172 9.7345039 -8.5268479
H -3.8555357 10.9841251 -9.4245223
O -5.9090017 12.0580034 11.0460031
H -5.8470016 11.4150032 11.7990033
H -5.0770014 11.9600033 10.5520030
O 15.9380045 -6.9120019 -8.1570023
H 15.7880044 -6.3230018 -8.9230025
H 16.6370047 -6.4960018 -7.6310021
O 11.8990033 -7.6500021 10.8090030
H 11.8190033 -7.8810022 9.8870028
H 12.7600036 -7.2190020 10.8010030
O 10.9910031 11.9890034 9.6780027
H 11.3290032 11.1290031 9.4020026
H 11.3310032 12.0300034 10.5990030
O -1.1466531 -8.7752792 -4.2400633
H -2.0458896 -8.4250407 -4.1296657
H -0.7886268 -8.6502122 -3.3412346
O -2.6241632 -4.8251294 10.7371301
H -2.3497828 -5.1430157 11.6209406
H -1.8259078 -4.3211443 10.4734574
O -0.2034495 13.1635360 -1.8671364
H 0.5398042 13.3755071 -1.2577897
H 0.2575343 12.8104353 -2.6519724
O 15.9160045 -6.6980019 -4.6690013
H 15.4380043 -5.8180016 -4.8200013
H 15.3830043 -6.9350019 -3.8810011
O 9.2150026 -8.5960024 14.5960041
H 9.0730025 -9.4510026 14.2750040
H 9.3310026 -8.1740023 13.7020038
O -17.0560048 7.9180022 -6.1490017
H -16.4260046 7.3550021 -5.7440016
H -16.6480047 8.8070025 -6.1490017
O 2.3951140 -9.3797125 -6.8529895
H 1.8530191 -9.5397015 -7.6556205
H 2.4710271 -8.4053077 -6.9253395
O -1.9002660 -11.1815508 9.1191542
H -1.6014334 -11.8605116 8.4841434
H -2.1364952 -10.4468926 8.5119497
O 2.6129827 10.1713088 -4.4934706
H 1.8934601 10.8368182 -4.4564272
H 3.2007862 10.5830387 -5.1625399
O 1.2840004 11.4190032 11.1520031
H 0.5900002 11.1570031 11.7820033
H 1.8410005 10.6000030 11.1210031
O -10.1590028 -10.9930031 -3.8910011
H -10.9080031 -11.6380033 -3.8370011
H -10.7320030 -10.2350029 -4.1600012
O -11.3070032 6.6050018 -4.7410013
H -10.7060030 6.1910017 -5.4150015
H -11.1660031 5.8980017 -4.0990011
O -12.2470034 5.9810017 11.6920033
H -12.8640036 5.2250015 11.8720033
H -12.8070036 6.7470019 11.4460032
O 9.2770026 -12.9260036 -4.6940013
H 8.6780024 -12.5130035 -5.3030015
H 8.9000025 -13.7660039 -4.7150013
O 3.3390009 -9.7610027 12.7000036
H 4.0020011 -10.1450028 12.1090034
H 3.9620011 -9.2610026 13.2640037
O 6.6622929 9.2400351 -4.0577941
H 5.8371028 8.7252129 -4.1889468
H 7.3380716 8.5302305 -4.1397577
O 7.9660022 11.7810033 12.8410036
H 7.0690020 12.1630034 12.6700035
H 7.7870022 11.0550031 12.1820034
O -5.5228889 -8.3163559 -8.7324570
H -6.1113223 -7.5382516 -8.6063128
H -4.7966576 -8.0735995 -8.1170127
O -7.7616323 -9.0888468 5.5631964
H -7.9477154 -9.4784034 4.6814699
H -7.6233648 -9.9110601 6.0781487
O -4.3060012 12.6650035 -10.5150029
H -3.8570011 13.4720038 -10.1190028
H -5.2240015 12.9370036 -10.5240029
O -3.8981612 10.2074391 8.6358885
H -3.7800966 11.1487366 8.8801794
H -3.7452682 10.2701856 7.6731244
O 13.5740038 -8.3370023 7.2710020
H 12.9980036 -8.9180025 6.6880019
H 13.8640039 -8.9530025 7.9410022
O 10.6730030 7.5020021 8.1240023
H 11.2130031 6.9390019 7.6040021
H 11.0630031 8.4060024 8.0900023
O -1.3177436 -9.1305536 -7.0461703
H -1.1157443 -9.0175971 -6.0975834
H -2.0777827 -8.5260181 -7.1478863
O -2.3170006 -8.9610025 11.2540031
H -1.4110004 -9.1560026 11.0030031
H -2.3860007 -9.5790027 12.0440034
O -4.0164388 8.0349499 -7.8481171
H -3.8792865 7.4143817 -8.5818575
H -3.5514396 7.5502212 -7.1317508
O -2.7029933 10.4424538 6.1057863
H -2.7729013 11.1503054 5.4218387
H -1.9631916 10.7920562 6.6352548
O 14.2380040 -6.1100017 10.3710029
H 15.0380042 -6.1350017 10.9100031
H 14.0000039 -5.1690014 10.2130029
O 12.2030034 9.8900028 8.5920024
H 12.4180035 10.1900029 7.6800021
H 13.0350036 9.5570027 9.0790025
O -5.3120015 -11.8790033 -6.7480019
H -5.0120014 -12.3440035 -7.4980021
H -5.9740017 -11.2950032 -7.1990020
O -5.7920016 -13.6140038 12.4840035
H -5.1840015 -13.4260038 11.7520033
H -5.4840015 -12.8670036 13.0970037
O -2.2473784 4.1306147 -4.5872903
H -2.8175303 3.8302062 -3.8457188
H -1.3598473 3.8598715 -4.2747554
O -4.8950014 8.4260024 10.5160029
H -4.5230013 8.9270025 9.7600027
H -5.3150015 9.0860025 11.0520031
O 9.9370028 -11.0980031 9.4260026
H 10.5550030 -11.8210033 9.4730027
H 9.1310026 -11.6300033 9.1330026
O 13.0860037 9.2060026 -9.4280026
H 12.9400036 8.9830025 -8.5150024
H 14.0260039 9.0670025 -9.4880027
O 11.9690033 8.7900025 11.8260033
H 12.3960035 8.0680023 11.4240032
H 12.4010035 8.7940025 12.6940036
O -12.5720035 -7.1800020 -7.9840022
H -13.3660037 -7.5500021 -7.5330021
H -12.1830034 -8.0230022 -8.3260023
O -14.1610040 8.7110024 8.0260022
H -14.2950040 9.1020025 8.9490025
H -13.3070037 8.2040023 8.0930023
O 9.1500026 -10.3610029 -10.8170030
H 8.2560023 -10.1020028 -10.4610029
H 9.7320027 -10.0960028 -10.1320028
O 2.7150239 -10.4706301 5.5099616
H 3.4021898 -10.1010393 6.1105547
H 3.2056541 -10.4890105 4.6639985
O 5.8298201 9.4077359 -8.3320261
H 5.6827583 8.5772676 -7.8381619
H 6.5546973 9.8059905 -7.8122676
O 3.5910010 10.6670030 8.9460025
H 3.0740009 11.3470032 9.3850026
H 3.2510009 9.9020028 9.4070026
O -10.7540030 -9.3790026 5.9810017
H -11.4240032 -9.1310026 6.6350019
H -10.0170028 -8.9930025 6.5080018
O -11.6120032 6.6380019 -9.8680028
H -10.9440031 7.2240020 -9.4600026
H -12.1320034 6.4380018 -9.0910025
O -13.4140038 8.3310023 4.5310013
H -14.2630040 8.8130025 4.4260012
H -12.8510036 9.0370025 4.8320014
O 6.1538689 -11.5639019 6.6240007
H 5.6374661 -10.7460320 6.8024383
H 6.2252905 -11.5029371 5.6526424
O 6.4752589 4.3883478 -9.9323217
H 6.1117015 4.2640122 -9.0358243
H 7.3441833 4.7910569 -9.7063703
O 4.2916440 6.5545642 7.1810591
H 4.6475932 7.4545023 7.0517307
H 3.6310879 6.7552004 7.8823964
