17
Source-verbatim SI TS-1-6 (R/U)B3LYP/6-31+G(d) geometry
C 1.97775 1.04620 -0.19573
C 1.76105 -0.29246 -0.36314
C 0.73507 -1.05412 0.25784
C -0.31136 -0.43850 1.17092
C -1.37717 -0.90288 -0.89466
C -1.23873 0.11026 0.10260
C -1.56503 1.41963 -0.04874
H -1.44968 -1.94645 -0.60730
H -1.70714 -0.66195 -1.90421
H -0.79390 -1.21052 1.78208
H 0.08034 0.32720 1.85007
H 2.41330 -0.83457 -1.04801
H 1.39492 1.64796 0.49331
H 0.82251 -2.13668 0.22860
H -1.35535 2.15181 0.72600
H -2.05742 1.77739 -0.94964
H 2.76295 1.55699 -0.74542
