17
Source-verbatim SI 2 (R/U)B3LYP/6-31+G(d) geometry
C -1.05266 0.01804 0.10136
C -2.27607 -0.07038 -0.43434
C 1.14044 1.24118 -0.03684
C -0.33374 1.33788 0.29084
C 1.77268 0.08463 -0.27426
C 1.09028 -1.26051 -0.21301
C -0.25460 -1.18600 0.54197
H -2.82278 0.81031 -0.76555
H -2.77682 -1.02888 -0.55536
H -0.44481 1.67395 1.33673
H -0.80506 2.11848 -0.32134
H 2.83283 0.09568 -0.52602
H 0.92363 -1.63762 -1.23399
H 1.69332 2.17916 -0.08013
H -0.82867 -2.10864 0.39898
H -0.03923 -1.09920 1.61824
H 1.74960 -1.99232 0.27416
