25
18  open-shell singlet; source-verbatim CASSCF(14,12) optimized coordinates from JA043988W SI
C       -2.984784      -0.986358       0.244346
C       -3.260764      -0.312819       1.456669
C       -2.306464       0.441804       2.050827
C       -0.996383       0.594221       1.480636
C       -0.722272      -0.126991       0.272627
C       -1.722173      -0.889065      -0.330476
C        1.775396      -0.416712       0.099871
C        2.638837      -0.208791      -0.983456
C        1.834503       0.274819      -2.030036
C        2.241863       0.670472      -3.417782
C        2.058797      -0.963885       1.358032
N       -0.060526       1.381211       2.004751
N        0.571263       0.366018      -1.643728
N        0.532296      -0.027922      -0.362005
H       -3.745842      -1.580019      -0.226446
H       -4.235166      -0.399771       1.902579
H       -2.519505       0.962691       2.968372
H       -1.499914      -1.395341      -1.249850
H        3.693300      -0.392152      -0.994744
H        2.727812      -0.151969      -3.933505
H        1.370556       0.965789      -3.988365
H        2.936604       1.504336      -3.399377
H        1.311762      -1.084586       2.113867
H        3.067217      -1.243862       1.588462
H       -0.412238       1.826702       2.836287
