17
Source-verbatim SI TS-6-2-x (R/U)B3LYP/6-31+G(d) geometry
C -0.84999 1.53815 0.22268
C 1.82536 0.96122 -0.11748
C 1.70572 -0.37642 -0.51911
C 0.81929 -1.27361 0.04353
C -0.28548 -0.81718 0.96013
C -1.14426 0.16589 0.14900
C -2.03851 -0.36155 -0.74896
H -2.19396 -1.43373 -0.83260
H -2.64614 0.27682 -1.38533
H -0.88343 -1.66982 1.29659
H 0.09861 -0.31647 1.86070
H 2.29487 -0.70763 -1.37504
H 1.58317 1.27008 0.88990
H 0.81748 -2.30833 -0.29031
H -0.41778 1.97674 1.11460
H -1.25453 2.22807 -0.51308
H 2.40901 1.66522 -0.70415
