30
Source-verbatim SI TS-6c-6c (R/U)B3LYP/6-31+G(d) geometry used for CASPT2(6,6)
C 1.43262 2.84667 0.28992
C 0.46132 1.86823 0.15347
C 0.63316 0.58023 -0.36381
C 1.91997 0.04616 -0.92014
C 2.80144 -0.78298 0.02886
C 2.37347 -1.12292 1.30304
C 4.05012 -1.18418 -0.44907
O -0.38299 -0.32584 -0.41835
Si -2.03352 -0.32267 -0.02034
H 4.38906 -0.92459 -1.44836
H 4.72464 -1.77057 0.16860
H 1.67176 -0.58281 -1.78595
H 2.51918 0.87930 -1.30497
H -0.54291 2.12619 0.48687
H 2.46958 2.68518 0.01304
H 1.40937 -0.81245 1.68924
H 3.00794 -1.71402 1.95805
H 1.17832 3.81927 0.69777
C -2.26240 -0.04262 1.83198
H -1.92201 0.94732 2.15681
H -3.32348 -0.13154 2.10077
H -1.71094 -0.79199 2.41327
C -2.59259 -2.04958 -0.50594
H -3.65901 -2.19659 -0.29152
H -2.43717 -2.22779 -1.57679
H -2.03022 -2.81380 0.04380
C -2.94569 0.98596 -1.02794
H -2.74730 0.86294 -2.09985
H -4.02964 0.89190 -0.87874
H -2.66257 2.00836 -0.75269
