26
triplet biradical 3BRyy; verbatim CASSCF(14,12)/ANO-S coordinates from ACS SI
H -0.000540 -1.581858 -1.934222
H -0.002852 1.570656 -1.940863
H 2.430357 -2.467823 -0.117774
H -2.430103 -2.471881 -0.117197
H 2.425742 2.469622 -0.127140
H -2.425245 2.465753 -0.127415
H 4.490729 -1.230522 0.463808
H -4.493391 -1.232390 0.463522
H 4.488480 1.238396 0.459072
H -4.481765 1.249382 0.455738
C 0.000688 -1.450215 -0.842757
C -0.001598 1.444553 -0.848625
C 1.263384 -0.701329 -0.449324
C -1.261082 -0.700429 -0.447589
C 1.262246 0.699419 -0.451817
C -1.262003 0.694222 -0.451182
C 2.432251 -1.389704 -0.123737
C -2.434786 -1.393821 -0.122113
C 2.429648 1.391492 -0.128929
C -2.433691 1.387322 -0.127442
C 3.591466 -0.688121 0.205289
C -3.591848 -0.694608 0.204924
C 3.590218 0.693338 0.202685
C -3.584566 0.701969 0.200510
O 0.001476 -2.754525 -0.383844
O -0.003212 2.751091 -0.396338
