15
Exact ACS SI CASSCF/6-31G* geometry for TS23-24; DOI 10.1021/ja906679g
C       -0.635782      -1.181620      -0.682746
C       -1.475440      -0.259586      -0.088492
H       -0.948583      -1.556598      -1.640804
C        0.665932      -1.385082      -0.251176
C        1.294084      -0.715211       0.915265
H        1.289667      -2.037688      -0.834218
H        0.596107      -0.387234       1.672522
C        1.791234       0.389443       0.034584
H        2.086029      -1.292739       1.370290
C        0.926223       1.394514      -0.386243
H        2.779966       0.332449      -0.380858
H        1.280235       2.108356      -1.122484
O       -0.271493       1.484009      -0.009863
N       -2.516880       0.065249       0.459480
H       -2.690817       1.049900       0.550950
