17
Source-verbatim SI 7a (R/U)B3LYP/6-31+G(d) geometry used for CASPT2(6,6)
C -2.97570 0.34798 -0.51082
C -2.20363 0.25702 0.63404
C -0.81756 0.08221 0.69169
C 0.08413 -0.04807 -0.50719
C 1.54557 0.20557 -0.16392
C 2.40010 -0.87225 0.02743
C 1.97256 1.52452 -0.01812
H 1.29399 2.35931 -0.16671
H 3.00065 1.75742 0.24585
H -0.01741 -1.05346 -0.94668
H -0.23413 0.65178 -1.29279
H -2.72154 0.32458 1.59126
H -2.54497 0.28549 -1.50616
H -0.34846 0.00284 1.66983
H 2.05953 -1.89652 -0.09254
H 3.44039 -0.72304 0.30431
H -4.05067 0.48603 -0.45028
