19
TS: 2a (NH) <--> 14a (NH) (diradicaloid) singlet; source-verbatim CASSCF(14,12) optimized coordinates from JA043988W SI
C        1.838307       1.072043       0.069373
C        3.160480      -0.684479      -0.000662
C        3.162296       0.734884       0.047040
C       -0.253556      -0.256503       0.013334
C       -0.890335      -1.422285      -0.106395
C       -2.354441      -1.488673      -0.142714
C       -3.149290      -0.412088       0.144393
C       -2.497303       0.805365       0.520366
C       -1.119011       0.936940       0.075153
N       -1.198301       1.989070      -0.615495
N        1.131046      -0.097155       0.036458
N        1.939891      -1.165156      -0.006360
H       -4.218444      -0.509632       0.188903
H       -2.797310      -2.442847      -0.359986
H       -0.328287      -2.329939      -0.204835
H        3.996274      -1.352592      -0.027420
H        4.003367       1.394359       0.064666
H        1.351343       2.021282       0.105608
H       -2.987687       1.632488       0.985887
