16
VERBATIM cyclohexane-1,4-diyl chair geometry, CASSCF(6,6)/6-31G*, scanned SI p. 7
C 0.000000 1.446483 0.000000
C 0.351436 0.741758 -1.251926
C -0.351436 -0.741758 -1.251926
C 0.000000 -1.446483 0.000000
C -0.351436 -0.741758 1.251926
C 0.351436 0.741758 1.251926
H -0.911450 2.023533 0.000000
H 0.026402 1.273332 -2.139439
H 1.420631 0.574369 -1.331467
H -0.026402 -1.273332 -2.139439
H -1.420631 -0.574369 -1.331467
H 0.911450 -2.023533 0.000000
H -1.420631 -0.574369 1.331467
H -0.026402 -1.273332 2.139439
H 1.420631 0.574369 1.331467
H 0.026402 1.273332 2.139439
