15
Exact ACS SI CASSCF/6-31G* geometry for TS15-16; DOI 10.1021/ja906679g
C       -0.450714      -1.218773      -0.372317
C       -1.354097      -0.261564       0.037726
H       -0.857698      -2.109302      -0.810341
C        0.991064      -1.070579      -0.331945
C        1.718654      -0.520681       0.819547
H        1.552712      -1.724684      -0.976100
H        1.157113      -0.335945       1.720068
C        1.604794       0.502719      -0.276832
H        2.721397      -0.871075       0.993426
C        0.561180       1.475482      -0.241309
H        2.491609       0.760200      -0.825310
H        0.741729       2.487503      -0.560817
N       -0.644793       1.157035       0.111396
H       -1.340737       1.877333       0.137505
O       -2.547232      -0.202862       0.216573
