19
13a (NN); source-verbatim CASSCF(14,12) optimized coordinates from JA043988W SI
C       -2.433459       0.133172       1.214749
C       -2.917470      -0.728167       0.286834
C       -2.244497      -0.955378      -1.006356
C       -1.010935      -0.476669      -1.310875
C       -0.314410       0.332807      -0.279860
C       -1.220375       0.785403       0.737770
C        3.117993      -0.055995      -0.462399
C        2.960688      -0.582746       0.843611
C        1.613394      -0.492350       1.078294
N        1.055328       0.059536      -0.029451
N       -0.831171       1.717733      -0.021386
N        1.965195       0.323649      -0.970446
H        1.018651      -0.767409       1.922942
H       -2.891444       0.330533       2.163300
H        4.016541       0.055959      -1.033421
H        3.714992      -0.964449       1.498381
H       -3.831942      -1.261421       0.473864
H       -2.764606      -1.568134      -1.720363
H       -0.521114      -0.726947      -2.233209
