28
Source-verbatim DFT/PBE0 optimized geometry from publisher ESI Table S14
C 17.413608010 1.983370856 5.003952816
H 18.480098751 2.189729583 4.978235385
H 17.216962710 0.992733559 4.605865699
H 17.006440392 2.076235419 6.010044011
C 15.278095979 2.695451548 4.109112954
C 14.556605816 2.989938865 5.254658199
H 15.039219688 3.426185567 6.120518298
C 13.193191448 2.742191429 5.271637449
H 12.619401859 2.971225477 6.161374601
C 12.565575395 2.211560494 4.152455579
H 11.499094711 2.022672439 4.168759689
C 13.305380979 1.930802022 3.014776320
H 12.818501121 1.521724349 2.137683232
C 14.672660946 2.172456340 2.987528117
H 15.300482278 1.976085483 2.128675307
C 17.024928044 4.353940133 4.387108869
C 17.494977237 4.759356864 5.622128692
H 17.700623988 4.049057523 6.410676745
C 17.723364302 6.112990648 5.850185358
H 18.103985410 6.431654855 6.813001160
C 17.470638522 7.042012604 4.857580515
H 17.648356094 8.094785279 5.039537081
C 16.995682365 6.616589382 3.621929598
H 16.804189209 7.337081948 2.836080058
C 16.779660266 5.273055298 3.380413036
H 16.453836632 4.905953048 2.417180996
N 16.766394174 2.924416135 4.042716751
O 17.259572067 2.663077755 2.817300746
