15
Exact ACS SI CASSCF/6-31G* geometry for 15; DOI 10.1021/ja906679g
C        1.228459      -0.365279      -0.403531
H        1.808570      -0.329907      -1.308218
C       -0.019900      -1.275250      -0.451016
H       -0.139436      -1.793290      -1.388720
C        1.240127       0.917538       0.344097
H        0.757938       0.920904       1.314242
H        1.731873       2.729321       0.482457
N        1.803853       1.948189      -0.147827
C       -1.958706       0.185993       0.035227
O       -2.526478       1.179562      -0.128167
C        1.188346      -1.668269       0.337438
H        1.111745      -1.623047       1.410697
H        1.797081      -2.478050      -0.024331
C       -1.296008      -0.935815       0.251665
H       -1.776822      -1.653258       0.890721
