3329
4-thiothymidine S1-MIN; verbatim full 3329-atom QM/MM coordinates from ACS SI
N 0.6803864 -0.3551137 -0.9186401
C -0.3098438 -0.4568925 -1.9662642
C -0.4359354 0.5829825 -2.8640975
C 0.3917596 1.6814178 -2.7055380
N 1.4551115 1.6282993 -1.7892167
C 1.6755309 0.5883645 -0.9928271
C -2.1233663 -1.2487343 1.6746933
H -2.7888901 -1.3893277 0.8200976
H -2.6675757 -1.5134495 2.5842687
C -0.8862330 -2.1508093 1.5516396
H -1.2098176 -3.1620543 1.7942139
O -0.3838240 -2.2163052 0.1986607
C 0.8261618 -1.4307417 0.1215207
H 1.6592575 -2.1072484 -0.1822385
H -0.9495528 -1.3142695 -1.9825774
C -1.4723615 0.4887754 -3.9529683
H -1.9813530 1.4367547 -4.0802057
H -1.0235985 0.1936990 -4.8937729
H -2.2276340 -0.2392105 -3.7006723
H 1.9117081 2.5420005 -1.5001771
O 2.7380222 0.4524256 -0.3709095
C 0.2562285 -1.7271556 2.4583308
H -0.0846775 -1.1551444 3.3227248
C 1.1029579 -0.8713407 1.5417185
H 0.7180553 0.1505761 1.5995786
O 0.9415062 -2.8916870 2.9766397
O 2.5078675 -0.7925699 1.8617848
H 2.8518383 -0.2804314 1.0653125
H 1.0017647 -3.5794441 2.2681879
O -1.8278814 0.1460982 1.7696441
H -2.6231201 0.5376229 2.2107451
S 0.3917853 3.1149657 -3.8074410
O -13.2220037 2.3610007 -3.2990009
H -13.2790037 2.6980008 -4.1580012
H -14.1220040 2.0690006 -3.0750009
O 1.2560004 -15.7570044 -1.4500004
H 0.9160003 -15.7940044 -2.3930007
H 0.5620002 -15.1610042 -1.1050003
O 4.3228981 -3.2505754 0.1695025
H 4.6944691 -3.0784040 -0.7226953
H 4.1156208 -4.1923978 0.0749789
O 3.0790009 2.5840007 16.4080046
H 3.6480010 3.3420009 16.1760045
H 2.2090006 2.9160008 16.3270046
O 1.8570005 19.4680054 -2.9100008
H 1.0590003 18.9360053 -2.9230008
H 2.5190007 18.9570053 -3.4510010
O -15.6390044 0.8660002 -2.5550007
H -16.3330046 0.5060001 -2.0000006
H -16.2250045 0.9490003 -3.3350009
O 3.5110010 -14.7870041 0.0920000
H 2.7030008 -15.1600042 0.4820001
H 3.3340009 -15.1010042 -0.8120002
O 2.2820006 0.2210001 -19.1820054
H 2.3510007 0.7400002 -18.3970051
H 2.0940006 -0.7160002 -18.8820053
O -8.0660023 -16.6670047 1.8350005
H -8.3200023 -17.4640049 1.3500004
H -8.0450023 -15.9360045 1.1740003
O -6.9385376 3.2530243 2.1048373
H -7.1776859 4.0256996 1.5552868
H -6.7089880 3.7052356 2.9381510
O 11.1276908 -0.2632470 0.8787800
H 11.6378790 -0.7320310 1.5784402
H 11.1112659 0.6305180 1.2446206
O -14.4160040 3.3100009 -0.3490001
H -13.4700038 3.5680010 -0.3200001
H -14.8050041 3.4420010 -1.2650004
O 7.3190020 -14.5080041 -1.1390003
H 6.8100019 -14.4100040 -0.3040001
H 7.2660020 -13.5580038 -1.5450004
O 7.9200022 0.9820003 -17.6480049
H 8.0760023 0.0290000 -17.4910049
H 8.8040025 1.3000004 -17.3330049
O 2.3059297 3.9201005 -0.9970563
H 2.7766325 4.2482297 -0.1956779
H 1.8447010 4.7535949 -1.2556516
O 0.9822640 0.3658259 11.3247399
H 0.0973533 0.3792328 11.7383904
H 0.8762193 1.0895980 10.6605020
O -2.3940007 -14.7170041 -1.4440004
H -1.8350005 -15.4330043 -1.8090005
H -1.7480005 -14.1310040 -0.9410003
O -3.6560010 5.1860015 -17.6390049
H -3.6850010 4.3930012 -18.2250051
H -3.7500010 4.9520014 -16.7040047
O -6.4367442 1.9080800 -1.1381980
H -5.9376460 2.6687518 -0.7735171
H -6.2568693 1.2429268 -0.4389445
O 10.8570030 -15.2270043 -2.7490008
H 11.7160033 -15.1520042 -2.2770006
H 10.9020031 -14.5920041 -3.4690010
O 13.3630037 3.8550011 1.6850005
H 13.4890038 2.9280008 2.1630006
H 14.2750040 4.1680012 1.5700004
O -9.1714723 -1.7082378 -5.3463351
H -8.5344034 -1.3015729 -5.9749117
H -9.9315344 -1.8402685 -5.9567328
O -8.9420025 -5.9920017 12.3410035
H -8.6070024 -5.6600016 13.2350037
H -8.5070024 -5.3400015 11.7390033
O 9.7458570 -3.4123956 -5.0013252
H 10.5863807 -3.9035817 -4.9130453
H 9.8088080 -3.1540201 -5.9475055
O 9.7860027 0.1920001 14.5570041
H 8.8640025 0.3450001 15.0050042
H 9.7020027 0.9100003 13.8840039
O -4.5520013 0.3510001 -18.6490052
H -4.7830013 -0.5720002 -18.8840053
H -3.6500010 0.4980001 -19.0090053
O -8.9531061 1.8898630 0.8624981
H -8.2213399 2.3021789 1.3691069
H -8.8005931 0.9472478 1.0336993
O 8.5450024 -1.4890004 -16.5020046
H 9.2190026 -2.2050006 -16.6950047
H 8.2660023 -1.7790005 -15.5900044
O 10.8338350 0.4465589 -1.8974830
H 10.2775208 -0.2574554 -2.2926205
H 10.9311336 0.1385270 -0.9759315
O -18.7610053 -6.3820018 -1.4570004
H -18.3970051 -7.2910020 -1.4930004
H -18.0480051 -5.8470016 -0.9820003
O -11.7152237 4.2112488 -0.6028098
H -11.5138950 3.2543288 -0.4978401
H -11.4117615 4.3445448 -1.5209404
O 1.1038309 -10.5364970 0.1598446
H 0.6945127 -11.1070622 0.8485529
H 1.3663811 -11.1944036 -0.5087843
O 0.7133631 5.4521014 2.2848502
H 0.1787961 5.3057610 1.4732258
H 1.6255479 5.3761250 1.9240422
O 0.6400002 6.1370017 17.3010048
H 0.3720001 6.3830018 18.1220051
H 1.4950004 5.7600016 17.5540049
O -16.8320047 3.3460009 1.1310003
H -17.4500049 3.7350010 0.5020001
H -16.0480045 3.2180009 0.5580002
O 1.8020005 -18.0550051 1.7210005
H 2.0870006 -17.7560050 2.5900007
H 1.6380005 -19.0430053 1.9460005
O 0.1790001 3.1610009 -17.0310048
H 0.0250000 4.0810011 -17.4470049
H 0.7140002 3.4640010 -16.2400045
O -1.0237878 4.8793569 0.1605339
H -1.2555762 3.9238637 0.0768727
H -1.9082142 5.2901426 0.0691551
O 17.7410050 1.7230005 -1.9780006
H 18.3480051 1.1930003 -2.4890007
H 17.0520048 1.1080003 -1.7660005
O -6.5590018 -6.9800020 -12.4030035
H -5.9000017 -6.2920018 -12.4010035
H -6.2540018 -7.6100021 -13.1090037
O -7.7665740 -5.0683813 3.0514451
H -7.3734640 -4.3007182 3.5149474
H -8.3062827 -4.5996896 2.3783051
O -6.9880020 11.7150033 -13.8220039
H -6.9770020 12.4740035 -13.3070037
H -6.1750017 11.7680033 -14.2810040
O -7.5300021 16.3790046 -0.7660002
H -6.8580019 15.8030044 -0.3520001
H -7.4810021 15.8290044 -1.6200005
O 9.3869742 -6.6900481 1.9837795
H 10.2574781 -7.0475763 2.2433082
H 9.2274119 -6.0482013 2.7072164
O 10.9890031 12.2640034 -1.2580004
H 10.7160030 13.1540037 -0.9770003
H 10.6630030 12.2160034 -2.1780006
O -15.0590042 -3.7000010 -1.5480004
H -15.7440044 -3.6270010 -2.2360006
H -15.0710042 -2.6890008 -1.2730004
O 2.2470006 -2.2720006 -18.1530051
H 1.8080005 -3.1660009 -17.9430050
H 2.9350008 -2.5990007 -18.7430052
O 3.2045051 -6.3867739 1.9980021
H 2.9569105 -7.3323675 1.9649829
H 2.3513682 -5.9529343 1.7926577
O -0.0380000 -4.3410012 17.5470049
H 0.2170001 -4.4020012 16.6370047
H -0.8050002 -4.9430014 17.6360049
O 3.5720010 17.8050050 -4.1120012
H 4.5470013 17.7970050 -4.1570012
H 3.4240010 16.9230047 -3.6500010
O -2.7680008 -5.8890016 -17.9160050
H -1.9280005 -5.6120016 -18.3510051
H -2.7260008 -6.8960019 -18.0800051
O -5.4361749 -6.6936147 -1.4701195
H -5.7539519 -6.9022981 -2.3722061
H -5.7850206 -7.4922795 -1.0191256
O -7.7830022 -4.7940013 14.3360040
H -7.4310021 -4.8730014 15.2010043
H -7.2610020 -3.9900011 14.1550040
O -3.8890011 15.0050042 -2.1220006
H -4.1890012 15.9380045 -2.2300006
H -4.2450012 14.5910041 -2.8410008
O 15.2830043 -2.7450008 -4.4390012
H 15.8410044 -1.9120005 -4.3270012
H 14.4610040 -2.5930007 -3.9380011
O -14.7820041 -7.0280020 -2.1460006
H -14.5000041 -6.6220019 -1.3420004
H -14.0330039 -7.5740021 -2.2810006
O -13.0630037 13.3900037 -2.9660008
H -12.4810035 12.9610036 -3.6420010
H -13.2990037 14.1460040 -3.5320010
O 4.4353338 -5.4947223 -1.7841121
H 5.2575070 -5.4879849 -1.2484199
H 4.7064397 -6.0680707 -2.5282597
O 2.8160008 -1.7670005 16.3250046
H 2.9320008 -2.1720006 17.2220048
H 3.2180009 -2.3680007 15.6650044
O 6.1610017 17.4020049 -3.8660011
H 6.4530018 16.6980047 -3.2620009
H 6.3600018 17.0880048 -4.7370013
O -4.9510014 -2.3400007 -18.9020053
H -5.3340015 -3.1830009 -18.9740053
H -4.4070012 -2.4870007 -18.1140051
O -8.4098655 -0.9631108 1.1960623
H -8.2272891 -0.7453706 2.1354387
H -7.5991243 -1.4729631 0.9881226
O -4.1510012 19.0830053 0.4430001
H -3.8220011 19.3080054 -0.4300001
H -5.1130014 19.2780054 0.3800001
O 12.7100036 0.2510001 -4.0510011
H 12.5370035 -0.7410002 -3.7980011
H 12.0320034 0.6590002 -3.5060010
O -2.2080006 -18.0080050 -0.3020001
H -2.7660008 -18.8190053 -0.1540000
H -2.2990006 -17.7980050 -1.3060004
O -3.7236707 -2.3137397 -1.4975898
H -3.6868629 -3.1610751 -1.0050487
H -4.6246983 -2.3782724 -1.8894706
O -7.1420020 -1.3160004 17.3150048
H -6.4210018 -1.6400005 16.8060047
H -7.8430022 -1.1380003 16.5990046
O 18.1500051 -2.2520006 -1.7830005
H 18.9000053 -1.7270005 -1.6350005
H 17.9500050 -1.8280005 -2.6090007
O -7.7920022 -4.1490012 -12.5320035
H -7.8490022 -3.5440010 -13.2920037
H -8.6080024 -4.8160013 -12.6390035
O -9.8213790 -2.5518409 6.5661582
H -10.2830263 -1.7652855 6.2112645
H -10.5900452 -3.0695341 6.8811255
O -9.5630027 13.9430039 2.8650008
H -10.2170029 14.7090041 2.9770008
H -9.9800028 13.2980037 3.4970010
O 9.0130025 -4.6630013 -13.2630037
H 8.4100024 -4.7070013 -14.0780039
H 8.6090024 -5.3950015 -12.7530036
O 9.5429329 -5.1253168 4.2517049
H 8.9820334 -4.6488778 4.8971850
H 9.7556090 -5.9259278 4.7633499
O 8.8020025 16.7050047 4.7590013
H 7.8470022 16.7150047 4.4780013
H 8.9110025 15.7470044 4.8090013
O -3.5270010 -3.7980011 -14.1270040
H -2.6640007 -4.3430012 -14.1830040
H -4.0620011 -4.3400012 -13.5190038
O -4.9112712 -6.5781815 4.1487006
H -4.9130523 -5.6666094 3.7930879
H -5.3470126 -6.4866517 5.0173936
O -7.1440020 13.9400039 1.8020005
H -7.4750021 13.3210037 1.1560003
H -7.9300022 13.9510039 2.4060007
O 13.7900039 -5.3760015 -2.4890007
H 13.2940037 -5.6660016 -1.6650005
H 14.6620041 -5.1250014 -2.1140006
O 14.0230039 13.0250036 0.8850002
H 14.7370041 13.4770038 0.4480001
H 13.9180039 13.6090038 1.6030004
O -15.9460045 4.4580012 -2.4050007
H -16.4020046 3.9350011 -3.1320009
H -15.1900043 4.9850014 -2.7210008
O 2.2180006 -16.9780048 -5.1200014
H 1.8810005 -17.1470048 -6.0190017
H 2.2420006 -17.8190050 -4.6700013
O -0.0560000 -13.6800038 12.4980035
H 0.0220000 -14.4210040 13.1220037
H 0.8500002 -13.2740037 12.7570036
O -0.0305969 3.6390466 12.6683317
H 0.1485399 4.3853920 13.2816903
H -0.9872563 3.5029821 12.7612007
O -18.5520052 2.9300008 3.7940011
H -17.9840050 3.1780009 3.0810009
H -18.0630051 2.1400006 4.1940012
O -4.8240014 -16.7640047 0.4300001
H -4.8370014 -16.2180045 1.2170003
H -4.0400011 -16.4990046 -0.0160000
O -1.8070005 1.5020004 -17.4900049
H -2.0570006 1.2400003 -16.5590046
H -1.0580003 2.1260006 -17.4290049
O -2.5110007 19.0510053 2.6990008
H -3.1350009 19.1360054 1.8620005
H -3.0680009 19.3230054 3.4840010
O 16.4920046 3.9830011 3.3480009
H 17.3590049 3.7670011 2.8630008
H 16.4560046 4.8620014 2.8930008
O -14.8940042 -5.6620016 0.6570002
H -15.1510042 -4.9500014 0.0880000
H -14.7850041 -5.1440014 1.5240004
O 6.6222875 -5.5450337 -0.1533684
H 6.6260060 -5.1102185 0.7328791
H 7.5330168 -5.3215493 -0.4291559
O -5.2010015 -4.9240014 -18.4350052
H -5.4200015 -4.8350014 -17.5020049
H -4.4080012 -5.4010015 -18.3160051
O -6.1111561 -2.5322904 1.0589765
H -5.5964630 -3.0848257 1.6813107
H -6.4408595 -3.2435182 0.4563663
O -3.0720009 14.7530041 0.9880003
H -3.0890009 13.8330039 0.7280002
H -3.0300008 15.1750042 0.1050000
O 13.4170038 -2.4810007 -0.9530003
H 13.3060037 -3.3940009 -0.5410002
H 13.4510038 -1.9040005 -0.1890001
O -5.7220016 -15.3570043 2.6700007
H -6.0890017 -14.4810041 2.6190007
H -6.4090018 -15.8680044 2.2550006
O -4.2250012 5.3950015 -15.0470042
H -4.6400013 4.6080013 -14.5650041
H -3.2600009 5.2460015 -14.8950042
O -3.7840317 3.8564072 2.4079761
H -2.8458344 3.7699061 2.6830224
H -4.0058361 4.7287699 2.7989930
O 11.8810033 -14.1840040 2.1090006
H 11.3470032 -14.9260042 2.4310007
H 12.7990036 -14.5440041 2.0890006
O 16.6280047 8.2530023 3.2120009
H 17.4000049 7.7030022 3.2600009
H 17.1360048 9.0680025 3.3800009
O -6.4014876 3.3324287 -4.4783886
H -5.6581870 3.1881632 -3.8645303
H -6.0337609 3.9894814 -5.0984600
O -9.5660027 6.5370018 12.7180036
H -9.0680025 7.1420020 12.0870034
H -10.4390029 6.5470018 12.2640034
O 12.9370036 -13.8750039 -4.1800012
H 13.7530038 -13.9040039 -3.6610010
H 12.8400036 -12.8940036 -4.3910012
O 10.8958272 2.9580624 -2.9688293
H 11.5841080 3.2032312 -2.3153070
H 10.6625160 2.0721756 -2.6157782
O 7.2780020 3.6230010 15.3510043
H 7.1360020 3.9330011 16.2500045
H 6.9940020 2.6930008 15.4460043
O -14.5390041 -10.2520029 -0.3070001
H -14.8730042 -9.5330027 0.2280001
H -14.9120042 -10.9050031 0.3420001
O -9.6956841 6.1040502 3.7062181
H -10.2530059 6.0254055 2.9007974
H -8.9968038 6.6881717 3.3627826
O 7.7580022 -14.8240041 2.3460007
H 7.1890020 -15.5800044 2.3960007
H 7.0310020 -14.1660040 1.9950006
O 5.9045010 7.1794299 -1.3415442
H 4.9641686 7.2658588 -1.0674171
H 5.9248654 7.7358963 -2.1326150
O -10.9969824 -5.6055489 2.8548868
H -10.5134876 -4.8942118 2.3897031
H -10.3139477 -5.9494707 3.4604261
O -10.3060029 13.4760038 -0.2670001
H -10.6470030 14.0130039 0.4880001
H -9.7410027 12.7630036 0.1930001
O 7.1977118 -8.3964824 2.6812708
H 6.7283696 -8.3375123 1.8249044
H 8.0577795 -8.0047010 2.4284555
O 9.0340025 14.7620041 1.9870006
H 9.9980028 14.9100042 1.8300005
H 9.0750025 14.2920040 2.8740008
O -17.4190049 7.3950021 -0.0480000
H -16.8920047 7.8060022 -0.7210002
H -18.1870051 8.0560023 -0.0930000
O -0.4460001 -9.1550026 -17.4820049
H -0.4360001 -9.8370028 -16.7780047
H -1.3430004 -8.9670025 -17.6490049
O -1.1709466 -8.0800274 1.3576487
H -1.5628251 -7.1830302 1.4105468
H -0.5396173 -8.0221022 2.1040663
O -3.0990009 -9.1880026 16.4430046
H -3.7470010 -8.6730024 15.9640045
H -2.2920006 -9.1510026 15.8820044
O 1.5210004 14.0460039 0.0620000
H 2.4390007 13.8720039 0.3370001
H 1.1920003 14.4860041 0.8540002
O 15.3060043 -8.2090023 2.8280008
H 15.6150044 -9.1660026 2.8620008
H 15.4000043 -7.9880022 3.7690011
O 15.4460043 10.7520030 -0.1100000
H 16.0220045 11.1870031 0.5030001
H 14.6660041 11.3470032 -0.0430000
O -13.5510038 7.8710022 -5.9490017
H -12.6470035 7.4420021 -5.7960016
H -14.0260039 7.0720020 -6.3110018
O 3.4380010 -12.9130036 -4.9810014
H 4.2160012 -13.3870037 -4.6520013
H 3.4340010 -12.1870034 -4.3000012
O 1.6960005 -10.7140030 16.5440046
H 2.3710007 -10.5890030 15.8370044
H 1.9250005 -9.9760028 17.1230048
O 3.8091400 3.2757365 -3.8220317
H 2.9250955 2.9985602 -4.1009326
H 3.6572919 4.2283721 -3.6599912
O 0.6620002 5.4570015 14.6310041
H 1.4770004 6.0670017 14.6520041
H 0.5090001 5.4470015 15.5530044
O -10.9150031 -11.3250032 -0.5910002
H -11.3450032 -12.0570034 -0.9550003
H -11.1880031 -11.3930032 0.3100001
O -11.6740248 1.4887192 -0.6844266
H -11.9618133 1.1294260 0.1842064
H -12.4208932 1.2786216 -1.2642764
O 5.5280015 -14.0410039 -3.8830011
H 5.9610017 -13.2910037 -3.4380010
H 5.2830015 -14.5600041 -3.0940009
O 2.1830006 -12.2310034 12.2510034
H 2.5070007 -11.2960032 12.5190035
H 3.0830009 -12.6880036 12.2720034
O 2.2020006 5.3150015 -17.7290050
H 1.4090004 5.6970016 -18.1560051
H 2.3190006 5.9390017 -16.9560047
O 6.0386226 1.7121965 -2.9292495
H 5.4044365 0.9852976 -2.7426282
H 5.4129139 2.4405594 -3.0950869
O 4.6650013 4.5740013 15.3250043
H 5.4230015 4.8110013 15.8730044
H 4.0990011 5.3860015 15.2970043
O -13.1250037 -12.7670036 3.7570011
H -13.6670038 -12.7800036 4.5140013
H -12.2870034 -13.2400037 4.1270012
O -8.0230022 0.5440002 -16.5310046
H -8.2080023 -0.4560001 -16.4490046
H -8.2920023 0.6250002 -17.4190049
O -12.9070036 5.7040016 4.3420012
H -13.0100036 6.6160019 4.6610013
H -13.0750037 5.7980016 3.3940009
O 7.8080022 2.5930007 -13.0480037
H 7.4150021 1.9830006 -13.7350038
H 7.7250022 3.4740010 -13.4160038
O 3.9839508 4.5115705 5.2622444
H 3.0183662 4.5971499 5.1336909
H 4.1317927 5.2645182 5.8717164
O -17.4810049 3.1720009 -4.0950011
H -17.2990048 2.4780007 -4.7910013
H -18.3520051 2.9010008 -3.7370010
O -0.6370002 -19.4900055 -4.3850012
H -1.4890004 -19.3230054 -3.9520011
H -0.5220001 -18.6040052 -4.8050013
O 2.6831175 0.0196816 -4.8204329
H 3.1488840 -0.0310674 -3.9567537
H 2.5828847 -0.9386585 -5.0118128
O -0.5335200 -2.3897120 12.3624291
H 0.0199465 -2.3170790 13.1646636
H -1.0121199 -1.5447113 12.4016615
O 15.1860043 -1.0580003 9.8340028
H 15.0100042 -0.7410002 8.9340025
H 14.6470041 -0.5070001 10.4560029
O -15.3760043 -1.4580004 -10.2100029
H -14.9430042 -0.5990002 -10.3270029
H -14.7790041 -1.7550005 -9.5160027
O 5.6213485 0.5072642 -8.1255386
H 5.2977957 0.8140503 -7.2520753
H 6.1233091 -0.2894166 -7.8565010
O -0.0959520 -3.7937891 10.1133490
H 0.2745001 -3.1384961 9.4915911
H -0.1769846 -3.2509198 10.9349099
O -10.3820106 2.0964635 6.4984639
H -9.7571714 2.6103138 5.9417295
H -10.4839285 2.6691963 7.2859940
O 5.7860016 1.3240004 -14.8120041
H 5.1400014 2.0170006 -15.1040042
H 6.3240018 1.3390004 -15.5550044
O 8.2702474 2.7425138 1.8465369
H 8.0363060 2.1947847 1.0605938
H 7.4561623 3.2676478 1.9284831
O -9.2657518 0.6356938 -3.9517553
H -9.4601947 0.4068193 -3.0117156
H -9.3422317 -0.2474687 -4.3683125
O 4.1731315 -0.2303894 -2.4596666
H 4.5529593 -1.1213154 -2.3098851
H 3.7748315 -0.0277072 -1.5649625
O 2.6443451 0.4330150 13.4914321
H 3.3026093 1.1507497 13.5755058
H 2.2264756 0.6381918 12.6284182
O -11.1510031 -0.3150001 -14.0320039
H -11.2490031 0.4060001 -14.6780041
H -11.9410033 -0.8500002 -14.3040040
O -14.8860042 0.1630000 2.9420008
H -15.8530044 0.1200000 3.1370009
H -14.4940041 -0.3660001 3.6630010
O 3.1910009 -16.4360046 4.5060013
H 3.4040010 -17.3870049 4.5080013
H 2.3860007 -16.3830046 5.0600014
O 5.2320015 -3.3520009 -14.8320042
H 5.0230014 -2.4060007 -14.7610041
H 4.4230012 -3.8390011 -14.6980041
O 4.7549321 -1.9573445 5.4135818
H 5.2848249 -1.2562945 4.9782065
H 4.4274135 -2.4071355 4.6070187
O -2.9520008 -17.9980050 -3.3370009
H -3.9040011 -18.0270050 -3.5310010
H -2.7520008 -17.1140048 -3.6600010
O -3.5790604 0.5116270 -1.3670598
H -3.5036237 -0.4522419 -1.5081305
H -4.2468579 0.4940371 -0.6472682
O 15.2030043 0.2980001 -5.2660015
H 14.8930042 0.5390002 -6.1010017
H 14.3110040 0.1440000 -4.8250014
O 12.3990035 -0.6230002 14.9750042
H 11.4190032 -0.3930001 14.9410042
H 12.4560035 -1.4670004 14.4680040
O -0.1460000 -13.7020038 -0.3430001
H 0.3940001 -13.1370037 -0.9680003
H 0.1420000 -13.2930037 0.4610001
O -1.2270003 6.6530019 -15.5920044
H -0.7210002 6.2200017 -14.9090042
H -0.9150003 7.5990021 -15.4790043
O -0.6299769 8.0233748 2.6867235
H 0.0537575 8.7062071 2.8612713
H -0.0965757 7.2091164 2.6313442
O 14.9960042 -8.3460023 -2.4940007
H 14.3790040 -9.1540026 -2.5750007
H 14.8970042 -8.1580023 -1.5010004
O 16.4060046 3.9830011 -1.4080004
H 15.6720044 3.7760011 -1.9390005
H 16.8300047 3.0720009 -1.4430004
O -5.4520015 0.8830002 -15.7750044
H -6.3210018 0.7800002 -16.1870045
H -5.0180014 0.5610002 -16.6070046
O 15.2660043 -0.4270001 -1.3780004
H 14.6800041 -1.1510003 -1.6490005
H 15.2620043 -0.4920001 -0.3600001
O -15.6860044 -8.2440023 1.4930004
H -15.3520043 -7.5590021 0.9070003
H -16.6100046 -7.9390022 1.7500005
O -13.2690037 9.3680026 0.8700002
H -14.2360040 9.4020026 0.9040003
H -13.1410037 8.4720024 0.6320002
O 0.1192175 -12.3397138 1.9981267
H -0.6749729 -12.8444694 2.2696210
H 0.6312667 -12.3730381 2.8346718
O 2.7280008 6.8740019 -15.5300043
H 3.7220010 6.9520019 -15.5790044
H 2.4020007 7.6210021 -14.9180042
O 4.5309898 1.7817381 0.8432949
H 5.0950786 0.9845240 0.8224202
H 3.7612496 1.3752666 0.3454841
O 18.1660051 5.8390016 -2.2490006
H 18.1290051 6.4940018 -1.4960004
H 17.6840049 5.0560014 -1.8200005
O -3.7130010 -15.7530044 -10.3330029
H -3.1880009 -16.1640045 -11.0710031
H -3.1930009 -16.0270045 -9.5500027
O -3.8460011 -16.0270045 4.6380013
H -4.4780013 -16.3200046 5.3410015
H -4.5150013 -15.5820044 3.9800011
O -2.1876424 0.5238787 -11.3356773
H -1.3481358 0.7725342 -10.8923583
H -2.4283069 1.3625761 -11.7818806
O -2.3490515 2.2608612 7.1544468
H -2.8525220 3.0155373 6.7872922
H -1.7977272 1.9873007 6.3900587
O -0.2950001 18.6790052 4.3190012
H -0.6480002 18.4000051 5.1700014
H -1.1730003 18.7250052 3.7710011
O 15.3150043 3.2070009 5.6350016
H 15.7300044 3.2660009 4.7690013
H 14.6130041 2.6240007 5.3120015
O -12.3620035 0.5440002 -7.8660022
H -13.3290037 0.8050002 -7.8110022
H -12.0380034 1.2490003 -7.2880020
O -15.5090043 -0.7790002 11.4150032
H -15.3490043 -1.4120004 10.7110030
H -15.0710042 -1.1920003 12.2390034
O 7.2856776 -1.3404834 -6.8589538
H 8.1370567 -1.7462490 -7.1087402
H 7.5491352 -0.7581017 -6.1154160
O 0.6268294 2.3827168 9.5867467
H -0.1916319 2.9139354 9.6229419
H 1.0708352 2.7718386 8.8105221
O -2.9560684 1.2808581 -14.6367314
H -3.8682400 1.2480873 -14.9926751
H -3.0518612 1.9098219 -13.8957699
O -6.6546252 4.9617081 4.2977881
H -5.7802161 5.3559120 4.0992922
H -6.8657984 5.4289857 5.1312380
O -4.3990012 16.5470046 5.4800015
H -4.5430013 16.0690045 4.6210013
H -5.3920015 16.6770047 5.6990016
O 9.6941788 1.8520781 4.1368263
H 9.3379694 2.4701519 4.8080626
H 9.2395046 2.1585545 3.3257348
O -13.6570038 5.6980016 -3.5030010
H -12.9960036 6.3340018 -3.7740011
H -13.9460039 5.2900015 -4.3330012
O 1.4660004 -12.3200034 -1.9990006
H 1.0270003 -11.8670033 -2.7730008
H 2.4040007 -12.0420034 -2.1590006
O 3.3943268 7.6260849 -0.3660509
H 2.7802882 7.9734728 -1.0495898
H 3.3067992 8.3272760 0.3164476
O -1.0910003 7.8050022 15.6270044
H -0.4980001 7.2150020 16.1290045
H -0.5700002 8.0020022 14.8010041
O -3.3280009 -11.7420033 -13.2320037
H -3.1460009 -11.4460032 -12.3520035
H -3.4140010 -10.8770030 -13.7060038
O -5.9520017 -13.6930038 6.5220018
H -6.3660018 -12.7940036 6.3720018
H -6.7990019 -14.2520040 6.6080018
O -3.2250968 2.9019981 -12.3088721
H -2.6829747 3.7178912 -12.2157876
H -4.0294975 3.1835650 -11.8266177
O -3.8556152 4.4999283 6.5660471
H -4.6423933 3.9103174 6.4772550
H -4.2216379 5.1657781 7.1841232
O 14.1310040 5.9080017 -11.9960034
H 14.2920040 5.9910017 -11.0520031
H 13.4300038 5.2050015 -12.0440034
O 14.1570040 7.5580021 3.9630011
H 14.5940041 6.9160019 4.5260013
H 14.9370042 7.9000022 3.5040010
O -12.2070034 -10.7100030 -6.8700019
H -11.5750032 -11.4460032 -6.7060019
H -11.9490033 -10.0620028 -6.1740017
O -12.7310036 -11.2510031 7.6670021
H -13.3770037 -11.3480032 8.3710023
H -12.3880035 -10.3550029 7.9180022
O -8.1370023 10.1770028 -2.6820008
H -7.4000021 10.6770030 -3.0430009
H -8.6900024 11.0070031 -2.5310007
O 5.6020016 -11.0070031 -8.4050024
H 4.7170013 -11.4730032 -8.2520023
H 5.5260015 -10.6520030 -9.2830026
O 6.1865852 -5.9643740 9.7106915
H 5.4454068 -5.4520130 9.3338874
H 5.8953520 -6.8655826 9.5133761
O 7.2611686 10.5460888 -6.2071620
H 6.9866200 10.1163389 -5.3736792
H 8.1473247 10.8687498 -5.9407450
O 5.7160016 13.2040037 12.0880034
H 4.9180014 13.4300038 12.6230035
H 5.2740015 12.9030036 11.2440031
O -3.7944662 -1.7419990 -5.5473567
H -4.4676584 -1.0506990 -5.7090915
H -3.3772589 -1.8237224 -6.4248691
O -4.5940013 1.8110005 14.8890042
H -4.2610012 1.2970004 15.6630044
H -5.3440015 2.3450007 15.1810042
O 15.6680044 0.4620001 -8.5420024
H 15.6040044 -0.4250001 -8.9570025
H 15.1020042 1.0870003 -9.0310025
O 11.6590033 2.6950008 11.8360033
H 10.7470030 2.3800007 12.1020034
H 11.7810033 3.2680009 12.5980035
O -10.3930029 -13.1260037 -6.5510018
H -9.7610027 -13.4480038 -5.8340016
H -9.9820028 -13.3590037 -7.4090021
O -10.9890031 -11.8530033 10.6610030
H -11.7020033 -12.4180035 10.2330029
H -11.5280032 -11.1860031 11.2030031
O -10.0010028 8.0530023 -8.0560023
H -9.8620028 7.6750021 -7.2150020
H -9.1740026 8.4140024 -8.1720023
O -12.9030036 5.0150014 7.0770020
H -12.8850036 5.1970015 6.1150017
H -13.6990038 5.3540015 7.4210021
O 11.5190032 -12.6940036 -8.2620023
H 10.8850030 -13.1220037 -7.7420022
H 10.9010031 -11.9900034 -8.5940024
O 6.6470019 -9.5540027 11.6620033
H 6.6750019 -10.2250029 12.4160035
H 7.6260021 -9.5820027 11.4440032
O 8.7341690 5.5018326 -8.8821170
H 9.2491093 6.3303462 -8.8731420
H 8.4023137 5.4966367 -7.9681839
O 8.2106589 6.2184086 7.8066970
H 8.1831971 6.1355887 6.8310105
H 9.1215512 6.5567266 7.9387015
O -8.8730025 -15.2040043 4.0870011
H -8.8990025 -14.3900040 3.5520010
H -8.6300024 -15.8630044 3.4230010
O -7.1761284 6.4211633 6.6484658
H -7.0880616 7.3242230 7.0272768
H -6.5359666 5.9686380 7.2328126
O 11.2520031 4.1300012 -15.6760044
H 10.5260029 4.6500013 -16.0550045
H 11.0990031 3.2770009 -16.1750045
O 9.9514891 4.2920532 0.2712882
H 9.1543649 4.5627281 -0.2280472
H 9.5318273 3.6921855 0.9211700
O -8.6640024 -9.5580027 -14.7320041
H -7.7770022 -9.9310028 -14.5880041
H -8.5040024 -8.6110024 -14.8890042
O -8.7700025 -12.6810035 3.0200008
H -7.8520022 -12.4880035 2.7990008
H -8.9810025 -11.7750033 3.1840009
O -5.8050016 6.9870020 -17.7680050
H -5.1110014 6.3140018 -17.8590050
H -5.2790015 7.7730022 -17.5660049
O -4.6537095 3.8459115 -0.2295159
H -4.2506369 4.7382101 -0.2681523
H -4.4983877 3.6595213 0.7216044
O 8.6020024 -16.7130047 -1.8570005
H 9.2420026 -16.0780045 -2.3150006
H 8.0480023 -16.0750045 -1.4410004
O 7.3950021 4.6560013 -14.5760041
H 8.0500023 5.0610014 -15.2450043
H 6.5860018 5.0650014 -14.9680042
O 11.6035553 7.1445176 -1.6866847
H 12.0812021 7.9458490 -1.3689126
H 10.7246038 7.3989674 -1.3417944
O -10.3120029 -11.9100033 6.3330018
H -11.1180031 -11.9670033 6.8060019
H -10.3590029 -10.9730031 6.0470017
O -8.7850025 5.0080014 -13.4550038
H -8.7190024 4.3340012 -14.1980040
H -8.9020025 5.8580016 -13.8040039
O -9.9060028 9.5040027 5.7030016
H -10.8300030 9.7960027 5.8150016
H -10.1180028 8.5080024 5.9710017
O 7.9020022 -12.7240036 8.5810024
H 7.8950022 -13.6060038 8.1620023
H 7.2710020 -12.2310034 8.0330022
O 9.9870028 5.2490015 -11.6770033
H 9.6680027 4.7340013 -10.9250031
H 9.3150026 5.9700017 -11.7230033
O 7.9633437 5.7824818 5.0768843
H 8.5219706 6.1910113 4.3770712
H 7.0929664 5.8349999 4.6636682
O 0.1590000 -13.2930037 -14.1310040
H 0.3560001 -12.4260035 -13.7110038
H -0.3970001 -13.6290038 -13.4270038
O -1.4910004 -14.8980042 5.5800016
H -2.0240006 -14.1940040 5.9490017
H -2.1530006 -15.6180044 5.3190015
O 2.1971314 1.0264335 -11.1676158
H 1.3086781 1.1592825 -10.7761918
H 2.1225404 0.0819439 -11.4263820
O -1.4802174 5.3769615 5.5109115
H -1.6867947 6.3328466 5.4286160
H -2.3001168 5.0738331 5.9604364
O 15.7830044 5.4940015 0.9350003
H 16.2160045 5.1390014 0.1040000
H 15.3810043 6.2900018 0.5780002
O -14.9660042 8.6900024 -1.5750004
H -15.8570044 8.8240025 -2.0170006
H -14.5230041 9.5650027 -1.7910005
O 2.2989662 -8.8913796 -4.1227540
H 1.9756057 -7.9678736 -4.1718762
H 2.1952246 -9.1718709 -5.0530775
O 0.0350000 -11.0440031 11.0450031
H -0.6740002 -11.1730031 10.4110029
H 0.0600000 -11.8970033 11.5290032
O 1.7897712 8.9545376 -2.2171669
H 2.1031605 9.3762223 -3.0466914
H 0.9011584 8.6407667 -2.4907453
O 0.0150000 7.6320021 11.1670031
H -0.9190003 7.4600021 11.2370031
H 0.2120001 7.8650022 12.0950034
O -5.3110015 -15.0220042 -1.6750005
H -5.6190016 -14.0870039 -1.7840005
H -4.3420012 -14.9340042 -1.9200005
O -4.0723378 2.9180583 -2.7582076
H -4.3019821 3.3250612 -1.8947673
H -3.9445711 1.9949939 -2.4573652
O -5.7810016 6.2460017 16.3830046
H -5.9470017 6.4520018 17.3130048
H -6.6050018 6.4950018 15.9140045
O 13.2810037 -10.4440029 -1.7990005
H 14.0060039 -11.0530031 -1.5890004
H 12.5760035 -11.1300031 -1.7170005
O 14.2670040 7.0230020 -2.5910007
H 14.7850041 7.1500020 -1.7530005
H 13.3500037 6.8040019 -2.2880006
O -14.5530041 -8.8390025 -6.8440019
H -13.8960039 -9.4220026 -7.3410021
H -14.5370041 -9.2200026 -5.9890017
O -11.0440031 9.3140026 11.1830031
H -10.8320030 9.0340025 10.2630029
H -10.3570029 9.9090028 11.4420032
O 3.4090010 -11.8860033 -7.4740021
H 3.0930009 -11.1060031 -7.0240020
H 3.4600010 -12.4940035 -6.7430019
O 2.0510595 -9.9445658 9.5773563
H 1.3317014 -10.2461514 10.1634827
H 1.7061048 -9.0856002 9.2689594
O 5.1831056 7.2109114 -6.8814618
H 4.7784563 7.4221536 -6.0142371
H 4.3787958 7.1233472 -7.4419136
O 2.8030008 9.1880026 11.3370032
H 3.6540010 8.7800025 11.5150032
H 2.4500007 9.2910026 12.2620034
O -14.2470040 -10.1500028 -4.3180012
H -14.0600039 -11.1130031 -4.0830011
H -13.3650037 -9.7120027 -4.1310012
O -15.6110044 9.9300028 -5.2900015
H -15.3270043 10.2290029 -4.3570012
H -14.7550041 9.4570026 -5.4920015
O -14.6430041 7.0770020 10.7770030
H -15.1190042 6.3810018 11.2910032
H -14.5760041 6.6880019 9.8620028
O 3.6041199 -10.9953015 -3.0166499
H 4.0969723 -10.4548999 -2.3725920
H 3.0968572 -10.2704570 -3.4540326
O 0.6770002 -8.8780025 12.5090035
H 1.5930004 -8.7060024 12.7050036
H 0.7570002 -9.7360027 12.1340034
O 3.3603546 12.8061635 -1.8906095
H 3.9299379 12.0737917 -2.2157786
H 3.7808577 12.9796182 -1.0249467
O 0.0510000 8.9590025 13.5990038
H 0.9530003 9.1110025 13.7460038
H -0.4840001 9.7170027 14.0220039
O -11.8190033 -2.2580006 -11.6470033
H -11.3130032 -1.8410005 -12.3960035
H -12.0570034 -3.0470009 -12.1200034
O -14.3210040 -3.2050009 10.3560029
H -13.5610038 -3.1730009 10.9660031
H -13.9120039 -3.9060011 9.7360027
O 7.6070021 -6.9860020 -12.1660034
H 7.2490020 -7.8740022 -12.1920034
H 7.9310022 -6.9890020 -11.2180031
O 5.8747509 -3.2607458 7.5841575
H 5.4934964 -2.7359324 6.8457502
H 5.0965647 -3.7928786 7.8562998
O 5.1670014 16.0490045 7.2770020
H 5.6440016 16.5010046 7.9590022
H 4.3080012 16.6110046 7.3420021
O -7.6550021 -15.8090044 6.5100018
H -6.9340019 -16.4110046 6.1460017
H -8.1250023 -15.5900044 5.7080016
O -5.7180016 3.4910010 -13.9580039
H -5.5340015 2.7290008 -13.4190038
H -6.4600018 3.0490009 -14.5340041
O -5.9670187 2.8053527 6.6912541
H -6.4741064 3.0217472 7.5047659
H -6.2065300 1.8732615 6.5439433
O 11.4880032 -12.1060034 3.7520011
H 11.8090033 -12.4800035 4.5900013
H 11.7610033 -12.8000036 3.1540009
O 12.1730034 3.7020010 -13.3150037
H 11.3020032 3.8760011 -12.9170036
H 11.9340033 3.9340011 -14.1990040
O 11.5544523 6.0173045 1.6944946
H 12.2349967 5.3412798 1.8845639
H 10.9763638 5.5005403 1.0974863
O -3.3940009 -9.1400026 -14.1780040
H -2.9130008 -8.5620024 -13.6380038
H -4.0980011 -8.5600024 -14.6410041
O -3.4125376 -4.9707889 -0.6839899
H -2.7932423 -5.2729475 -1.3808360
H -4.1634350 -5.5813609 -0.8560206
O -5.2770015 -6.7170019 17.0740048
H -6.0510017 -7.3190020 16.8490047
H -4.9820014 -7.1100020 17.9340050
O -2.5090007 9.6440027 -13.7350038
H -2.5800007 9.5430027 -14.6670041
H -2.6270007 10.6520030 -13.5730038
O -3.7730011 12.0210034 0.2040001
H -2.9660008 11.4660032 0.1700000
H -3.9030011 12.1610034 -0.7580002
O 17.2670048 -6.2800018 1.5500004
H 16.5510046 -5.6420016 1.5700004
H 16.8230047 -7.0980020 1.6770005
O -17.4310049 -2.4460007 4.9520014
H -17.1650048 -3.3950010 4.6550013
H -16.7400047 -2.4070007 5.5620016
O 1.7067580 -6.9599778 -10.0866541
H 1.4766724 -7.8431230 -9.7215625
H 1.2476615 -6.3846668 -9.4444897
O -0.8943542 -5.9323058 5.3868279
H -0.3018926 -6.2903291 4.6948289
H -1.5406025 -6.6734060 5.4176446
O 2.8050008 11.9890034 -11.0020031
H 2.6600007 11.3520032 -10.2760029
H 2.5890007 12.8020036 -10.6130030
O 2.3290007 15.2780043 2.7610008
H 1.8680005 14.8110041 3.4970010
H 1.7620005 16.0670045 2.7160008
O -12.5950035 -4.5360013 -12.7470036
H -13.1010037 -4.8940014 -11.9280033
H -13.1470037 -4.7490013 -13.4420038
O -13.6480038 -1.3910004 4.8870014
H -13.9720039 -2.0160006 5.4800015
H -12.8420036 -1.0100003 5.2930015
O 7.5570021 -5.0600014 -15.6130044
H 6.9850020 -4.4060012 -15.2240043
H 6.8980019 -5.6980016 -15.9830045
O 1.6686874 -5.1872645 6.6491383
H 1.3885217 -4.3207230 6.2879542
H 0.8344449 -5.6727707 6.5398785
O 5.9320017 16.0170045 4.7230013
H 5.5560016 15.9300045 5.6560016
H 5.9270017 16.9830048 4.7090013
O -11.3088332 2.9428734 -7.0099231
H -10.9238231 3.4064238 -7.7864365
H -10.5245066 2.9025545 -6.4262778
O -14.6530041 -0.2880001 8.3190023
H -14.4090040 0.3590001 7.5950021
H -15.1620042 0.2840001 8.8950025
O 4.1018498 -2.5885263 -10.6071516
H 4.7564619 -1.8606922 -10.7024492
H 4.6250518 -3.3535173 -10.9095347
O 4.6241553 0.3112199 8.8464045
H 4.3884302 1.2221838 9.1256926
H 4.2193107 -0.2265218 9.5532054
O 4.4250012 -8.5980024 -10.3310029
H 4.2610012 -7.8110022 -10.8910030
H 5.2650015 -9.1080025 -10.5760030
O 0.9992123 -1.9842121 8.2171987
H 0.8581745 -2.4824920 7.3825239
H 1.5919263 -1.2916393 7.8461149
O 0.4301920 11.9764390 -4.3807350
H 0.4315630 12.3994958 -5.2611871
H -0.4908951 11.6630841 -4.2995757
O -0.6720002 15.5460044 10.7860030
H 0.1620000 15.0540042 10.5560030
H -0.7680002 15.3170043 11.7760033
O -3.4040010 -2.2010006 -16.7250047
H -3.6370010 -2.2340006 -15.8120044
H -2.5390007 -2.6470007 -16.7910047
O -4.2216303 1.1781651 2.8772998
H -4.1919280 2.1430113 2.6872273
H -4.6107012 1.1775857 3.7610892
O -0.2500001 16.6230047 1.3770004
H -1.1300003 17.0220048 1.5520004
H -0.2680001 16.7100047 0.4480001
O 12.4480035 -5.1930015 0.0900000
H 12.3970035 -6.1390017 0.2170001
H 11.8490033 -4.9150014 0.8280002
O -4.9994553 -4.6539097 -4.3856988
H -5.8944101 -4.8940770 -4.6928041
H -5.1994859 -3.8355758 -3.8844769
O -8.8980025 -1.6510005 15.3000043
H -8.6730024 -1.2080003 14.4670040
H -9.5580027 -2.3640007 15.1210042
O -2.1740006 16.9150047 -6.5670018
H -2.5900007 17.4640049 -5.8890016
H -2.3570007 17.4950049 -7.3520021
O 17.4300049 -0.7820002 -4.3570012
H 16.7540047 -0.2330001 -4.8310014
H 18.2570051 -0.5430002 -4.8640014
O 12.7380036 -3.1410009 13.6830038
H 12.1430034 -3.7730011 13.2280037
H 13.4540038 -3.0880009 13.0100036
O -13.0890037 -0.4790001 -4.2080012
H -12.4790035 0.1370000 -4.6740013
H -13.5270038 -0.8840002 -4.9910014
O 2.6188757 -2.6737876 -5.2888356
H 3.5036229 -2.8804265 -5.6608374
H 2.6220310 -3.1947783 -4.4533526
O -1.5810004 -0.6090002 15.1950043
H -0.5700002 -0.7360002 15.0600042
H -1.6670005 -0.2550001 14.3020040
O 3.3130009 14.4290040 -6.0850017
H 3.3180009 15.0780042 -6.7960019
H 2.6360007 13.7900039 -6.4140018
O -17.2580048 0.6430002 4.6940013
H -17.3130048 -0.2610001 4.4270012
H -16.9860048 0.6040002 5.6270016
O 2.9079188 -1.5900732 -8.2028822
H 3.6040968 -1.9861807 -7.6428003
H 3.1919077 -1.9152870 -9.0772621
O -1.7590667 -1.3253267 5.2170692
H -1.4449901 -0.4180040 5.0055193
H -2.5080308 -1.0881884 5.7987053
O -0.0980000 15.9520045 8.1770023
H 0.7750002 15.5650044 8.4000024
H -0.5750002 15.7770044 9.0310025
O 17.6160049 -4.0290011 7.7500022
H 17.5400049 -3.2940009 8.4490024
H 17.4600049 -4.8100013 8.2780023
O -13.8010039 -1.0060003 -1.5750004
H -14.6110041 -0.4600001 -1.5780004
H -13.3990037 -0.7980002 -2.4230007
O 0.2500117 -4.5946500 -1.3147767
H -0.4313407 -5.1324631 -1.7728180
H -0.2710959 -3.8412115 -0.9933757
O 0.8350002 -1.4380004 14.5470041
H 1.2820004 -0.8150002 13.9080039
H 1.4770004 -1.3290004 15.2500043
O 0.5640002 16.0110045 -4.7950013
H 0.5120001 15.1770042 -5.2630015
H 1.1920003 15.9160045 -4.0210011
O -5.5250015 -4.4190012 -15.7350044
H -6.3240018 -3.9870011 -15.3920043
H -4.8450014 -3.9740011 -15.1890043
O -11.2557890 -0.3423592 5.7037332
H -10.9967803 0.4534027 6.2208290
H -10.9374020 -0.0335096 4.8279964
O -2.5020007 14.9500042 -9.7500027
H -2.4200007 15.8820044 -10.1460028
H -3.3070009 15.1570042 -9.1430026
O -4.7840013 15.3660043 3.1330009
H -5.4260015 14.7330041 2.7940008
H -4.1390012 15.3130043 2.3490007
O 11.2749641 -4.1984243 2.3076452
H 11.4208135 -3.2471006 2.4789366
H 10.6601800 -4.4341357 3.0371524
O 13.5450038 13.6440038 3.4620010
H 14.2580040 12.9990036 3.8480011
H 13.1830037 13.9230039 4.3860012
O 0.2521275 -5.5073571 -8.2832789
H 0.1701922 -4.5901181 -7.9639066
H -0.5284573 -5.6087782 -8.8619866
O -5.0525029 -4.0327751 9.7085197
H -4.1993850 -4.2998546 10.1214463
H -4.8829542 -4.2561386 8.7726036
O -0.1550000 13.3830037 -9.5350027
H -0.9360003 14.0040039 -9.5800027
H 0.6530002 13.8660039 -9.8440028
O -0.7620002 12.2300034 7.6840022
H -1.1640003 12.8800036 7.0030020
H 0.0660000 12.7570036 7.9630022
O 15.1710042 -4.3760012 6.2870018
H 15.9690045 -3.9480011 6.5310018
H 14.5120041 -3.9430011 6.8450019
O -8.5933605 -6.7965783 -0.6802894
H -8.1286056 -7.6476964 -0.7227727
H -9.3728251 -6.9475397 -1.2549061
O -9.2370026 12.7670036 -2.6620007
H -10.0120028 12.6300035 -3.2230009
H -9.6350027 13.1240037 -1.9180005
O 10.3766575 -6.2453865 -2.3003824
H 10.0593551 -5.6607058 -1.5698191
H 10.8890824 -5.6214701 -2.8413585
O 6.9150019 -2.8570008 16.1870045
H 6.7520019 -3.4000010 16.9180047
H 7.8480022 -2.7380008 16.2890046
O 9.3280026 13.4410038 -3.1740009
H 9.6050027 14.1780040 -3.7570011
H 8.6210024 13.8190039 -2.5750007
O -7.4875726 -5.2171317 -5.5897701
H -7.3644482 -4.3492193 -6.0455515
H -7.2985533 -5.7742196 -6.3768211
O -7.5279153 -4.2123797 10.8606853
H -6.7044019 -4.1397278 10.3317817
H -8.1476969 -3.6371946 10.3905662
O -5.9540017 16.3770046 -5.7620016
H -6.0190017 17.1600048 -5.2000015
H -6.5090018 16.6240047 -6.5460018
O 10.1030028 -5.8530016 -7.5080021
H 10.9850031 -6.3800018 -7.5780021
H 10.1960029 -5.3020015 -8.3040023
O 12.4440035 -3.8350011 10.2750029
H 11.9740034 -3.0480009 9.8280028
H 11.7670033 -4.4940013 10.2160029
O 9.7250027 15.3230043 -5.1600014
H 10.3230029 14.8590042 -5.7220016
H 9.2020026 15.7920044 -5.8510016
O -17.6530049 -0.9360003 -1.0040003
H -18.6760052 -0.8670002 -1.0980003
H -17.5280049 -0.5510002 -0.1360000
O 2.3890007 -18.2730051 -0.9480003
H 2.1690006 -17.3260048 -1.3030004
H 2.4110007 -18.1830051 0.0730000
O 2.9410008 -0.5280001 -15.8100044
H 3.7040010 -0.8090002 -16.2980046
H 3.3140009 -0.4650001 -14.8740042
O 3.9867087 -2.9316571 2.9443090
H 4.2189816 -3.1090707 2.0103695
H 3.3107111 -2.2361275 2.7954485
O -0.3900001 -2.0270006 18.6680052
H -0.0300000 -1.2580004 18.1970051
H -0.0220000 -2.7890008 18.2050051
O 2.1300006 18.8340053 0.1270000
H 2.4510007 19.4190054 -0.5660002
H 2.1160006 17.9840050 -0.3110001
O 18.1510051 -1.2260003 3.3700009
H 18.4080052 -1.8380005 2.6110007
H 18.0860051 -1.9480005 4.0470011
O 1.3660004 -4.8160013 -17.7050050
H 0.6050002 -5.2830015 -18.1710051
H 1.7560005 -5.5650016 -17.1920048
O -2.1615015 -2.7574862 -3.6684498
H -2.7848086 -2.4246291 -4.3551626
H -2.7380616 -2.7108221 -2.8798558
O -2.6140007 -5.4430015 16.6760047
H -3.4940010 -5.7160016 17.0050048
H -2.8130008 -4.4600012 16.3510046
O -1.4400004 15.6000044 -1.4120004
H -2.3410007 15.3370043 -1.7520005
H -0.9260003 14.7790041 -1.5190004
O 16.0680045 -4.1350012 -1.6470005
H 16.7230047 -4.7930013 -1.9660006
H 16.5920046 -3.2920009 -1.7140005
O -6.0385379 -2.4706420 -2.9261268
H -6.9443522 -2.7955048 -2.7527732
H -6.2148325 -1.5286260 -3.1372758
O -7.8800022 -1.1860003 12.7690036
H -8.0720023 -1.6440005 11.9560033
H -7.0140020 -0.6690002 12.6070035
O -4.7340013 17.5420049 -2.4170007
H -5.4110015 18.1370051 -2.7590008
H -4.0650011 18.2100051 -2.2900006
O 12.1770034 -2.4110007 -3.3700009
H 12.2830034 -3.3220009 -3.5960010
H 12.3000034 -2.4570007 -2.3600007
O -17.3010048 0.4350001 -4.8700014
H -17.7980050 -0.3010001 -4.4690013
H -17.2360048 0.0490000 -5.7610016
O -0.5735974 -4.5518750 -4.8919246
H -0.2061121 -4.0638931 -5.6549443
H -1.0875132 -3.8329357 -4.4568732
O -4.9220014 -2.7900008 15.6770044
H -3.9140011 -2.8990008 15.6080044
H -5.1920015 -2.9000008 14.7340041
O 0.6960002 13.5120038 -6.8050019
H -0.1360000 13.9920039 -6.7370019
H 0.8070002 13.6400038 -7.7720022
O 14.8240041 -3.5160010 11.1820031
H 15.2270043 -2.8360008 10.6400030
H 13.8940039 -3.5850010 10.8680030
O -17.5800049 -4.0380011 0.4240001
H -17.5020049 -3.1310009 0.3910001
H -18.4780052 -4.2710012 0.1560000
O 2.5240007 -5.3990015 -14.3900040
H 2.5640007 -5.8310016 -13.5260038
H 2.4930007 -6.1180017 -15.0570042
O 6.1127284 -8.2162905 0.1217997
H 5.2790712 -8.2966975 -0.3979275
H 6.2602896 -7.2447894 0.0604081
O 7.1090020 16.1620045 0.6600002
H 7.9640022 15.7490044 1.0420003
H 6.4380018 15.7850044 1.2470003
O -16.8870047 -0.7860002 -7.1630020
H -17.1720048 -1.7110005 -7.0890020
H -17.2710048 -0.5910002 -8.0390022
O -2.1514876 -2.3754618 -7.6562742
H -2.1900095 -2.7139089 -8.5784616
H -1.2161718 -2.5822031 -7.4380727
O -5.3179058 -1.3287997 10.0878629
H -6.2568489 -1.1795008 9.8667238
H -5.2506500 -2.3033438 10.0416555
O 15.3670043 -1.8230005 -9.8670028
H 14.6530041 -2.4120007 -9.6100027
H 15.8600044 -2.3360007 -10.4330029
O 13.8450039 -2.2550006 7.3320021
H 12.9310036 -2.2880006 7.6180021
H 14.0480039 -1.4620004 6.9320019
O -11.3280032 -9.1880026 -9.5670027
H -10.7050030 -8.9270025 -10.2730029
H -10.9710031 -10.0310028 -9.2530026
O -11.9760034 -8.6760024 8.4280024
H -12.2530034 -8.6880024 9.3390026
H -11.1400031 -8.1420023 8.4750024
O -12.5660035 9.3310026 -10.7020030
H -11.9880034 10.1110028 -10.7160030
H -11.9990034 8.6250024 -11.0080031
O -12.3210034 10.1150028 6.5980018
H -11.8380033 10.6630030 7.2940020
H -13.1450037 9.9330028 7.0510020
O 4.7008007 -9.2929040 6.9315767
H 4.4195152 -8.3959163 6.6309782
H 5.1713438 -9.0758424 7.7669153
O 6.0709503 8.8602895 -11.0193085
H 5.9853408 9.0115912 -10.0587849
H 6.3304159 9.7492198 -11.3182282
O 6.7760019 7.8680022 9.4080026
H 7.2050020 8.6830024 9.1750026
H 7.3580021 7.3200020 8.8640025
O -6.5526124 1.0216171 -12.6499396
H -7.3540583 0.4720844 -12.7089321
H -6.0950526 0.6063085 -11.9068142
O -7.8950022 7.3520021 10.5790030
H -7.1600020 7.8060022 10.1000028
H -8.3030023 6.8790019 9.8110027
O 10.8420030 -14.6440041 5.7740016
H 10.0450028 -14.6990041 6.2830018
H 10.6220030 -15.0420042 4.9170014
O 12.8790036 2.1070006 5.5830016
H 13.0910037 2.0090006 6.5370018
H 11.8810033 2.1100006 5.4890015
O -0.5650002 -3.3180009 -16.2490045
H 0.3230001 -3.5310010 -16.5020046
H -0.5250001 -2.3740007 -16.0220045
O -1.9732454 -5.5016862 1.6461391
H -2.6074022 -5.2526300 0.9397247
H -2.3159666 -5.0047492 2.4098557
O -3.3790009 0.3310001 17.0170048
H -3.3590009 -0.3490001 17.6640049
H -2.7730008 -0.1810001 16.4340046
O -1.0110003 17.9290050 -3.3620009
H -0.5150001 17.3120048 -3.9410011
H -1.4410004 17.3130048 -2.7340008
O -6.3756066 -7.5966752 -3.9328801
H -6.7211550 -8.5028922 -4.1250811
H -7.0606672 -7.0653065 -4.3602835
O -5.5560016 -4.1340012 12.9760036
H -6.1940017 -4.4080012 12.3060034
H -4.8510014 -4.7830013 12.7710036
O -2.2901362 10.9003595 -4.1312924
H -2.2068563 10.8803459 -5.1054808
H -2.5730326 9.9877399 -3.9192595
O 12.1690034 -4.9550014 -4.6280013
H 12.8990036 -5.2750015 -4.0230011
H 12.2470034 -5.5590016 -5.4110015
O 10.5240029 -4.7060013 13.0740037
H 10.1480028 -3.8550011 12.7050036
H 9.7100027 -5.2650015 12.9190036
O 12.6400035 11.5500032 -3.3930009
H 13.6250038 11.4220032 -3.2070009
H 12.4510035 10.6350030 -3.6160010
O 10.8630030 7.1210020 14.6950041
H 10.4390029 7.0680020 13.7410038
H 10.4250029 6.3240018 15.0410042
O -1.5830004 -5.7960016 -15.1960043
H -2.2730006 -6.1040017 -15.8330044
H -1.3250004 -4.9150014 -15.6030044
O -6.7830272 -2.8525740 4.4044053
H -6.9061333 -2.7463398 5.3682511
H -7.1672594 -2.0051926 4.0889058
O -6.7260019 -4.3980012 17.1410048
H -6.2300017 -5.2080015 16.8280047
H -6.1550017 -3.7310010 16.8450047
O 1.9780006 16.4530046 -1.3700004
H 1.8170005 15.6310044 -0.9220003
H 2.4860007 16.1430045 -2.1250006
O 17.8070050 -2.9750008 1.2190003
H 17.4540049 -2.9810008 0.3430001
H 18.7650053 -3.1210009 1.0210003
O -0.7520002 -17.1290048 -5.9010017
H -1.4950004 -17.3320049 -6.5000018
H -0.0140000 -17.2430048 -6.5950018
O 1.0520827 0.3196812 -7.3579432
H 1.6550911 -0.3229486 -7.7989446
H 1.5427216 0.4466855 -6.5267356
O -1.5298167 0.2971988 12.5588438
H -2.0811507 0.1342789 11.7562226
H -1.8812240 1.1847127 12.8011385
O -10.2264237 0.9205220 3.4919255
H -10.9010345 0.8774474 2.7814105
H -10.0323031 1.8733672 3.5241912
O 6.2440017 -16.7970047 3.7920011
H 5.3940015 -17.1920048 3.6970010
H 6.1110017 -16.2740046 4.6550013
O 4.5340013 2.9500008 -16.7930047
H 3.6180010 3.1260009 -16.8280047
H 4.7160013 2.3500007 -17.4890049
O 5.8414084 4.1678531 1.0186085
H 6.4290945 4.3056194 0.2484166
H 5.4391018 3.2901005 0.8247835
O 1.6280005 1.9530005 19.1370054
H 1.3400004 1.3040004 18.5300052
H 0.9000003 2.6290007 18.8830053
O -15.1260042 -4.4050012 -7.2470020
H -15.9240045 -3.7480010 -7.2500020
H -15.1430042 -4.8930014 -6.3530018
O 5.6300016 -8.5420024 -6.2630018
H 5.3050015 -7.8600022 -6.8680019
H 4.9570014 -9.2040026 -6.3070018
O 2.2065553 -4.8566071 12.7230394
H 2.1482061 -5.2891278 11.8465862
H 2.9842389 -4.2853841 12.5644045
O 4.2393237 11.2145086 -6.5236849
H 3.7384014 11.1267309 -7.3567770
H 5.1002304 10.8668044 -6.8138079
O -16.1750045 3.9660011 5.9950017
H -15.8320044 3.1400009 6.2200017
H -17.1540048 4.0380011 6.0730017
O -0.6140002 -13.8930039 -11.4460032
H -0.2170001 -14.2860040 -10.6680030
H -1.0360003 -14.7140041 -11.7060033
O -0.6770002 -18.7140052 6.2110017
H 0.1540000 -18.4190052 6.4800018
H -0.8660002 -18.2750051 5.3740015
O 4.8350014 -0.9180003 -13.6690038
H 5.0680014 -0.9600003 -12.7890036
H 5.3490015 -0.1410000 -14.0230039
O -0.9987691 1.3311382 4.8959986
H -0.0150030 1.2287877 4.9106522
H -1.0866719 2.0360830 4.2230110
O 3.4610010 19.3370054 2.4380007
H 2.9510008 18.9450053 1.6390005
H 4.3590012 18.9500053 2.3870007
O -14.2500040 -1.4810004 -6.4920018
H -14.9420042 -0.9020003 -6.8740019
H -13.9180039 -2.0430006 -7.2300020
O -11.4710032 12.6340035 -4.9380014
H -10.9130031 13.2590037 -5.3840015
H -11.4940032 11.9060033 -5.5980016
O 5.5939323 -2.5935178 -2.2003220
H 6.0029953 -3.1472437 -2.9031809
H 6.3915857 -2.1582339 -1.8411799
O 4.3870645 -3.2848124 11.6540429
H 3.8384432 -2.5967248 11.2235459
H 5.2217947 -3.1710754 11.1609576
O 2.9740008 16.3710046 -8.1520023
H 2.1730006 16.9750048 -8.3040023
H 3.5980010 17.0310048 -8.5090024
O -0.5720002 -16.6810047 1.4560004
H 0.3030001 -17.1390048 1.4520004
H -1.0050003 -17.1690048 0.7060002
O -5.3895669 0.1005933 0.6271309
H -5.5910865 -0.8417146 0.8147104
H -5.0857882 0.4211688 1.5038979
O 13.6800038 1.4760004 2.9460008
H 14.5200041 1.3490004 3.3760009
H 13.1030037 1.6930005 3.7180010
O -14.9700042 1.3950004 -7.9430022
H -15.5410043 1.8840005 -8.5920024
H -15.4350043 1.5840004 -7.1340020
O 1.1780003 -14.3580040 -4.9820014
H 1.9080005 -13.8760039 -4.5220013
H 1.6190005 -15.2060043 -5.0350014
O 4.6569115 1.6153576 -5.8330784
H 4.5908258 2.2126367 -5.0614808
H 3.9600715 0.9687771 -5.5914146
O -2.8250008 2.6630007 13.0670037
H -3.5140010 2.4270007 13.7290038
H -3.3230009 3.3510009 12.6010035
O -6.0430017 -1.3960004 -14.1140040
H -6.0240017 -1.3880004 -13.1380037
H -5.8450016 -0.4420001 -14.3150040
O -10.1370028 0.5840002 10.0780028
H -10.8720030 0.0570000 9.6680027
H -10.5720030 1.4480004 9.9420028
O 12.6370035 0.8320002 -13.5610038
H 12.3670035 1.6860005 -13.1910037
H 12.8850036 0.2780001 -12.7700036
O 8.8593214 -0.4711891 5.4068875
H 8.1262856 -0.2247178 6.0181013
H 9.0492786 0.3859007 4.9707475
O 1.8152658 -1.6082526 -11.7142433
H 1.7163143 -1.9631177 -12.6236765
H 2.6336272 -2.0586151 -11.4120078
O -1.8168233 -1.7133995 8.3919504
H -1.9899067 -2.6197095 8.0431824
H -0.8425007 -1.6828851 8.3499150
O -3.9920011 15.1030042 8.9760025
H -4.8330014 14.6470041 8.8050025
H -3.4640010 14.2790040 9.0930025
O 16.2790046 0.5810002 4.1550012
H 16.8490047 -0.1870001 4.0630011
H 16.7780047 1.2380003 3.6600010
O -12.2330034 5.8710016 -12.3480035
H -11.6360033 5.0890014 -12.3900035
H -12.0540034 6.3000018 -11.5180032
O -14.6460041 10.6040030 4.3230012
H -15.2150043 10.8920030 3.5380010
H -14.9710042 11.1730031 5.0250014
O 3.4240010 -12.8380036 -13.2910037
H 3.8360011 -11.9680033 -13.5290038
H 3.1520009 -12.6540035 -12.3640035
O 1.1700003 -16.1410045 6.3610018
H 0.3060001 -15.7400044 6.0950017
H 0.8410002 -16.5740046 7.2200020
O 3.2751808 2.9635001 -12.7291223
H 2.8208255 2.2336593 -12.2548722
H 4.1906063 2.7968989 -12.4337379
O 1.2399586 4.9919415 5.0896604
H 1.1642137 5.1990303 4.1403306
H 0.3265670 5.1965275 5.3823717
O 18.9190053 1.3450004 2.7960008
H 18.5880052 0.5060001 3.1380009
H 19.4080054 1.1390003 2.0280006
O -11.2510031 -1.8240005 -7.0430020
H -11.5870032 -2.5470007 -7.6080021
H -11.3390032 -0.9440003 -7.5190021
O -11.9940034 -3.2150009 12.6320035
H -11.6630033 -3.6260010 13.5390038
H -12.6100035 -2.5090007 12.9330036
O -9.5260027 14.5750041 -5.4300015
H -9.3330026 15.3360043 -4.8460014
H -9.2890026 15.1210042 -6.2060017
O 10.0230028 -2.4520007 -7.5720021
H 10.2910029 -3.0280008 -8.3040023
H 10.5580030 -1.6290005 -7.7030022
O 7.6630021 -0.7490002 11.8860033
H 7.4320021 -1.3310004 11.1830031
H 6.7700019 -0.6330002 12.3780035
O -8.6940024 -0.9460003 -13.0360036
H -8.5800024 -1.7190005 -13.6520038
H -9.5110027 -0.5070001 -13.4220038
O -9.3031702 5.5961793 8.8262583
H -9.9532792 4.8606617 8.8646534
H -9.4998167 5.9664696 7.9476981
O 9.9750028 -15.7950044 3.2190009
H 9.5520027 -16.6400047 3.0560009
H 9.3040026 -15.2240043 2.8940008
O 10.1600028 1.6750005 -11.6550033
H 9.2650026 2.0010006 -11.9770034
H 10.2650029 0.7650002 -12.1790034
O 9.1509823 7.0578458 2.9552699
H 8.6637430 7.2246426 2.1210792
H 10.0473508 6.8525328 2.6182663
O -12.3840035 -12.3370035 -3.5350010
H -12.0670034 -12.9850036 -2.9040008
H -13.3080037 -12.8110036 -3.4830010
O -9.2699127 5.5054405 -6.1743484
H -9.1755244 4.5467148 -5.9776093
H -8.7597218 5.5762619 -7.0088844
O -13.9110039 3.9780011 12.1700034
H -13.8440039 3.3780009 12.9340036
H -14.8240041 4.2540012 12.1490034
O 8.0550023 -15.4260043 -5.0740014
H 7.2670020 -15.1690042 -4.5250013
H 7.6290021 -15.5270043 -5.9350017
O 8.3549735 7.1222649 -4.4857434
H 8.8532851 6.4899394 -3.9200739
H 8.0938087 6.5255011 -5.2138219
O 7.3280021 5.6620016 13.3570037
H 8.1830023 5.7730016 12.8460036
H 7.4210021 4.7990013 13.8110039
O -15.2290043 -12.5620035 2.1650006
H -14.3700040 -12.8650036 2.5610007
H -15.5400043 -11.8540033 2.7220008
O -12.3817926 0.3457398 1.7117016
H -13.2581199 0.4343257 2.1422820
H -12.3860380 -0.5993849 1.4589108
O 6.1580017 -17.4430049 0.7700002
H 6.0520017 -16.9440047 -0.0270000
H 5.7690016 -18.2550051 0.5710002
O 5.6009620 -0.7981995 0.8446657
H 4.9999141 -1.5483257 0.6689949
H 6.3108878 -0.9696255 0.1982679
O -3.5310010 2.3260007 18.9870053
H -3.5340010 1.7450005 18.1130051
H -4.4610012 2.1330006 19.1840054
O -18.0120050 4.9980014 -0.8700002
H -17.1890048 4.9210014 -1.4510004
H -17.8310050 5.9040017 -0.4810001
O -0.7020002 -15.9480045 -3.4170010
H -0.3280001 -15.2040043 -3.8870011
H -1.0260003 -16.4980046 -4.1420012
O -0.6510002 5.7120016 -17.9450050
H -0.8290002 6.1470017 -17.0860048
H -1.5210004 5.8240016 -18.2750051
O 0.6629800 5.9606764 -1.7148271
H 0.0152108 5.6203927 -1.0597554
H 0.1447687 6.6941187 -2.1112523
O -0.9320003 3.1660009 18.5590052
H -1.1990003 3.7740011 17.8970050
H -1.7000005 2.6190007 18.6220052
O 14.4080040 2.2360006 -2.3870007
H 14.4040040 1.3890004 -1.8580005
H 13.7480038 2.8710008 -2.0000006
O 12.0960034 4.2730012 14.1200040
H 12.8830036 4.8190013 14.2540040
H 11.3160032 4.7170013 14.5650041
O -4.5235329 3.3202167 -8.1912743
H -4.1483741 2.9920180 -7.3418606
H -4.4513533 2.4648142 -8.6819593
O -6.1110017 0.7540002 12.7640036
H -6.7210019 1.5580004 12.7370036
H -5.4660015 0.9900003 13.4390038
O 12.1580034 -0.5230001 -8.3250023
H 12.7650036 0.0570000 -7.7830022
H 11.6440033 0.2290001 -8.6380024
O 9.9930028 0.5320001 9.6150027
H 9.0020025 0.5370002 9.5700027
H 10.1960029 1.1810003 10.3220029
O -3.5270010 -15.4840043 -4.3260012
H -4.4260012 -15.0780042 -4.2400012
H -3.0370008 -14.7480041 -4.6760013
O -1.6489679 2.2118098 -0.1293009
H -2.2869061 1.7071773 -0.6665425
H -1.5029883 1.5705810 0.5916371
O 0.5330001 2.1110006 15.0860042
H 1.1340003 2.0040006 14.3240040
H -0.1240000 2.7900008 14.7510041
O 16.0470045 2.8360008 -4.6070013
H 15.4890043 2.6630007 -3.7780011
H 16.0120045 1.8850005 -5.0290014
O -17.1730048 8.2340023 4.0720011
H -17.0830048 8.2160023 5.0830014
H -16.6610047 7.4640021 3.9020011
O 0.1730000 -10.6150030 -13.2690037
H 0.8270002 -10.0750028 -12.8660036
H -0.5750002 -10.5040029 -12.5230035
O -0.5789842 -11.3447709 5.7835873
H -0.0952809 -11.8396988 5.0991917
H -0.4918579 -11.9561581 6.5384800
O 0.2529752 6.2152311 -13.3010907
H 1.1657661 5.9200420 -13.0993105
H 0.3672060 7.1913304 -13.2921259
O -2.4300873 7.8765332 4.8184930
H -2.4512803 8.7120245 5.3240445
H -1.8236034 8.0931132 4.0805174
O -2.6001514 -10.6730624 -2.4002397
H -3.2532926 -10.6234243 -1.6646370
H -1.9118727 -10.0705239 -2.0471050
O -8.3480023 -9.0120025 13.4690038
H -8.0380022 -9.9170028 13.6630038
H -8.3550023 -8.8790025 12.4720035
O -0.6284570 7.9381140 -3.0819516
H -0.5054311 7.8493143 -4.0533955
H -1.5895621 8.1213378 -3.0363989
O -2.7680008 8.6140024 13.8640039
H -2.3270007 8.3740023 14.6720041
H -2.1430006 9.2530026 13.5890038
O 11.7250033 -9.1760026 -6.4400018
H 11.4530032 -9.0900025 -5.4770015
H 12.0870034 -10.1140028 -6.3890018
O 16.7530047 7.9590022 -3.4810010
H 17.1170048 7.0770020 -3.1870009
H 15.7900044 7.6120021 -3.3390009
O 9.5980027 4.9270014 15.4950043
H 8.6650024 4.7290013 15.3320043
H 9.5500027 5.0250014 16.4620046
O -13.9880039 5.6310016 1.9490005
H -13.7670039 6.0490017 1.0430003
H -14.2560040 4.7650013 1.7790005
O 3.8260011 -13.9840039 3.3100009
H 4.3010012 -14.4810041 2.6340007
H 3.5660010 -14.7580041 3.8680011
O 1.9910006 4.0360011 -15.0200042
H 2.3340007 3.6180010 -14.2200040
H 2.5240007 4.8580014 -15.0180042
O -1.2327357 3.6807071 3.4001965
H -0.4938075 4.1227233 2.9465745
H -1.3285138 4.2592810 4.1885747
O -13.6280038 3.8050011 -5.6880016
H -13.0410036 3.5950010 -6.4430018
H -14.5150041 3.6620010 -6.1430017
O -15.7790044 2.1920006 9.2170026
H -16.3500046 2.5960007 9.9080028
H -16.4730046 1.8460005 8.5420024
O 4.6620013 -15.8140044 -5.9060017
H 3.9260011 -16.3930046 -5.6440016
H 4.6700013 -15.0780042 -5.2240015
O 4.8160013 -13.5550038 8.1700023
H 5.1050014 -12.8590036 7.5570021
H 3.9010011 -13.1700037 8.3720023
O 5.4070776 3.6382330 -7.5372050
H 4.6850148 3.3678143 -8.1391832
H 5.2889254 2.9495498 -6.8522393
O 3.8502917 2.9604991 9.2696923
H 4.5930122 3.5792439 9.1246181
H 3.1890066 3.3016733 8.6303596
O -9.9100028 8.3690023 -11.7480033
H -10.5100029 8.8210025 -12.2890034
H -9.0760025 8.8580025 -11.9710034
O -12.4860035 10.9560031 2.8690008
H -12.6410035 10.3110029 2.1880006
H -13.2630037 10.9860031 3.4070010
O 1.4772698 -12.6256190 4.3454573
H 1.9167156 -11.8971564 4.8338201
H 2.2498988 -13.1404644 4.0483049
O 2.7966987 5.6351025 -12.3362038
H 3.7607904 5.8376974 -12.3808381
H 2.8738609 4.6598310 -12.4014726
O 4.0925865 9.4906180 4.8476411
H 4.6032449 9.4063337 5.6815142
H 3.1880961 9.3933367 5.2120722
O -8.5900024 -13.7090038 -4.1450012
H -8.7930025 -14.4100040 -3.4720010
H -8.8920025 -12.9170036 -3.7590011
O -8.5070024 9.3220026 -5.3120015
H -8.4910024 8.4690024 -4.8180013
H -7.5590021 9.3650026 -5.5630016
O -11.2390031 11.4530032 8.5570024
H -10.3610029 11.3530032 8.7840025
H -11.6200033 11.4490032 9.4080026
O 8.3870023 -13.8100039 -8.8040025
H 8.3470023 -13.3350037 -7.9140022
H 7.4170021 -13.9130039 -8.8390025
O 5.7640016 -7.7810022 13.9260039
H 6.3880018 -8.0210022 13.2950037
H 6.0700017 -6.8940019 14.2700040
O 9.9460028 7.9440022 -8.0430023
H 10.4100029 8.2360023 -8.7970025
H 9.6950027 8.7650025 -7.5970021
O 7.5950021 9.5270027 11.4730032
H 8.4920024 9.1400026 11.2070031
H 7.0330020 8.8480025 11.0970031
O -5.1326184 -4.7302824 -12.1011484
H -6.0524999 -4.3992249 -12.1712028
H -4.9986791 -4.7053388 -11.1292694
O -6.1925449 -7.1054696 6.6398620
H -6.0417024 -7.6391406 7.4409699
H -6.7963878 -7.7270333 6.1783020
O -0.8640002 11.3890032 -11.3040032
H -0.6370002 12.1010034 -10.7090030
H -0.7510002 10.5740030 -10.7490030
O -3.8320011 13.5570038 6.6310019
H -3.3480009 13.4620038 5.7560016
H -3.4510010 14.4090040 6.9800020
O 11.5400032 -3.7070010 -12.6990036
H 10.6040030 -3.9610011 -12.9290036
H 11.8450033 -4.5940013 -12.5620035
O 11.5890032 -6.0850017 7.1840020
H 11.2780032 -6.8000019 6.6080018
H 12.5230035 -6.4300018 7.4250021
O 8.2550023 9.9150028 -13.4280038
H 8.4780024 10.5770030 -14.1100039
H 7.8210022 10.4450029 -12.7210036
O -11.2920032 -13.7810039 -1.4470004
H -10.7430030 -13.9600039 -0.6600002
H -10.9410031 -14.5080041 -2.0360006
O -10.8528452 4.2301798 -3.2313335
H -10.1003980 3.7071401 -2.8752387
H -11.5284059 3.5378853 -3.3558092
O 3.7790011 -16.0220045 -2.8370008
H 4.4970013 -16.6150047 -2.7730008
H 3.2210009 -16.4950046 -3.5420010
O 4.4920013 -13.5820038 12.4550035
H 4.6770013 -14.5510041 12.4000035
H 5.3490015 -13.1360037 12.2210034
O 7.8055643 0.5222088 -4.8306430
H 7.1849366 0.9173656 -4.1832796
H 8.1009999 1.3333272 -5.2970318
O 2.8442035 -1.3782473 10.3376663
H 2.2822637 -1.7532767 9.6378368
H 2.1993760 -0.7772423 10.7720802
O -6.0810017 -11.3940032 -14.3630040
H -5.6080016 -12.1820034 -14.0670039
H -6.1250017 -10.8960030 -13.5330038
O -5.9500017 -12.5750035 2.4990007
H -5.1240014 -12.4470035 2.9780008
H -5.6210016 -12.7070036 1.6270005
O -6.0934682 5.8156047 -12.4644294
H -5.7665164 5.2025346 -11.7723177
H -6.2229698 5.1528994 -13.1703996
O -8.1253384 7.9720242 2.2151663
H -8.0878093 8.2274931 1.2676633
H -8.8392786 8.5801337 2.5259456
O 10.0330028 -9.8010027 2.7220008
H 10.5860030 -10.4510029 3.2050009
H 10.7630030 -9.3260026 2.2040006
O 12.3600035 8.6370024 2.1880006
H 13.0810037 8.3910023 2.7880008
H 12.3030034 7.7080022 1.8180005
O -14.6590041 5.0770014 -9.7970027
H -15.0810042 5.3540015 -10.6530030
H -14.3980040 4.1800012 -10.1200028
O -3.3740009 -13.1960037 7.5540021
H -3.8080011 -12.3560035 7.7590022
H -4.0980011 -13.7130038 7.1560020
O -0.0919141 1.4589637 -9.7784237
H 0.2745478 1.1816446 -8.9169440
H -0.2061749 2.4270085 -9.6611359
O 0.0717772 7.7239143 6.9802924
H 0.2828417 6.9565879 7.5378450
H -0.8027146 7.9448136 7.3736678
O -3.1600009 -15.7620044 -7.2070020
H -2.7870008 -16.6180047 -7.5130021
H -3.5760010 -16.1660045 -6.4320018
O -2.6140007 -15.4080043 9.1790026
H -2.6600007 -15.0780042 10.0460028
H -2.6750007 -14.5120041 8.7740025
O 1.2789867 5.2500953 -6.0603945
H 0.9847232 4.3569308 -5.8304497
H 1.6410513 5.0866442 -6.9602903
O -2.1370006 4.3900012 15.9180045
H -3.0390009 4.1240012 15.6300044
H -1.9080005 5.0710014 15.2760043
O 16.2560045 5.2620015 -5.6980016
H 15.7270044 4.6150013 -5.1550014
H 17.0300048 4.6200013 -5.8070016
O 15.3040043 5.2850015 9.3830026
H 15.9800045 4.6950013 8.9500025
H 14.9580042 4.5410013 9.8260028
O -5.2650015 -17.5070049 -6.0490017
H -5.9320017 -17.0750048 -6.5540018
H -5.6990016 -17.3060048 -5.1950015
O -5.4070389 0.4751726 -5.8419857
H -5.7709481 0.5143486 -4.9300096
H -4.7686695 1.2162974 -5.8350945
O -7.7280022 2.7990008 13.5460038
H -8.6610024 3.0640009 13.6810038
H -7.3980021 2.6710007 14.4500040
O 13.2130037 1.2870004 -6.6200019
H 12.7800036 0.7990002 -5.8370016
H 12.9760036 2.1930006 -6.3990018
O 9.2330026 1.6670005 12.3760035
H 8.8520025 0.9170003 12.0270034
H 8.4260024 2.2380006 12.3440035
O 3.7362729 -6.3073448 -11.8324949
H 4.3808981 -5.5769256 -11.7611944
H 3.1073564 -6.1419672 -11.1033344
O 0.8128698 -5.1380942 1.3082310
H -0.1041564 -5.4002155 1.5227214
H 0.7642156 -5.0773232 0.3323219
O 3.4850010 12.0140034 3.8290011
H 2.5430007 12.2110034 3.9410011
H 3.5940010 11.0880031 4.1260012
O 18.4580052 -5.9760017 4.1250012
H 17.7280050 -6.4310018 4.5680013
H 18.0960051 -6.0240017 3.2450009
O -12.6760035 -6.2990018 -4.8780014
H -12.6070035 -5.3350015 -4.6060013
H -13.5020038 -6.4650018 -4.4100012
O 2.4238060 -4.1385725 -2.9731997
H 3.1987960 -4.4975264 -2.4820671
H 1.7185172 -4.2245736 -2.2985162
O 0.7920002 -5.0050014 15.0740042
H 1.2700004 -4.8510014 14.2040040
H 0.8580002 -5.9960017 15.0940042
O 5.1870215 10.7887594 -2.2525940
H 5.7586613 10.7303359 -1.4593877
H 5.6917220 10.2459512 -2.8920541
O 3.1070009 13.0990037 13.7850039
H 3.8380011 13.0890037 14.3960040
H 2.9160008 14.0590039 13.8710039
O -16.2080045 3.6790010 -6.5310018
H -16.6130046 3.6240010 -7.4440021
H -16.9370047 3.7800011 -5.9110017
O 0.1947858 -11.3183507 -4.2269234
H -0.5513120 -11.9129851 -4.4133234
H -0.2049863 -10.4350696 -4.3377966
O -2.7420008 -13.7770039 11.6760033
H -3.0430009 -13.6220038 12.5290035
H -1.7960005 -13.7920039 11.8560033
O 4.1683315 7.9114346 -4.4488879
H 3.6335941 7.1699620 -4.0864184
H 3.5186780 8.6467211 -4.4450668
O 0.2834125 5.8551563 9.0623359
H -0.4571200 5.2119056 9.1509464
H 0.1049255 6.4297773 9.8408212
O -16.8740047 -2.8900008 -3.5400010
H -16.6110046 -2.9760008 -4.5020013
H -17.4800049 -2.0970006 -3.5510010
O 0.4561455 -3.0096452 -6.9929296
H 0.7080514 -2.6040632 -7.8567415
H 1.2640277 -2.8045460 -6.4666388
O -2.3080006 -3.1550009 15.2930043
H -2.0230006 -2.2570006 15.2470043
H -1.4340004 -3.6290010 15.1480042
O -2.0230006 14.2850040 -6.1270017
H -2.0460006 15.2990043 -6.3200018
H -2.6740007 14.1120039 -5.3880015
O 18.1760051 -4.0540011 -5.0550014
H 17.4960049 -3.4180010 -4.8300014
H 18.0030050 -4.6610013 -4.3130012
O 13.4520038 0.2040001 11.4890032
H 12.9010036 1.0440003 11.6310033
H 12.8100036 -0.4630001 11.7050033
O -17.1540048 0.6530002 1.0540003
H -17.2540048 1.5760004 1.4240004
H -16.2150045 0.7060002 0.8970003
O 1.5420004 -2.7040008 -14.2210040
H 1.9070005 -2.2090006 -15.0060042
H 1.8390005 -3.5890010 -14.5070041
O -3.6132177 -0.1865554 6.9621777
H -3.1211944 -0.7229851 7.6178275
H -3.2541496 0.7049619 7.1624893
O 4.9720014 15.3230043 2.2750006
H 4.0290011 15.3380043 2.3560007
H 5.2340015 15.6800044 3.1440009
O 18.3110051 -3.2280009 5.1360014
H 18.0690051 -3.5260010 6.0690017
H 18.3200051 -4.1730012 4.8750014
O -16.2400045 -5.6370016 -4.1580012
H -15.7280044 -5.9630017 -3.3530009
H -16.7990047 -4.9410014 -3.8100011
O 1.5185850 -6.2567477 -4.4507743
H 1.9667618 -5.5689334 -3.9160803
H 0.6625303 -5.8041359 -4.6043306
O -0.5350001 -9.1820026 15.0460042
H 0.3530001 -9.3950026 15.4680043
H -0.1380000 -8.9430025 14.2170040
O 2.9800008 15.1970043 -3.4600010
H 3.1060009 14.3820040 -2.8840008
H 3.0610009 14.9090042 -4.2870012
O 1.6400005 14.0600039 11.1830031
H 2.4950007 14.1170040 11.5510032
H 1.2960004 13.1410037 11.1990031
O -2.1020006 -12.9230036 -3.8630011
H -2.0650006 -13.4840038 -3.0990009
H -2.1480006 -12.0500034 -3.4750010
O -4.3040012 -11.8100033 10.5040029
H -3.6470010 -11.2450031 10.0890028
H -3.6390010 -12.5580035 10.6190030
O 2.5959466 5.8196168 -3.7038817
H 2.0721672 5.6938796 -4.5234901
H 1.8946238 5.9104124 -3.0256165
O -5.2940015 10.1460028 13.0180036
H -4.6740013 9.5180027 13.4160038
H -6.2090017 10.0860028 13.4690038
O 11.7260033 5.5120015 10.2270029
H 12.2020034 5.9080017 9.4500026
H 11.7310033 4.5950013 9.8980028
O -3.6989616 -7.1015147 -4.2188479
H -4.5482824 -7.5549103 -4.0248174
H -4.0417355 -6.1793474 -4.2526949
O -3.6790010 -6.0560017 13.9640039
H -3.9410011 -5.7930016 14.8810042
H -2.7110008 -5.9930017 14.0530039
O -0.1924683 7.5743005 -5.7457990
H 0.4263454 6.8444217 -5.9657022
H 0.1012668 8.2761267 -6.3682616
O -1.5200004 12.7580036 11.8640033
H -1.6410005 12.2990034 12.7080036
H -1.8440005 13.6610038 12.1180034
O 15.3740043 -3.7410010 -7.0980020
H 16.1390045 -3.2840009 -7.4550021
H 15.5010043 -3.8020011 -6.1710017
O 11.6910033 -7.0420020 14.1090039
H 11.4510032 -6.3050018 13.5100038
H 11.2680032 -6.7480019 14.9610042
O -10.1200028 -5.7340016 -12.8480036
H -10.8760030 -5.1350014 -12.9340036
H -10.6630030 -6.4300018 -12.4240035
O -13.4110038 -5.8020016 4.1060011
H -13.7420038 -4.8980014 4.2450012
H -12.5770035 -5.6210016 3.6180010
O 7.7370022 -7.9650022 -15.3460043
H 7.8530022 -7.4420021 -14.5070041
H 7.8470022 -7.3720021 -16.0660045
O 3.7005503 -6.9411807 5.9838961
H 2.9319016 -6.3915544 6.2283874
H 4.1023023 -6.3960376 5.2838216
O 8.6640024 13.8340039 4.8770014
H 8.8590025 12.9460036 5.1340014
H 7.6770021 13.7700039 4.8180013
O -12.4774856 -2.1895535 0.5263915
H -12.9380413 -1.8040088 -0.2516683
H -11.6818160 -2.5540771 0.0930306
O 5.2710015 -0.6120002 -17.1120048
H 6.1820017 -0.9200003 -17.2510048
H 5.1890015 0.0900000 -17.8420050
O 4.8050895 -5.3801189 3.9154306
H 4.4634878 -4.4738524 3.7551182
H 4.3043973 -5.8471076 3.2018913
O 0.8620002 0.0750000 17.2950048
H 0.5690002 0.4880001 16.4330046
H 1.7950005 -0.2040001 17.1350048
O -6.2560018 -15.0960042 -5.1210014
H -6.7670019 -15.4110043 -5.8610016
H -6.8550019 -14.4200040 -4.7160013
O -6.8160019 -12.6300035 9.4980027
H -6.5340018 -13.5350038 9.2440026
H -5.9580017 -12.3000034 9.7500027
O -3.3158565 2.2945858 -6.0516352
H -2.8215764 2.9514075 -5.5230886
H -2.6156940 1.6958419 -6.3923962
O -3.7500010 5.8580016 14.4070040
H -3.9570011 6.6620019 13.9740039
H -4.2100012 5.9780017 15.2290043
O 13.6450038 5.9820017 -6.8240019
H 13.9170039 6.9330019 -6.9800020
H 14.5010041 5.7200016 -6.4580018
O 12.6590035 5.5020015 7.6250021
H 13.5260038 5.1100014 7.5490021
H 12.0090034 4.7590013 7.4360021
O -6.8654019 -3.1471277 -7.2212933
H -7.0420465 -2.1924395 -7.1221641
H -6.9931784 -3.2458644 -8.1838371
O -7.9682100 -1.1092332 9.4085409
H -8.3603529 -0.2155181 9.4227761
H -8.7311051 -1.5878964 9.8039737
O -4.6130013 15.3070043 -8.2400023
H -4.7760013 14.3420040 -8.1250023
H -4.8820014 15.6310044 -7.4000021
O 12.9740036 -3.2220009 -8.6030024
H 12.9720036 -2.3080006 -8.3350023
H 13.8640039 -3.5180010 -8.2260023
O 11.4550032 -1.6760005 8.9320025
H 10.8350030 -0.8840002 9.0730025
H 11.0630031 -2.2210006 8.1780023
O -8.5140024 -6.7220019 -14.7730041
H -7.6530021 -6.2660018 -14.4690040
H -9.1510026 -6.3090018 -14.0810039
O -11.4000032 -11.5590032 1.9900006
H -11.3070032 -10.5920030 2.2300006
H -12.0930034 -11.7870033 2.5660007
O -8.9450025 7.4990021 -14.4200040
H -9.4030026 7.9110022 -13.6710038
H -7.9730022 7.6060021 -14.2640040
O -10.6100489 6.0201882 1.1412371
H -11.1395458 5.3824475 0.6139231
H -10.8511553 6.8722833 0.7204191
O 5.6270016 -13.4880038 1.3180004
H 4.8150013 -13.6820038 0.7740002
H 5.6480016 -12.4950035 1.3490004
O 9.6824874 5.4165877 -2.8200012
H 10.4885292 5.8912899 -2.5298466
H 10.0493473 4.5204863 -2.9830843
O 4.7860013 8.3970024 15.4090043
H 4.4380012 8.9900025 16.0940045
H 5.7840016 8.4870024 15.5570044
O -6.6425893 -9.1119763 -0.8765865
H -7.3087193 -9.7586872 -1.1927092
H -5.8664451 -9.6970603 -0.7910209
O -5.7368175 7.4596617 -1.2917437
H -6.5272464 7.8958097 -0.9206885
H -6.1688326 6.6743288 -1.6797936
O 14.0010039 -7.6470021 0.2760001
H 14.4100040 -8.0470023 1.0370003
H 13.1430037 -8.0550023 0.2510001
O 13.6640038 13.8370039 -2.1020006
H 13.0480037 13.2360037 -2.5640007
H 13.0090036 14.0550039 -1.4090004
O -7.4650021 -14.6890041 0.0900000
H -7.3240020 -13.9910039 -0.5440002
H -6.4870018 -14.9990042 0.0700000
O -8.1192618 6.9079376 -4.0694495
H -8.5511786 6.2748903 -4.6779323
H -8.0506480 6.3770883 -3.2421637
O -6.5420018 3.4810010 16.1020045
H -7.1540020 3.3990010 16.8760047
H -6.4290018 4.4420012 15.9940045
O 11.4930032 -11.3860032 -4.7570013
H 11.2430031 -11.2030031 -3.8610011
H 10.8170030 -12.0570034 -4.9050014
O 11.2288712 3.1630243 -5.6639931
H 11.2128581 3.1154154 -4.6856908
H 11.2141636 4.1334757 -5.8146857
O 4.5840013 7.1010020 12.3450035
H 4.6050013 6.4410018 11.6120032
H 5.4470015 6.9570019 12.7390036
O -7.1920020 -10.0870028 -7.5660021
H -6.5600018 -9.4480026 -8.0450023
H -7.8090022 -10.3560029 -8.3390023
O -8.8400025 -10.4340029 9.5220027
H -9.4960027 -11.1360031 9.7950027
H -7.9720022 -10.8180030 9.7900027
O -7.5852866 6.0462144 -8.3256087
H -7.4458686 7.0086062 -8.4470337
H -7.8302412 5.7881605 -9.2397089
O -6.8642923 8.8035324 7.9447975
H -7.2116259 9.6194994 8.3703774
H -6.3258306 9.1966805 7.2271378
O 8.3069329 -7.0373395 7.3074862
H 9.0408141 -7.3290164 6.7385745
H 7.5801913 -7.1005206 6.6434442
O 11.7040033 8.1810023 -11.4610032
H 11.6700033 7.2600020 -11.1870031
H 12.0390034 8.6080024 -10.7040030
O 9.7120027 8.7640025 10.2080029
H 9.8920028 8.2150023 9.3680026
H 10.6330030 8.7280024 10.5970030
O -5.4270015 -13.9120039 -9.0610025
H -5.0970014 -14.4470040 -8.3220023
H -4.6260013 -14.0350039 -9.5650027
O -4.6700391 -10.8160233 6.8353221
H -4.0400123 -10.1112373 7.0841709
H -5.5015762 -10.4832746 7.2069995
O -2.6080117 5.2804922 -8.5659390
H -2.6151184 5.6854203 -7.6757768
H -3.3162360 4.6146414 -8.4960836
O -2.6400183 6.8946415 10.9046394
H -3.4391346 7.4415761 11.0472033
H -3.0231132 5.9990245 10.9742847
O 14.1850040 7.9000022 9.8470028
H 14.4640040 6.9670019 9.9260028
H 14.4370040 8.1330023 8.9400025
O -16.3750046 7.3470021 6.8350019
H -15.9250045 6.4780018 7.0370020
H -15.7180044 7.9680022 7.1240020
O 0.1410000 -13.2470037 -7.0790020
H 0.4840001 -13.6840038 -6.2700018
H 0.4700001 -12.3290035 -6.8340019
O -0.2680001 -13.1780037 7.7790022
H -0.7530002 -13.8480039 7.2530020
H 0.0530000 -13.7540038 8.5020024
O 1.6257965 7.5802186 -10.7809094
H 1.9926057 6.8001886 -11.2530582
H 1.9884113 8.2944167 -11.3521337
O 1.6113889 9.6931016 6.0140038
H 1.0819864 8.9147371 6.3231481
H 1.5529589 10.2595880 6.7946393
O 15.6070044 6.0500017 5.7300016
H 15.4580043 5.0880014 5.7680016
H 16.3620046 6.1260017 6.3180018
O -15.2710043 5.1690014 8.7660025
H -16.2210045 5.3430015 8.8880025
H -15.2500043 4.2520012 8.6470024
O 0.9770003 -14.6990041 -9.2740026
H 0.7320002 -14.3090040 -8.4130024
H 0.8380002 -15.6540044 -9.0990025
O 0.9520003 -14.4110040 10.0040028
H 0.7140002 -14.3190040 10.9110031
H 1.6930005 -13.8380039 10.0620028
O 2.8896930 7.1283308 -8.3903670
H 2.7131267 6.1665470 -8.4211593
H 2.4352113 7.3908749 -9.2167659
O 2.6261489 7.3490025 9.2050793
H 1.8162909 6.8077558 9.1690359
H 2.4522940 7.8781427 10.0038974
O -12.4230035 9.9530028 -8.0140022
H -13.2360037 9.5120027 -7.6680021
H -12.2080034 9.4620026 -8.8100025
O -11.7250033 7.6260021 8.3140023
H -11.2190031 7.4390021 7.4490021
H -11.5950032 6.7870019 8.8390025
O 5.8370016 -15.0540042 -9.3020026
H 4.9440014 -15.4680043 -9.4010026
H 6.3730018 -15.3650043 -10.0810028
O 2.5150007 -12.3870035 8.5100024
H 2.4110007 -11.5200032 8.9900025
H 1.8460005 -12.4430035 7.8090022
O 7.2232117 5.4348253 -6.5092936
H 6.6238465 4.7131433 -6.7999198
H 6.5999356 6.1830093 -6.6515125
O 2.6102260 3.0662964 11.8542532
H 2.7373001 2.9768740 10.8909445
H 1.6516449 3.2613700 11.9190117
O -7.6296855 2.6561176 -9.5722883
H -7.7196562 1.7062176 -9.7957010
H -7.9795620 2.6765740 -8.6765948
O -10.3430029 3.0870009 13.9330039
H -10.4670029 2.1570006 13.6770038
H -11.0110031 3.5800010 13.4700038
O 8.5340024 -14.0870039 11.1190031
H 9.3920026 -13.9460039 10.7030030
H 7.9600022 -13.9680039 10.3170029
O 13.4720038 2.4850007 -9.8160027
H 13.1860037 2.2640006 -10.6770030
H 12.6050035 2.3540007 -9.3570026
O 10.9130031 3.4250010 7.7140022
H 11.1500031 2.4940007 7.6930022
H 9.9600028 3.4030010 7.5120021
O -5.9470017 -15.3160043 9.2960026
H -5.5590016 -15.7310044 10.0780028
H -6.0090017 -16.0230045 8.7190024
O -3.7838770 0.9161750 -9.1386203
H -3.3470938 0.6590757 -9.9746323
H -3.0828608 0.7006147 -8.4965208
O -4.1678423 4.5576985 10.7147208
H -4.9609203 4.8154430 11.2440887
H -4.3650213 3.5933128 10.6086414
O 15.9570045 3.8590011 -9.0000025
H 15.0670042 3.3780009 -9.0380025
H 16.3160046 3.4720010 -9.8530028
O 12.9490036 1.0800003 8.3090023
H 13.3990037 0.8770002 7.4410021
H 12.4590035 0.2190001 8.4820024
O -3.3336884 -1.8937598 -11.9192708
H -2.8208781 -1.0557411 -11.8468410
H -3.1702717 -2.1473742 -12.8471951
O -1.6781210 3.9167279 9.2864813
H -2.5190998 4.0858239 9.7437603
H -1.9561087 3.2789379 8.5930275
O 16.9400047 3.7350010 7.8500022
H 16.4300046 3.5710010 7.0440020
H 17.4120049 2.9150008 7.8020022
O -14.9530042 5.9690017 -7.1940020
H -14.9910042 5.7650016 -8.1200023
H -15.3510043 5.1730014 -6.9080019
O 1.5860004 -17.0670048 -7.7650022
H 1.8060005 -17.9600050 -8.1010023
H 2.3970007 -16.6000046 -8.2100023
O 2.0652612 4.4894548 -8.5523303
H 1.2588390 4.3772572 -9.1009519
H 2.5843291 3.6940750 -8.8007193
O 1.8411769 4.0221507 7.6960911
H 1.3439620 4.7537570 8.1134504
H 1.6916779 4.2055226 6.7482945
O -8.4450024 3.0300008 -15.4250043
H -8.2830023 3.2890009 -16.3380046
H -8.3900023 2.0800006 -15.3540043
O -15.9150045 5.7330016 3.8540011
H -15.1350042 5.5520016 3.2590009
H -15.8970044 4.9860014 4.5390013
O 5.5250015 -15.5120043 6.3300018
H 4.9810014 -16.2570045 6.6260019
H 5.1430014 -14.8170041 6.9370019
O 5.7106581 2.1678243 -11.3815155
H 5.8443448 2.9223517 -10.7709128
H 6.4884938 2.3103545 -11.9595894
O 4.0151283 1.9959168 3.6081266
H 4.0815068 2.0824472 2.6342858
H 4.0972482 2.9147316 3.9138490
O 2.6840008 4.9850014 18.4910052
H 2.8150008 3.9660011 18.7090052
H 3.5380010 5.2100015 18.8230053
O -5.9189343 -1.4955956 -11.2152689
H -6.2077476 -2.2587680 -10.6794743
H -4.9589287 -1.6890805 -11.3349665
O -10.2490029 0.4360001 12.7550036
H -10.2470029 0.3830001 11.7650033
H -9.3490026 0.1040000 12.9850036
O -6.5390018 13.0630037 7.5350021
H -6.9970020 12.5880035 6.8040019
H -5.7720016 13.3510037 7.0430020
O 13.3100037 -0.0550000 -11.1490031
H 12.8120036 -0.4940001 -10.4370029
H 14.2360040 -0.3310001 -11.0060031
O 11.4683773 -1.2561413 5.4420788
H 10.5491777 -0.9146363 5.4501964
H 11.3373601 -2.0958223 5.9274143
O -1.7157659 0.3634705 -7.3067946
H -0.7339341 0.3836609 -7.3409598
H -1.8689641 -0.5923580 -7.4454943
O -4.6937760 1.9389758 10.6615077
H -5.2442265 1.3526636 11.2139908
H -3.9957925 1.3072457 10.3949983
O 18.1280051 0.7850002 -7.3650021
H 18.1940051 1.7400005 -7.3850021
H 17.2130048 0.6080002 -7.7400022
O 13.7240038 3.1080009 10.1180028
H 13.3150037 2.5850007 9.4570026
H 13.0480037 3.1820009 10.8670030
O -1.5970017 -1.0828869 -14.2909185
H -2.1243033 -0.2562328 -14.3030617
H -0.9510939 -0.8622530 -14.9862929
O -7.8248555 -0.3788938 3.8286798
H -8.6623699 0.1338496 3.8618423
H -7.3156252 0.0239492 4.5616502
O 2.2490006 19.2120054 4.9780014
H 1.2800004 19.1560054 4.7410013
H 2.7090008 19.2380054 4.1380012
O 12.2877214 -1.6842852 2.8967316
H 12.0423737 -1.4273718 3.8173825
H 13.1889881 -2.0421046 3.0479203
O 0.1807812 -2.2764416 -9.6145097
H -0.5312372 -2.6907565 -10.1245655
H 0.7545989 -1.9400474 -10.3340936
O -2.9340891 -0.1549968 10.3166521
H -2.4389168 -0.6865243 9.6571125
H -3.8029225 -0.6249299 10.2897508
O -3.7830011 17.7080050 7.7200022
H -3.7680011 17.0290048 8.4610024
H -3.9590011 17.2650048 6.8820019
O 15.0910042 0.3330001 6.5720018
H 15.4340043 0.3620001 5.6620016
H 15.9000044 0.6300002 7.0550020
O -13.6630038 2.3210006 -12.4830035
H -12.8010036 2.8260008 -12.2130034
H -13.7360038 1.5710004 -11.8880033
O -17.5570049 0.5350001 7.5420021
H -18.0520051 -0.3370001 7.5200021
H -18.3290051 1.2030003 7.4180021
O 0.2640001 -16.9500047 8.6390024
H 0.0750000 -17.5670049 9.3200026
H 0.2360001 -16.1520045 9.1420026
O 3.5957584 2.2239597 -9.1014740
H 3.1914593 1.8189161 -9.8977194
H 4.2506664 1.5287199 -8.8821452
O 1.6858505 0.9919863 4.8867587
H 2.0940885 0.4760353 5.6100894
H 2.4763558 1.2580065 4.3773519
O 17.6860049 1.0920003 7.6100021
H 18.5560052 1.1930003 7.2600020
H 17.8830050 0.9560003 8.5580024
O -13.3170037 0.3970001 -10.6440030
H -12.8220036 -0.4460001 -10.7740030
H -12.8060036 0.7380002 -9.9310028
O -12.9680036 2.3580007 9.8740028
H -13.0390036 2.7070008 10.8130030
H -13.8830039 2.0980006 9.6020027
O 8.5005411 -0.7369597 -10.1812561
H 9.2025105 -0.6062167 -10.8475450
H 8.5859421 0.0699847 -9.6310018
O 5.9064824 2.9138789 6.4825859
H 5.1841451 3.2984800 5.9439816
H 5.8395232 3.4648844 7.2888087
O -0.8121409 -3.4075711 -12.9208215
H -1.2073067 -2.6128343 -13.3322995
H 0.0870472 -3.3184472 -13.2838091
O -7.1984915 -2.4647702 7.1101298
H -8.1561860 -2.5919667 6.8888173
H -7.3143521 -2.0211502 7.9770006
O -1.2040003 14.3800040 5.9260017
H -1.0100003 14.6260041 5.0270014
H -0.8760002 15.0750042 6.4680018
O 13.0860037 -5.3680015 4.1080011
H 13.8910039 -4.9900014 4.4130012
H 12.9270036 -4.8110013 3.3710009
O -0.1440000 -6.9190019 -13.0190036
H -0.4570001 -6.8150019 -13.9740039
H -0.4550001 -6.0520017 -12.6850036
O -4.7283153 -3.9725751 3.0539716
H -3.8637949 -3.8226323 3.4952452
H -5.3512364 -3.4923053 3.6421305
O -3.1610009 -2.2470006 18.8060053
H -3.3000009 -3.2080009 18.8580053
H -2.2360006 -2.1130006 18.9310053
O -0.8300002 14.3160040 2.7940008
H -1.5790004 14.1840040 2.2200006
H -0.5190001 15.2170043 2.4980007
O 14.7390041 -2.9160008 2.9810008
H 15.6960044 -3.0840009 3.2480009
H 14.7550041 -3.4660010 2.1980006
O -1.6950005 -17.7210050 3.7530011
H -1.4630004 -17.4100049 2.8870008
H -2.4310007 -17.1480048 3.9440011
O 0.1260000 -0.6260002 -16.5090046
H 1.0950003 -0.5770002 -16.2560045
H -0.0440000 0.2570001 -16.8770047
O -6.1989869 0.0339633 6.0928661
H -5.2539327 -0.0238880 6.3633907
H -6.5427361 -0.7682995 6.5218343
O 15.0120042 -0.4680001 1.3810004
H 14.5440041 0.1290000 1.9830006
H 15.2890043 -1.2090003 1.9600005
O -13.0720037 -2.5770007 -9.1920026
H -12.7000036 -3.4040010 -8.9100025
H -12.7930036 -2.5370007 -10.0570028
O -16.0450045 -2.4250007 7.4830021
H -15.5990044 -1.7000005 7.9770022
H -16.8830047 -2.4960007 8.0020022
O 4.9886190 -2.8751804 -6.7687965
H 5.4494954 -3.6813983 -7.0766776
H 5.7718117 -2.2925129 -6.6714177
O 2.9163724 -0.5316954 6.8775963
H 3.5242395 -1.0934279 6.3497458
H 3.5517944 -0.1425008 7.5153612
O 5.4160015 13.4160038 -9.4260026
H 5.9380017 13.9540039 -10.0290028
H 5.8870016 13.5270038 -8.5480024
O -10.7890030 3.6840010 -11.6840033
H -10.0600028 3.9800011 -12.3230034
H -10.3770029 3.4100010 -10.8080030
O -12.6150242 2.8303617 4.9257949
H -11.7444763 2.7118327 5.3429832
H -12.5962488 3.7573401 4.6292377
O 5.8981636 -0.6031538 -11.1461578
H 5.7367265 0.3617608 -11.0486454
H 6.7927346 -0.6789028 -10.7487033
O 5.7415781 -0.2095973 3.5228832
H 5.5803081 -0.3761923 2.5688605
H 5.1745055 0.5759678 3.6658773
O -2.2398758 -3.6781196 -10.1185907
H -1.9009452 -4.5242659 -10.4860495
H -2.4989565 -3.1881460 -10.9320634
O -5.1303206 -4.5691564 6.9961003
H -5.6029851 -5.4241444 6.9006487
H -5.8598116 -3.9225230 6.9518467
O -1.8443249 11.4559976 -6.7880054
H -2.5515971 11.2705882 -7.4403736
H -1.8588860 12.4312622 -6.7474741
O -4.9350014 14.2060040 12.3870035
H -5.3340015 13.5080038 11.8600033
H -5.1890015 13.8840039 13.2750037
O 10.8074031 -3.4293705 6.9453977
H 9.8570393 -3.6519589 6.8279585
H 11.1916165 -4.3328948 6.9544310
O -1.3986438 -6.3161899 -10.4360879
H -0.7132500 -6.8021205 -10.9217562
H -2.0342838 -7.0494134 -10.2684775
O -2.7315643 -7.9245218 5.1407759
H -3.5208846 -7.4949423 4.7453574
H -2.5811107 -8.6329657 4.4730257
O -1.9210005 12.6190035 -13.3620037
H -1.6630005 12.3260034 -12.5290035
H -2.3360007 13.5160038 -13.1920037
O 0.9260003 12.7590036 4.0350011
H 0.9110003 12.9460036 5.0230014
H 0.0790000 13.1300037 3.7510010
O 15.7240044 -7.0860020 5.2250015
H 15.5690044 -6.3680018 5.8750016
H 15.2440043 -7.7880022 5.7230016
O -16.5510046 -5.4540015 5.7230016
H -17.4590049 -5.4030015 6.0180017
H -16.6340047 -5.5240015 4.7390013
O 2.3593978 -6.6632128 -6.9933791
H 2.1572647 -6.4694538 -6.0522219
H 1.5817642 -6.2491457 -7.4271949
O -2.3537326 -4.1349884 7.2383667
H -3.2871127 -4.3506975 7.0424681
H -1.8687643 -4.8207359 6.7505963
O 2.1660006 14.7020041 -10.1390028
H 1.7740005 15.5310043 -10.5040029
H 2.7280008 15.2720043 -9.5560027
O 1.6750005 13.6550038 8.3440023
H 2.2260006 13.8080039 9.1020025
H 2.4150007 13.5810038 7.6520021
O -14.6220041 -3.6110010 5.7160016
H -15.1600042 -4.4270012 5.5850016
H -15.1620042 -3.1350009 6.4150018
O 5.9340017 -4.5560013 -11.5360032
H 6.4140018 -5.3850015 -11.4730032
H 6.5150018 -3.7630011 -11.1940031
O 0.5135767 -2.8756463 5.6933686
H -0.2746520 -2.3030040 5.5932859
H 0.8337682 -2.8805707 4.7643992
O 4.9720014 13.9570039 -12.2350034
H 4.4650012 13.4030038 -11.6050032
H 4.3670012 14.0120039 -13.0330036
O 0.8310002 16.4030046 5.3400015
H 0.5090001 17.2060048 4.8720014
H 1.3730004 16.7580047 6.0630017
O -13.7390038 -5.3720015 -10.1660028
H -13.5450038 -6.2090017 -9.6480027
H -14.0780039 -4.8520014 -9.4310026
O -16.2260045 -7.3690021 7.5970021
H -16.4310046 -6.4490018 7.6820021
H -15.2950043 -7.2550020 7.2750020
O 4.7464954 -6.8171579 -8.2862830
H 4.5649206 -7.5180700 -8.9495844
H 3.8496881 -6.6652456 -7.9152970
O 0.5865554 -7.7497815 8.6226596
H 0.5796302 -8.0822274 7.6978260
H -0.3469388 -7.4810265 8.7392084
O 7.2020020 13.6600038 -7.2990020
H 7.2480020 13.3700037 -6.3840018
H 7.3720021 14.5830041 -7.1320020
O 3.8870011 13.1170037 6.5870018
H 4.5820013 12.4740035 6.7860019
H 4.4490012 13.8990039 6.7250019
O -3.5427663 -7.3999281 -6.9701330
H -3.6067065 -7.4352263 -5.9953337
H -3.4933633 -6.4271625 -7.0890935
O -6.0140017 -9.0390025 8.7960025
H -6.4960018 -8.6510024 9.4870027
H -5.1380014 -9.0530025 9.1850026
O -5.2320015 12.7280036 -7.2940020
H -6.1480017 12.5170035 -7.0590020
H -4.8090013 11.8840033 -7.6780021
O -5.4490015 12.1400034 3.1830009
H -5.8190016 12.9810036 2.8370008
H -6.0080017 11.4710032 2.7620008
O 9.5610027 -9.0370025 11.4920032
H 9.7750027 -9.7290027 10.8540030
H 10.2750029 -8.4190024 11.2570032
O 11.4400032 11.9390033 -10.2840029
H 11.2990032 11.2850032 -9.6250027
H 12.1270034 11.5240032 -10.8150030
O 10.6200030 13.4320038 7.4690021
H 9.7340027 13.0290036 7.3610021
H 10.9330031 12.8650036 8.1280023
O -17.0490048 -5.0560014 3.1780009
H -17.2880048 -5.9660017 2.8730008
H -17.4790049 -4.5570013 2.4140007
O -3.0970009 -11.1220031 -9.0500025
H -2.9730008 -12.0960034 -8.8630025
H -3.3090009 -10.9030031 -8.1040023
O -2.7907341 -9.0290537 7.6201707
H -2.6839999 -8.6645099 6.7113597
H -2.5240332 -8.2483481 8.1511364
O -0.7223185 8.8897480 -10.0490977
H 0.0523612 8.3482753 -10.3207323
H -1.4455493 8.4348155 -10.5284662
O -5.6413253 8.7076186 3.0539177
H -5.5125085 9.3268597 2.3142206
H -6.5448105 8.3791200 2.8596954
O 0.6079439 -9.2680854 -8.9930944
H 0.2799040 -9.8999185 -9.6668425
H -0.1557349 -9.2346664 -8.3741004
O -2.0142188 -7.0673605 9.2922802
H -2.1988670 -7.6073950 10.0889019
H -2.2546012 -6.1758513 9.6225653
O 0.1649283 9.6435052 -7.5663546
H -0.2285078 9.3772338 -8.4264611
H -0.4570785 10.3412843 -7.2768178
O -2.9760008 12.7120036 9.3800026
H -2.2220006 12.3110034 8.9330025
H -2.4160007 12.9800036 10.1810028
O -2.3480007 -13.5580038 -8.2350023
H -1.4580004 -13.4730038 -7.7760022
H -2.6660007 -14.3400040 -7.7330022
O -1.1440003 -6.1330017 12.7720036
H -0.7690002 -7.0120020 12.6740035
H -0.3620001 -5.6060016 12.6140035
O -0.4202670 4.1895950 -9.7625553
H -0.7233098 4.4606097 -10.6513407
H -1.1331383 4.6232396 -9.2418089
O -2.1582938 8.0596250 8.4366346
H -2.7344216 8.8339096 8.5583983
H -2.2487396 7.6013841 9.2933217
O 13.9540039 8.6430024 -6.8040019
H 13.6650038 8.8690025 -5.9270017
H 14.6100041 9.2920026 -6.9930020
O -7.5180021 -16.0440045 -7.3960021
H -7.3800021 -16.3280046 -8.3410023
H -8.1950023 -15.3480043 -7.5530021
O -5.7735019 5.1137622 -6.5151306
H -5.3387196 4.4916035 -7.1317007
H -6.4462198 5.4906618 -7.1229538
O -6.5170018 5.0580014 11.9770034
H -7.0730020 5.8570016 12.0020034
H -6.9490019 4.4130012 12.5660035
O 12.8380036 5.6510016 -9.3620026
H 13.2030037 5.9290017 -8.4960024
H 12.4480035 4.8530014 -9.0790025
O 9.9130028 6.4610018 12.1490034
H 10.6070030 5.9170017 11.7100033
H 9.4290026 6.8810019 11.4150032
O -8.5090024 -10.9290031 -1.7730005
H -9.3500026 -11.0870031 -1.2580004
H -8.9870025 -10.6650030 -2.6120007
O -5.4196628 7.1244206 -4.6503209
H -5.3567574 6.3739768 -5.2807750
H -6.3279012 6.9962754 -4.3081179
O 10.3010029 -10.7320030 -1.9200005
H 9.4890027 -10.2780029 -1.6380005
H 10.2890029 -11.5210032 -1.3120004
O 10.1147273 9.2036295 -3.4734983
H 9.8983370 9.0341766 -2.5356786
H 9.5490550 8.5470623 -3.9168370
O -4.8450014 -11.8810033 -3.6070010
H -4.8610014 -11.7770033 -4.6100013
H -4.0750011 -11.3940032 -3.3800009
O -7.9260044 5.5193931 0.8968984
H -7.7271137 6.2754590 1.4767822
H -8.9058684 5.5165830 0.9618023
O 6.9180019 -12.0940034 -2.3150006
H 6.3620018 -11.6730033 -1.6250005
H 7.5830021 -11.3460032 -2.4780007
O 12.4194680 3.6398411 -0.8497024
H 11.5259383 3.9151943 -0.5511905
H 12.8765462 3.7029648 0.0142212
O -8.3814362 -9.8461149 2.9988752
H -9.2944361 -9.5688995 2.7720693
H -7.8761841 -9.0813643 2.6514188
O -5.9500017 8.0080022 -14.3920040
H -5.1030014 8.1000023 -14.8900042
H -5.8050016 7.0420020 -14.2130040
O -8.1326123 8.6428587 -0.4463816
H -8.1098089 9.1766372 -1.2730638
H -9.1026044 8.5053590 -0.3616776
O 8.6570024 -11.1900031 0.8070002
H 9.1690026 -10.6160030 1.4730004
H 9.1840026 -11.9970034 0.6090002
O 9.3760026 10.4250029 1.1300003
H 8.6990024 10.8910030 1.6340005
H 10.2310029 10.8270030 1.4840004
O -9.0570025 -9.2070026 -11.7240033
H -9.3330026 -8.7900025 -12.5550035
H -9.1300026 -10.1230028 -11.9730034
O -11.1320031 -14.0880039 5.0540014
H -10.5250029 -13.3560037 5.3530015
H -10.5290029 -14.7000041 4.5240013
O -8.6660024 5.5860016 -10.8490030
H -8.9840025 6.4650018 -11.0070031
H -8.3810023 5.3760015 -11.7500033
O -9.9023008 6.8059908 6.3280823
H -10.0727545 6.4558548 5.4230585
H -8.9236286 6.7012791 6.3478370
O 9.0200025 -10.2270029 5.5240015
H 8.7220024 -10.7890030 4.7120013
H 8.2480023 -10.2960029 6.1330017
O 8.4620024 7.5410021 -11.8220033
H 7.5150021 7.7260022 -11.6440033
H 8.7550025 8.3090023 -12.3230034
O 7.7784267 9.0498455 4.3402463
H 8.3786317 8.3781087 3.9564951
H 7.0479791 9.0413633 3.6997951
O -9.0040025 -14.0890039 9.4230026
H -8.3330023 -13.3780037 9.4250026
H -9.7110027 -13.4770038 9.7710027
O -10.1960029 4.2740012 -9.1590026
H -10.8370030 4.7880013 -9.6700027
H -9.3150026 4.4640012 -9.5100027
O -11.2120031 3.6370010 8.5920024
H -11.7440033 3.0840009 9.2770026
H -11.9220033 4.0920011 8.1000023
O 6.8330019 -16.6130046 -7.2560020
H 5.9480017 -16.5600046 -6.8430019
H 6.6060018 -15.9600045 -7.9390022
O 6.3340018 -15.3370043 9.7070027
H 5.7840016 -14.7640041 9.0960025
H 5.7440016 -15.4750043 10.4430029
O 8.1484407 1.5253629 -8.5487876
H 7.1958990 1.3078866 -8.5491350
H 8.2167695 2.0253973 -7.7082060
O 5.8637915 4.7615836 8.5142993
H 6.7510351 5.1734232 8.4737528
H 5.3258868 5.4749643 8.1087485
O -9.7860027 -15.7380044 -2.7630008
H -9.9170028 -16.2920046 -3.5220010
H -9.5540027 -16.4610046 -2.1290006
O -8.9046065 2.8540476 -5.5148869
H -9.1324134 2.0638904 -4.9727500
H -7.9974311 3.0021435 -5.1606523
O 8.5612316 2.8352723 -6.1749372
H 8.3247600 3.7761424 -6.1046240
H 9.5396150 2.8815065 -6.0674961
O 4.6640013 2.5050007 13.4810038
H 4.5250013 3.2810009 14.0940039
H 4.0210011 2.7230008 12.7690036
O -6.5626672 0.2540941 -3.3468806
H -7.4940616 0.4596719 -3.5602198
H -6.4355097 0.8375550 -2.5679629
O 5.6510016 -17.9360050 -2.4890007
H 5.2880015 -18.8140053 -2.7450008
H 6.5570018 -18.0650051 -2.8280008
O 7.5025212 1.5285371 -0.4869669
H 7.5891850 0.5729923 -0.6516961
H 7.0884658 1.8125134 -1.3238104
O 6.7560019 0.8760002 15.3770043
H 5.9020017 0.8220002 14.8660042
H 6.4240018 0.6070002 16.2550045
O -10.0710028 -14.0290039 0.8400002
H -9.1460026 -14.3240040 0.7170002
H -9.9160028 -13.2600037 1.4380004
O -7.6242322 5.4553530 -1.8178673
H -8.0230732 4.5684456 -1.9395114
H -7.6668170 5.4981863 -0.8367930
O 7.5882946 5.0126810 -1.0525733
H 8.2091514 5.1242731 -1.8024095
H 6.9778282 5.7625853 -1.2083006
O 4.5550013 0.4670001 17.4120049
H 4.2240012 -0.3190001 17.0650048
H 3.9160011 1.0710003 17.0500048
O -14.7900041 -8.5760024 3.9190011
H -14.0980039 -7.8890022 3.9930011
H -15.0050042 -8.6430024 2.9920008
O -9.1038722 3.5626256 4.5858051
H -9.4249996 4.4223031 4.2445130
H -8.1445460 3.7375734 4.5541492
O 8.5360024 -12.5340035 3.8600011
H 8.2790023 -13.3890037 3.5150010
H 9.4600026 -12.6890036 3.8230011
O 4.9670014 5.3870015 -15.9340045
H 5.0950014 6.0170017 -16.7010047
H 4.8040013 4.5080013 -16.3940046
O 7.3310082 7.7626123 0.9549656
H 6.6988209 8.3059351 1.4623268
H 6.7688754 7.4511383 0.2167193
O -7.5565519 -0.5167155 -7.2030684
H -6.7704647 -0.0321842 -6.8631592
H -7.6108434 -0.2185304 -8.1328238
O -12.5660035 -0.9320003 13.8530039
H -12.8280036 -0.5410002 14.7160041
H -11.9100033 -0.2760001 13.5400038
O 8.0900023 -14.8850042 6.8390019
H 8.4810024 -15.7460044 7.0230020
H 7.2300020 -15.2080043 6.4750018
O 10.8500030 1.7360005 -9.0400025
H 10.7060030 1.8080005 -9.9810028
H 9.9540028 1.8780005 -8.7000024
O 6.9690020 3.1440009 11.9030033
H 6.1710017 3.0740009 12.4060035
H 6.7450019 3.9030011 11.4440032
O -9.5560027 -5.0690014 -8.9100025
H -10.4360029 -5.0160014 -8.5200024
H -9.6180027 -5.8300016 -9.5090027
O -9.9760028 -2.4400007 10.6080030
H -10.4180029 -2.7540008 11.4270032
H -10.6950030 -2.4560007 9.9530028
O -7.7610022 15.0020042 9.5160027
H -8.4170024 15.5970044 9.0430025
H -7.5340021 14.2580040 8.9100025
O 8.2130023 -3.5050010 -10.1450028
H 8.3190023 -2.4940007 -9.9980028
H 9.1320026 -3.7610011 -10.1510028
O 6.7585676 -2.7884543 10.1709052
H 7.4533432 -3.4586075 10.1557628
H 6.4683794 -2.7987323 9.2331454
O -9.5361550 -0.1483232 -1.3700794
H -10.2075678 0.4790565 -1.0321638
H -9.1862751 -0.5223896 -0.5430600
O 7.6590546 -1.2355345 -1.0064918
H 8.2267835 -1.2665636 -1.8126398
H 8.2351569 -1.7143530 -0.3665912
O 5.2480015 -0.5880002 13.2170037
H 5.1800014 -1.5190004 13.5770038
H 4.2860012 -0.4540001 13.1810037
O 9.9820028 16.3910046 -2.3540007
H 9.8660028 16.6380047 -3.2340009
H 9.0000025 16.1660045 -2.1850006
O -5.6650016 -17.2870048 -3.1200009
H -5.5430016 -16.5250046 -2.4950007
H -5.9640017 -17.9870050 -2.4690007
O -8.8909306 3.0170419 -1.6706665
H -8.0416685 2.5289518 -1.7069408
H -9.1906610 2.6793607 -0.7978148
O 9.2429177 -2.3119611 0.8968463
H 8.8054696 -2.2176295 1.7723291
H 9.9213277 -1.6073430 0.9410779
O -7.8719555 -0.0501310 -9.9533636
H -8.5956937 -0.4774043 -10.4323113
H -7.1109413 -0.5372304 -10.3354989
O -7.2765013 3.6786526 8.9522034
H -6.9790650 3.6962507 9.8686866
H -7.9319175 4.4011822 8.9384822
O 3.5890010 -17.0990048 7.9110022
H 2.7640008 -16.6180047 7.6460021
H 3.4100010 -17.3370049 8.8200025
O 10.1690028 -0.9610003 -12.5460035
H 10.8010030 -1.6940005 -12.5440035
H 9.3430026 -1.3570004 -12.9730036
O 3.2729784 5.3139922 1.1420300
H 4.1972520 5.0151985 1.2857993
H 3.4147104 6.1581610 0.6618481
O -7.6316209 -3.3958687 -9.8967212
H -8.3830310 -3.8806730 -9.4858527
H -7.7576393 -3.6573189 -10.8316723
O -12.0430034 -1.0570003 8.9840025
H -12.9490036 -0.8400002 8.7670025
H -12.0330034 -1.8260005 8.3530023
O 10.7390030 -4.4290012 -9.6380027
H 10.9140031 -4.9360014 -10.4730029
H 11.6280033 -4.0750011 -9.5440027
O 6.7722177 0.3590786 7.0222657
H 6.1231915 0.1486004 7.7206888
H 6.4336188 1.2321515 6.7395459
O -11.7880033 -4.6510013 -7.5880021
H -11.8370033 -4.6750013 -6.6330019
H -11.9460033 -5.6150016 -7.6880022
O -13.3110037 -5.5620016 9.1120026
H -12.8740036 -6.3110018 9.6840027
H -13.6320038 -6.0550017 8.4220024
O -10.6420030 12.9240036 -9.1070025
H -10.0680028 12.3840035 -8.4330024
H -10.8300030 13.7510038 -8.6870024
O 6.6433570 -4.8908524 -7.8515932
H 7.1087850 -4.5818975 -8.6494007
H 6.0129503 -5.5622834 -8.1946655
O 3.8152525 -4.8568919 8.5234882
H 3.1730020 -4.9892301 7.7990927
H 3.2459438 -5.1124568 9.2782237
O 8.2150023 11.3410032 -9.4320026
H 7.6250021 11.8030033 -8.8030025
H 8.8580025 10.9710031 -8.8150025
O 4.4000012 13.6380038 9.4960027
H 4.6980013 14.4510040 9.0560025
H 4.9390014 13.0030036 9.0300025
O -8.6628603 -3.4635617 -3.3258307
H -8.8934407 -2.7923506 -4.0058623
H -8.3745464 -4.2008402 -3.8824543
O -8.7230024 16.5410046 -3.7780011
H -8.1680023 15.9040045 -3.3440009
H -8.0920023 17.2570048 -4.0160011
O 7.1784953 -3.9707604 -4.0633293
H 7.0760011 -4.7422968 -4.6366677
H 8.0774181 -3.6875953 -4.3265770
O 4.8460014 -2.8390008 14.5830041
H 5.4870015 -2.7300008 15.3260043
H 5.2360015 -3.4460010 13.9320039
O -14.1130039 -3.5230010 2.5330007
H -13.4790038 -3.0120008 1.9700006
H -14.2210040 -2.9430008 3.3090009
O 6.9312590 -4.3941553 2.2864170
H 7.2932362 -3.5766693 2.6834103
H 6.3442160 -4.7146106 2.9906432
O 4.0090011 -6.3100018 17.3370049
H 4.9890014 -6.1510017 17.4520049
H 3.5980010 -5.4850015 17.3630049
O -8.0480023 -2.9720008 -14.8710042
H -8.3590023 -2.7550008 -15.7740044
H -7.2660020 -2.2690006 -14.9330042
O -14.5860041 1.4840004 6.2340017
H -14.6100041 0.7720002 5.5710016
H -13.7870039 1.9780006 5.9790017
O 7.6150021 -1.5980004 -13.4520038
H 6.9060019 -2.2450006 -13.4780038
H 7.1220020 -0.7370002 -13.3990037
O 7.8939818 -1.9623610 3.2956085
H 7.1217183 -1.3586350 3.3180457
H 8.3583574 -1.6306688 4.0928620
O -4.7171183 -4.6031025 -9.3641343
H -3.8385362 -4.2570160 -9.6200082
H -4.5678390 -4.6699244 -8.3979511
O -12.1970034 -3.5130010 7.5250021
H -12.2790034 -4.3650012 8.0670023
H -12.9770036 -3.6080010 6.9170019
O -9.7840027 13.2470037 6.7570019
H -10.3240029 13.3530037 5.9600017
H -9.1750026 12.5720035 6.4440018
O 11.9160033 -6.2570018 -11.2350031
H 11.8690033 -7.1860020 -11.2020031
H 12.8450036 -6.1400017 -11.5510032
O 8.2266758 -4.2904194 6.5580539
H 8.0341463 -5.1854031 6.8872206
H 7.4279131 -3.8088377 6.8656513
O -10.2760029 -11.8380033 -9.2220026
H -9.2900026 -12.0050034 -9.2440026
H -10.5570030 -12.1030034 -10.1500028
O -9.0670025 -8.0200022 8.4920024
H -8.7780025 -8.9550025 8.5210024
H -8.5270024 -7.7570022 9.2340026
O -7.2600020 8.7910025 -8.5890024
H -6.5690018 8.7260024 -9.3020026
H -6.9790020 9.5050027 -8.0830023
O -7.9340022 11.2740032 5.8970017
H -7.2030020 10.7290030 5.5680016
H -8.5710024 10.4940029 5.9940017
O 10.6740030 -9.4060026 -8.7570025
H 11.3760032 -9.1130026 -9.3790026
H 11.1640031 -9.4320026 -7.9000022
O 6.3720018 -8.9250025 9.0580025
H 6.4760018 -9.1380026 10.0390028
H 7.1770020 -8.4310024 8.8880025
O 7.7740022 9.9060028 7.4440021
H 8.4740024 10.3460029 6.9020019
H 7.2080020 9.5390027 6.7460019
O -10.8670030 -7.0520020 -2.2560006
H -11.5920032 -6.3990018 -2.0660006
H -11.3510032 -7.9280022 -2.3890007
O -6.8980019 14.5230041 -2.5090007
H -7.5640021 13.7950039 -2.5240007
H -6.2120017 14.1630040 -3.1120009
O 7.9910022 -6.3160018 -5.8430016
H 7.4650021 -5.9570017 -6.6020018
H 8.8880025 -6.1280017 -6.2350017
O 6.6340019 -5.3830015 14.1920040
H 6.9640019 -5.1720014 13.2980037
H 6.8690019 -4.6150013 14.7450041
O 9.6020027 11.4600032 -5.0760014
H 10.0820028 10.9310031 -4.3720012
H 9.3540026 12.2400034 -4.4800013
O -5.3700015 -7.4170021 -15.2640043
H -5.9770017 -7.8040022 -15.8850044
H -5.1670014 -6.4840018 -15.5930044
O -6.9521268 -4.6319226 -0.4205461
H -6.3057752 -5.2467667 -0.8140690
H -7.7257208 -5.2354748 -0.4164642
O -5.9703642 10.5130681 0.8350520
H -5.8008319 9.9247216 0.0873821
H -5.2194966 11.1462732 0.7345604
O 9.3134930 -4.9100169 -0.1695080
H 9.3558064 -4.0172731 0.2385252
H 9.3298267 -5.4829443 0.6274392
O -9.3640026 -4.7870013 -16.9110047
H -8.7830025 -5.2130015 -16.2570045
H -9.9560028 -4.2460012 -16.3680046
O -9.5102512 -3.5996640 1.5261677
H -9.3173703 -2.6454852 1.5382765
H -9.7401863 -3.7042117 0.5770200
O 9.1793483 -1.2824139 -3.2425522
H 9.5241130 -2.0044414 -3.8115288
H 8.7377502 -0.7083726 -3.9059665
O 11.5960032 14.9860042 -0.5270001
H 10.9700031 15.4230043 -1.1890003
H 11.8800033 15.6830044 0.1380000
O -6.9365089 -6.0593458 -8.1894403
H -7.8243164 -5.9501795 -8.5838783
H -6.4181923 -5.4092816 -8.6985870
O -11.0440031 -6.1870017 6.7710019
H -10.5720030 -5.9080017 5.9870017
H -10.3270029 -6.7530019 7.1180020
O -7.9100022 12.4600035 -6.5980018
H -8.7670025 12.0270034 -6.8770019
H -8.3230023 13.2510037 -6.2500017
O -11.6400033 13.2120037 4.6160013
H -12.1340034 13.5660038 3.8270011
H -12.3260034 12.6730035 4.9060014
O 6.8068261 -6.9887802 5.0548367
H 6.1080450 -6.3846960 4.7394245
H 6.9210637 -7.5531943 4.2641319
O 9.3460026 11.0550031 5.3520015
H 8.6900024 10.4630029 4.8570014
H 10.1530028 10.9060031 4.9280014
O -12.6810035 -3.5610010 -4.9410014
H -13.2700037 -3.2750009 -5.6570016
H -12.0710034 -2.7900008 -5.0460014
O -12.8010036 -7.5120021 11.1000031
H -12.0790034 -7.4020021 11.8190033
H -13.6080038 -7.4470021 11.6060032
O -6.5110018 11.4920032 -4.4060012
H -6.2080017 10.6830030 -4.9430014
H -7.0120020 11.8810033 -5.1340014
O 8.6790024 -7.5080021 -9.7740027
H 9.3230026 -8.2350023 -9.6440027
H 8.5830024 -7.2010020 -8.8670025
O 9.6930027 -5.3660015 9.3480026
H 10.5060029 -5.6990016 8.8710025
H 8.9550025 -5.8210016 8.8700025
O 6.5060018 12.4570035 7.3910021
H 7.2840020 12.8340036 7.8330022
H 6.6620019 11.5030032 7.3670021
O -10.3841465 -3.4711213 -1.0574653
H -10.9359435 -4.1487996 -1.4826430
H -9.7022396 -3.3367185 -1.7498398
O -11.0630031 -7.6730021 13.2180037
H -11.0080031 -7.9920022 14.1470040
H -10.3470029 -7.0150020 13.2100037
O -4.6220013 14.1770040 -4.7490013
H -5.1250014 14.9280042 -4.9980014
H -4.8810014 13.5120038 -5.4680015
O 8.2220023 -9.7200027 -5.1260014
H 8.8390025 -8.9660025 -4.8560014
H 7.3920021 -9.3290026 -5.4560015
O 8.1690023 -5.5450016 11.6100032
H 8.7480024 -5.5720016 10.7880030
H 7.3920021 -5.6580016 11.0620031
O 12.7150036 11.9090033 -6.2800018
H 12.7210036 11.8650033 -5.3210015
H 12.3000034 12.8250036 -6.3560018
O -12.6170035 -9.4280026 -1.9850006
H -13.4090038 -9.7800027 -1.4920004
H -11.9170033 -9.9870028 -1.5710004
O -10.6460030 8.7860025 -2.7820008
H -9.6340027 8.8370025 -2.9380008
H -10.9010031 8.2410023 -3.5520010
O 6.0435819 -10.9972084 0.1790921
H 5.9114309 -10.0352346 0.2526805
H 7.0071850 -11.0584784 0.3820786
O 4.6130013 -9.0710025 15.8540044
H 5.0620014 -8.3710023 15.3110043
H 3.9440011 -8.4340024 16.1230045
O 6.9166076 11.1933501 -0.1493173
H 6.8801468 11.6227782 0.7261979
H 7.8122473 10.8129607 -0.1202222
O 3.0280008 6.6770019 14.5070041
H 3.4710010 6.6380019 13.6560038
H 3.6350010 7.3720021 14.9370042
O -8.5880024 -6.9760020 -10.5810030
H -9.0560025 -7.7180022 -10.9950031
H -7.8320022 -6.8870019 -11.2430031
O -9.1927123 -6.7171897 4.6979395
H -8.6984529 -7.5118021 4.9723135
H -8.5129445 -6.2169303 4.1986310
O -6.8010019 14.0990039 -10.7370030
H -7.4730021 14.1820040 -11.4360032
H -6.8170019 14.9680042 -10.3550029
O -8.6200024 11.6500033 0.8800002
H -7.7970022 11.2520031 0.5000001
H -8.7190024 10.8950030 1.5330004
O 11.9500033 -9.1310026 -11.1190031
H 11.3620032 -9.4300026 -11.7920033
H 12.6280035 -9.8430028 -11.1400031
O 10.1420028 -7.7520022 5.2070015
H 9.7170027 -8.6100024 5.1360014
H 10.6530030 -7.7420022 4.3690012
O 11.5510032 11.9160033 1.3970004
H 11.2650032 12.1610034 0.4450001
H 12.4810035 12.1780034 1.3520004
O -7.4430021 -11.9530033 -9.6600027
H -7.3130020 -12.3150034 -10.5920030
H -7.0970020 -12.6830035 -9.1850026
O -7.6130021 -11.5940032 6.8910019
H -8.4330024 -11.8790033 6.6160019
H -7.5160021 -11.7710033 7.8410022
O -5.4179161 3.8058642 -10.7491787
H -6.2925582 3.3964825 -10.5663895
H -5.0643671 3.8157212 -9.8410415
O -5.0908436 6.0595874 8.5159549
H -5.1095183 6.9307925 8.9419705
H -4.8042432 5.4935739 9.2573792
O 11.8130033 -10.5700030 6.7920019
H 11.3510032 -10.4420029 7.6490021
H 11.1410031 -10.4400029 6.0890017
O 10.7620030 6.5770018 -14.1690040
H 10.6030030 5.8820016 -13.5110038
H 11.3530032 7.2040020 -13.7250038
O 8.5851094 3.3381503 6.1374394
H 7.6581652 3.0565599 6.2861928
H 8.4383610 4.2436885 5.7925133
O -0.8580002 -10.9610031 -10.7280030
H -1.6670005 -10.8770030 -10.1560028
H -0.8370002 -11.9430033 -10.8780030
O -3.9336450 -11.9128749 4.2583222
H -3.2609109 -11.2350963 4.0719273
H -4.1849509 -11.7015526 5.1776080
O -1.8522430 5.2397267 -11.9397882
H -2.2626000 6.0977662 -11.7097165
H -1.0968921 5.5490109 -12.4913788
O -4.3476192 6.3168477 3.5957056
H -4.7724889 7.1468187 3.2972737
H -3.6296989 6.7081075 4.1371156
O 12.9150036 -12.8120036 5.9410017
H 12.2900034 -13.4230038 6.3210018
H 12.7130036 -12.0760034 6.4840018
O 14.9660042 8.3950023 7.2770020
H 15.8770044 8.6920024 7.0880020
H 14.8080041 7.6300021 6.6950019
O 2.5000007 -12.6320035 -10.4220029
H 3.0510009 -12.6090035 -9.6020027
H 1.9140005 -13.3260037 -10.1130028
O 0.5374508 -8.9045950 6.1089480
H 1.3932127 -9.3695211 5.9854056
H -0.0654882 -9.6775271 6.0153152
O 2.5840007 9.5970027 -12.3290035
H 2.7760008 10.3440029 -11.6890033
H 3.3340009 9.7540027 -12.9740036
O 1.1105053 10.0327055 3.3604754
H 0.9136273 10.9898540 3.3813645
H 1.2513203 9.8668309 4.3190041
O 6.3760018 -9.8690028 -12.0080034
H 5.4280015 -10.0060028 -12.4270035
H 6.8960019 -10.5800030 -12.4650035
O 0.4401986 -7.7072241 3.6166041
H 0.4717120 -8.1549925 4.4874830
H 1.2152793 -8.1133038 3.1742407
O 2.6115697 10.3019257 -8.7544847
H 3.1101883 9.4697051 -8.7216209
H 1.7944960 10.0550414 -8.2720872
O 5.0700014 9.2110026 7.3730021
H 5.7230016 9.0370025 8.0830023
H 4.4010012 9.7270027 7.9060022
O -11.8910033 -7.6650021 -12.2760034
H -12.8380036 -7.4200021 -12.3680035
H -12.0420034 -8.6050024 -12.2620034
O -10.8830030 -8.7860025 2.7030008
H -11.2550031 -8.0410023 2.2300006
H -10.9270031 -8.4810024 3.6310010
O -11.0880031 11.4200032 -11.4590032
H -10.5360029 11.8270033 -12.2040034
H -10.9720031 12.0270034 -10.6850030
O -9.9790028 9.7930027 2.9440008
H -10.8190030 10.1990029 2.6590007
H -10.0090028 9.9110028 3.8940011
O 6.4625306 -10.7845199 3.8832121
H 6.7756283 -9.9404099 3.4846243
H 7.1953053 -11.3970020 3.6603865
O 6.7760019 11.4560032 -11.7330033
H 6.1630017 12.2320034 -11.7080033
H 7.2490020 11.6470033 -10.8720030
O 7.3030020 11.6440033 2.6210007
H 6.8080019 12.1090034 3.3270009
H 6.8400019 10.7820030 2.5310007
O -5.7540016 -10.2110029 -11.8610033
H -6.0360017 -9.4190026 -11.3940032
H -5.6020016 -10.8440030 -11.1620031
O -5.2204981 -9.8187243 2.0857051
H -5.8344760 -9.0540937 2.0952761
H -5.7759095 -10.5166993 2.4774835
O -5.7970016 8.0190022 -10.8860030
H -6.1460017 7.2960020 -11.4680032
H -6.3360018 8.6960024 -11.3610032
O -5.5521397 9.7112722 5.6438860
H -5.5305293 9.2879956 4.7602259
H -4.6314828 10.0138692 5.7187066
O 11.5790032 -8.2730023 -0.5820002
H 11.5090032 -9.1210026 -1.0440003
H 11.0400031 -7.5960021 -1.0500003
O 11.7530033 10.8030030 4.1460012
H 11.7630033 11.5460032 3.4660010
H 11.5940032 10.0710028 3.5030010
O -3.1200009 -8.4340024 -10.1370028
H -3.2480009 -9.0860025 -9.5080027
H -4.0560011 -8.1790023 -10.3170029
O -2.6740887 -9.6818425 3.0772164
H -3.5653765 -9.7306402 2.6693492
H -2.1446085 -9.3104515 2.3451452
O -2.8733668 7.8678270 -11.5582964
H -3.8365488 7.8865760 -11.4159881
H -2.7720157 8.4488541 -12.3431218
O -2.9312829 12.3593399 4.1991836
H -3.8393363 12.2589744 3.8270476
H -2.5550815 13.0388172 3.6299962
O 11.8690033 -7.6170021 2.9740008
H 12.4680035 -6.8630019 3.1810009
H 12.5430035 -8.3490023 2.6890008
O 13.4720038 10.7990030 6.1760017
H 13.0670037 10.8480030 5.3130015
H 14.0280039 10.0380028 6.0280017
O -15.8470044 8.9020025 1.6530005
H -16.4250046 8.2570023 1.1150003
H -16.2540045 8.7150024 2.5390007
O 1.9040005 -8.5840024 -12.3950035
H 2.2860006 -7.9500022 -11.7340033
H 1.0940003 -8.1060023 -12.4210035
O -2.2505797 -3.8445389 4.1075821
H -1.6737688 -4.4661543 4.5970417
H -2.0521256 -3.0005249 4.5662771
O 2.0240006 13.4070038 -13.3950037
H 1.9780006 12.7280036 -14.1940040
H 2.2760006 12.8670036 -12.6300035
O 3.0879590 9.6363030 1.4620898
H 2.6660542 10.2779006 0.8508233
H 2.4551235 9.6901536 2.2084208
O -13.7560038 -6.9130019 6.4590018
H -13.8890039 -6.6340019 5.5430016
H -12.7600036 -6.7030019 6.6220019
O -15.2230043 12.0830034 1.8070005
H -15.4620043 11.1670031 1.7550005
H -14.6620041 12.2900034 1.0720003
O 3.9400011 -10.0760028 -13.2540037
H 3.1540009 -9.5340027 -13.0520037
H 4.3300012 -9.5300027 -13.9240039
O 2.3716629 -9.0379209 2.1224433
H 1.9499957 -9.4730018 1.3514584
H 2.9587883 -9.7610278 2.4294186
O 4.7270013 9.2660026 -14.4390040
H 4.8180013 10.2050029 -14.7900041
H 5.6740016 9.0520025 -14.3520040
O 5.6102858 9.3572681 2.5679627
H 4.8421895 9.5241291 1.9780090
H 5.1100451 9.3378366 3.4172209
O -14.8510042 -10.0700028 6.0640017
H -14.2080040 -9.4560026 6.4050018
H -15.0470042 -9.5110027 5.2100015
O -7.4090021 9.3760026 -12.6130035
H -7.3800021 10.2840029 -12.9810036
H -6.6260019 8.9770025 -13.0970037
O -13.3520037 12.9590036 -0.0480000
H -12.4370035 13.0170036 0.1390000
H -13.3200037 13.1620037 -1.0200003
O 3.9090011 -8.8700025 -16.3320046
H 4.5320013 -9.2130026 -16.9830048
H 3.5810010 -9.7440027 -16.0590045
O 3.9034079 -11.1710904 3.1094060
H 4.8456039 -11.0026337 3.3349211
H 3.9057300 -12.1502270 3.0591458
O 5.5244229 5.4543053 -12.3405683
H 6.3222540 5.4243430 -12.8852567
H 5.8754327 5.2066071 -11.4616090
O 6.1330017 13.0420037 4.5460013
H 5.2580015 12.6690035 4.6640013
H 5.8700016 14.0000039 4.3810012
O -4.3098276 -10.6742630 -0.3019149
H -4.5482766 -10.2863915 0.5669887
H -4.2061335 -11.6144027 -0.0452390
O -4.4610012 -11.8770033 14.4810041
H -3.9880011 -11.0380031 14.3200040
H -3.7200010 -12.4300035 14.8540042
O -3.8910011 8.0070022 -16.2830046
H -2.9990008 8.3400023 -16.4600046
H -3.7370010 7.0400020 -16.2350045
O -3.4324109 6.3132231 -0.2958554
H -4.2484134 6.7367721 -0.6348304
H -2.9650630 7.1187367 0.0278765
O 10.0350028 -13.0860037 -0.5340001
H 10.4080029 -13.6520038 0.0940000
H 9.8260028 -13.6880038 -1.2330003
O 12.3770035 9.4940027 -0.6120002
H 12.1200034 10.4290029 -0.7690002
H 12.2560034 9.4610026 0.4060001
O -3.7390010 -13.2150037 0.6890002
H -3.4530010 -13.8580039 0.0080000
H -2.9590008 -13.3020037 1.3260004
O -1.3590004 9.0370025 -16.8340047
H -1.0550003 9.0140025 -17.7900050
H -1.0780003 9.9220028 -16.5890046
O -2.2360711 8.6137154 0.4974278
H -1.7178820 8.4398984 1.3104366
H -1.8391845 9.4535464 0.1934841
O 15.1340042 7.8960022 -0.0410000
H 15.8700044 7.9910022 0.5700002
H 14.9230042 8.8550025 -0.1290000
O -18.5280052 6.2630018 2.4970007
H -17.6520049 6.1360017 3.0200008
H -18.1290051 6.2530018 1.6270005
O -1.0920003 -11.0120031 -15.7360044
H -0.9120003 -11.8220033 -15.2410043
H -0.8310002 -10.4110029 -15.0750042
O -1.8140005 -14.2830040 2.5960007
H -1.3320004 -15.1050042 2.1650006
H -1.8130005 -14.4940041 3.5190010
O 0.3570001 8.9070025 -13.5840038
H -0.4500001 9.4460026 -13.6630038
H 1.0830003 9.4770027 -13.2750037
O 1.6599309 10.9933647 -0.4298765
H 1.7263684 10.2786055 -1.0997531
H 2.1192495 11.7247790 -0.8836085
O 12.9570036 -10.0560028 2.3720007
H 12.6290035 -10.8280030 2.8550008
H 13.7710039 -10.4290029 1.9990006
O 1.8820005 -7.0700020 -16.4330046
H 1.2320003 -7.7590022 -16.6700047
H 2.6680007 -7.6500021 -16.5910046
O -1.7648330 -5.8156953 -2.7354053
H -1.3548057 -5.4431275 -3.5437437
H -2.4038314 -6.4322084 -3.1438025
O 4.0790011 13.1720037 0.8580002
H 4.7820013 13.7710039 1.0330003
H 3.6250010 13.0380036 1.7080005
O 15.0380042 -4.6540013 0.8590002
H 15.2720043 -4.4620012 -0.0140000
H 14.3770040 -5.2910015 0.7770002
O -12.6030035 -5.1850015 -1.4830004
H -12.6020035 -5.0810014 -0.5460002
H -13.3480037 -4.5910013 -1.7730005
O -10.8540030 8.4970024 -0.1070000
H -11.0580031 8.5790024 -1.1010003
H -11.3940032 9.2610026 0.2450001
O 5.4700015 -6.5940018 -16.5050046
H 5.1370014 -7.4710021 -16.2600046
H 4.8370014 -6.3650018 -17.2230048
O 7.9542727 -9.3613287 -1.7073196
H 7.4108361 -8.9816909 -0.9932865
H 7.8977449 -8.6521366 -2.3801742
O 7.4230021 15.6750044 -2.1520006
H 6.9910020 14.7950041 -2.1810006
H 7.2850020 15.8850044 -1.1540003
O -6.8246308 -7.6415070 2.5061340
H -7.2389164 -6.7764142 2.3216958
H -6.0709336 -7.3404136 3.0576409
O -4.3675746 11.7991465 -2.4959205
H -3.5695963 11.6099841 -3.0300767
H -5.0703796 11.7319074 -3.1643407
O 7.9048219 -7.0904492 -3.2722613
H 7.9926662 -6.8329281 -4.2221156
H 8.6831168 -6.6415835 -2.8920844
O 9.8130027 -2.0280006 12.7670036
H 9.0650025 -1.5500004 12.3180034
H 9.7580027 -1.5340004 13.6710038
O 9.3481374 8.4868198 -0.8234852
H 9.5877995 9.2147592 -0.2103025
H 8.6273858 8.0917880 -0.2971269
O -6.4850018 -12.6270035 -1.4980004
H -7.3370021 -12.1580034 -1.6780005
H -5.9750017 -12.4050035 -2.3240007
O -7.3780021 -7.9480022 15.9800045
H -7.7090022 -8.8570025 15.8840044
H -7.9140022 -7.6400021 15.2910043
O -3.3743967 8.4198301 -3.3074784
H -3.9789292 7.8791988 -3.8605078
H -3.8608983 8.3953577 -2.4689229
O -7.8410022 9.2650026 14.2530040
H -7.8790022 9.4620026 15.1970043
H -7.8640022 8.2950023 14.3040040
O 10.4430029 -8.6420024 -3.7960011
H 10.4460029 -9.2780026 -3.0840009
H 10.3850029 -7.8080022 -3.3560009
O 12.9460036 8.6840024 -4.3160012
H 12.0610034 8.5070024 -4.0430011
H 13.4290038 8.0440023 -3.7950011
O -9.8060027 -6.8160019 -5.4200015
H -9.0520025 -6.1820017 -5.4030015
H -10.4060029 -6.5170018 -4.7250013
O -7.4190021 -7.8320022 10.9260031
H -6.5220018 -7.8810022 11.2720032
H -7.7930022 -7.2770020 11.5720032
O -5.7686022 9.4128082 -6.0351908
H -5.5807658 8.6411641 -5.4526397
H -5.1825392 9.1637802 -6.7794550
O -7.6260021 11.2030031 9.0480025
H -7.3410021 11.8850033 8.3460023
H -7.2380020 11.6220033 9.8260028
O 12.8000036 -6.6760019 -6.8830019
H 13.7730039 -6.9340019 -6.8100019
H 12.4150035 -7.5870021 -6.6120019
O 10.5330029 10.7380030 -7.5680021
H 11.3300032 11.2270031 -7.8300022
H 10.3610029 10.9930031 -6.6430019
O 8.4060024 12.9940036 9.4440026
H 9.2060026 12.5560035 9.8910028
H 8.3760023 13.7000038 10.0700028
O -13.3720037 6.6340019 -0.5010001
H -13.9190039 7.2090020 -1.1490003
H -12.7400036 6.1660017 -1.0230003
O -0.7310091 -9.0093535 -1.2651247
H -1.0341064 -8.5563549 -0.4516825
H 0.0198108 -9.5007648 -0.8755738
O -2.3570007 -10.6970030 13.4100038
H -2.0530006 -11.6290033 13.5500038
H -1.7030005 -10.0890028 13.7720039
O -1.1433094 11.0825044 -0.2376641
H -1.0529586 11.7921630 -0.9056316
H -0.1929473 10.9642180 -0.0375563
O -1.5900004 11.1710031 14.4090040
H -0.9930003 11.7810033 14.8080041
H -2.2520006 10.9010031 15.1770042
O 15.3930043 10.3240029 -2.8200008
H 15.7090044 9.3920026 -2.9950008
H 15.5840044 10.4430029 -1.8650005
O -17.0060048 -8.4730024 -2.0390006
H -17.0330048 -8.5470024 -3.0050008
H -16.0980045 -8.0500023 -2.0280006
O -13.4830038 10.5850030 -2.9220008
H -12.5260035 10.4120029 -2.9750008
H -13.6250038 11.5390032 -3.0810009
O 4.0678050 -8.6257072 -1.6187986
H 4.4136565 -8.1933201 -2.4314814
H 3.1333414 -8.3881809 -1.6733226
O 2.0040006 -7.6460021 15.7080044
H 2.6630007 -6.9610019 15.9030045
H 1.3120004 -7.6910022 16.3690046
O 6.4750018 13.3350037 -1.8570005
H 6.4480018 12.6170035 -1.2110003
H 6.0380017 12.8680036 -2.6220007
O -11.4830032 -8.8050025 -5.0370014
H -12.0610034 -8.0510023 -4.9750014
H -10.6880030 -8.3000023 -5.4380015
O -10.2100029 10.9980031 -6.8950019
H -10.8920030 10.4410029 -7.2530020
H -9.6730027 10.3950029 -6.3840018
O 5.2585060 -7.3382546 -3.7078243
H 5.3117591 -7.7013450 -4.6136246
H 6.2163102 -7.2366829 -3.5136473
O 1.7781622 -5.7815954 10.1623529
H 1.0430903 -5.1385894 10.0614135
H 1.4469578 -6.5352669 9.6288002
O 5.3390015 13.2920037 -4.8190013
H 5.0880014 12.4900035 -5.2750015
H 4.7640013 13.9100039 -5.3040015
O 2.3180006 10.2840029 14.0620039
H 2.5490007 11.1390031 13.6690038
H 2.7610008 10.3700029 14.9140042
O -7.4860021 -9.9090028 -4.8330014
H -7.5680021 -9.9240028 -5.8070016
H -7.9290022 -10.7490030 -4.6030013
O -8.8970025 -12.0910034 12.6900036
H -9.7970027 -12.0580034 12.2850034
H -8.3750023 -12.2250034 11.8810033
O -2.6826472 6.5116791 -6.1446943
H -2.6926132 5.8130477 -5.4539338
H -1.8199672 6.9412900 -5.9530187
O -8.1780023 6.6270019 15.1950043
H -8.8730025 6.6060018 15.8090044
H -8.7100024 6.5110018 14.3940040
O 7.5790021 -11.9280033 -6.7680019
H 6.8250019 -11.5260032 -7.2030020
H 7.7770022 -11.2220031 -6.1330017
O 10.8580030 5.8230016 -6.1080017
H 10.2840029 6.5110018 -6.4670018
H 11.7480033 6.0070017 -6.3890018
O -3.6811137 -4.6538385 -6.8227550
H -4.1329459 -4.5020888 -5.9648272
H -3.1409626 -3.8475797 -6.8917974
O -5.0800014 -7.7070022 12.0540034
H -4.3330012 -8.0290022 11.4460032
H -4.5720013 -7.3000020 12.7540036
O -3.8763261 10.7396370 -8.5002191
H -3.8433010 9.7617975 -8.5643685
H -3.8456623 11.0331190 -9.4331943
O -5.9090017 12.0580034 11.0460031
H -5.8470016 11.4150032 11.7990033
H -5.0770014 11.9600033 10.5520030
O 15.9380045 -6.9120019 -8.1570023
H 15.7880044 -6.3230018 -8.9230025
H 16.6370047 -6.4960018 -7.6310021
O 11.8990033 -7.6500021 10.8090030
H 11.8190033 -7.8810022 9.8870028
H 12.7600036 -7.2190020 10.8010030
O 10.9910031 11.9890034 9.6780027
H 11.3290032 11.1290031 9.4020026
H 11.3310032 12.0300034 10.5990030
O -1.1453226 -8.7748212 -4.2456805
H -2.0427849 -8.4225223 -4.1309910
H -0.7816190 -8.6468149 -3.3495841
O -2.6250404 -4.8283811 10.7374031
H -2.3498561 -5.1468765 11.6207507
H -1.8265740 -4.3250125 10.4730807
O -0.2132395 13.1555084 -1.8564269
H 0.5336171 13.3715250 -1.2529489
H 0.2429447 12.8090570 -2.6469942
O 15.9160045 -6.6980019 -4.6690013
H 15.4380043 -5.8180016 -4.8200013
H 15.3830043 -6.9350019 -3.8810011
O 9.2150026 -8.5960024 14.5960041
H 9.0730025 -9.4510026 14.2750040
H 9.3310026 -8.1740023 13.7020038
O -17.0560048 7.9180022 -6.1490017
H -16.4260046 7.3550021 -5.7440016
H -16.6480047 8.8070025 -6.1490017
O 2.3882286 -9.3750641 -6.8680811
H 1.8426683 -9.5335996 -7.6683577
H 2.4656969 -8.4008215 -6.9403158
O -1.9001680 -11.1826761 9.1197217
H -1.6012979 -11.8613924 8.4844614
H -2.1355271 -10.4475643 8.5126349
O 2.5459372 10.1624232 -4.5529241
H 1.8364676 10.8381092 -4.5068438
H 3.1543284 10.5848259 -5.1967522
O 1.2840004 11.4190032 11.1520031
H 0.5900002 11.1570031 11.7820033
H 1.8410005 10.6000030 11.1210031
O -10.1590028 -10.9930031 -3.8910011
H -10.9080031 -11.6380033 -3.8370011
H -10.7320030 -10.2350029 -4.1600012
O -11.3070032 6.6050018 -4.7410013
H -10.7060030 6.1910017 -5.4150015
H -11.1660031 5.8980017 -4.0990011
O -12.2470034 5.9810017 11.6920033
H -12.8640036 5.2250015 11.8720033
H -12.8070036 6.7470019 11.4460032
O 9.2770026 -12.9260036 -4.6940013
H 8.6780024 -12.5130035 -5.3030015
H 8.9000025 -13.7660039 -4.7150013
O 3.3390009 -9.7610027 12.7000036
H 4.0020011 -10.1450028 12.1090034
H 3.9620011 -9.2610026 13.2640037
O 6.5428187 9.0793551 -3.9401705
H 5.7308047 8.6054957 -4.2280759
H 7.2328966 8.3964382 -4.1053641
O 7.9660022 11.7810033 12.8410036
H 7.0690020 12.1630034 12.6700035
H 7.7870022 11.0550031 12.1820034
O -5.5149897 -8.3027728 -8.7095610
H -6.1077251 -7.5268336 -8.5902014
H -4.7858953 -8.0438331 -8.1043654
O -7.7611722 -9.0890040 5.5624172
H -7.9469085 -9.4779206 4.6803944
H -7.6225685 -9.9115053 6.0768312
O -4.3060012 12.6650035 -10.5150029
H -3.8570011 13.4720038 -10.1190028
H -5.2240015 12.9370036 -10.5240029
O -3.8994407 10.2082736 8.6375370
H -3.7808269 11.1497468 8.8809050
H -3.7475618 10.2699275 7.6746293
O 13.5740038 -8.3370023 7.2710020
H 12.9980036 -8.9180025 6.6880019
H 13.8640039 -8.9530025 7.9410022
O 10.6730030 7.5020021 8.1240023
H 11.2130031 6.9390019 7.6040021
H 11.0630031 8.4060024 8.0900023
O -1.3414730 -9.1020510 -7.0561486
H -1.1346405 -9.0010181 -6.1072295
H -2.0886643 -8.4805913 -7.1519239
O -2.3170006 -8.9610025 11.2540031
H -1.4110004 -9.1560026 11.0030031
H -2.3860007 -9.5790027 12.0440034
O -4.1337123 8.0617748 -7.9246892
H -4.0717212 7.4569236 -8.6791530
H -3.6379036 7.5517883 -7.2457196
O -2.7022549 10.4425711 6.1070966
H -2.7714996 11.1504601 5.4232249
H -1.9635106 10.7923268 6.6380093
O 14.2380040 -6.1100017 10.3710029
H 15.0380042 -6.1350017 10.9100031
H 14.0000039 -5.1690014 10.2130029
O 12.2030034 9.8900028 8.5920024
H 12.4180035 10.1900029 7.6800021
H 13.0350036 9.5570027 9.0790025
O -5.3120015 -11.8790033 -6.7480019
H -5.0120014 -12.3440035 -7.4980021
H -5.9740017 -11.2950032 -7.1990020
O -5.7920016 -13.6140038 12.4840035
H -5.1840015 -13.4260038 11.7520033
H -5.4840015 -12.8670036 13.0970037
O -2.4436338 4.3893291 -4.3746451
H -3.0763891 3.9702730 -3.7480184
H -1.6178263 4.3486164 -3.8613905
O -4.8950014 8.4260024 10.5160029
H -4.5230013 8.9270025 9.7600027
H -5.3150015 9.0860025 11.0520031
O 9.9370028 -11.0980031 9.4260026
H 10.5550030 -11.8210033 9.4730027
H 9.1310026 -11.6300033 9.1330026
O 13.0860037 9.2060026 -9.4280026
H 12.9400036 8.9830025 -8.5150024
H 14.0260039 9.0670025 -9.4880027
O 11.9690033 8.7900025 11.8260033
H 12.3960035 8.0680023 11.4240032
H 12.4010035 8.7940025 12.6940036
O -12.5720035 -7.1800020 -7.9840022
H -13.3660037 -7.5500021 -7.5330021
H -12.1830034 -8.0230022 -8.3260023
O -14.1610040 8.7110024 8.0260022
H -14.2950040 9.1020025 8.9490025
H -13.3070037 8.2040023 8.0930023
O 9.1500026 -10.3610029 -10.8170030
H 8.2560023 -10.1020028 -10.4610029
H 9.7320027 -10.0960028 -10.1320028
O 2.7184004 -10.4680317 5.5066070
H 3.4058524 -10.0981972 6.1067441
H 3.2087649 -10.4869904 4.6605156
O 5.8601425 9.4415558 -8.2959147
H 5.7181660 8.5716901 -7.8723456
H 6.5635706 9.8094309 -7.7265531
O 3.5910010 10.6670030 8.9460025
H 3.0740009 11.3470032 9.3850026
H 3.2510009 9.9020028 9.4070026
O -10.7540030 -9.3790026 5.9810017
H -11.4240032 -9.1310026 6.6350019
H -10.0170028 -8.9930025 6.5080018
O -11.6120032 6.6380019 -9.8680028
H -10.9440031 7.2240020 -9.4600026
H -12.1320034 6.4380018 -9.0910025
O -13.4140038 8.3310023 4.5310013
H -14.2630040 8.8130025 4.4260012
H -12.8510036 9.0370025 4.8320014
O 6.1541792 -11.5643481 6.6246627
H 5.6383334 -10.7460226 6.8027939
H 6.2261820 -11.5030606 5.6533124
O 6.4967129 4.4048766 -9.9741341
H 6.1571524 4.2440507 -9.0737922
H 7.3642411 4.8131013 -9.7531251
O 4.2828316 6.5576025 7.1706532
H 4.6431620 7.4561793 7.0444730
H 3.6213766 6.7596707 7.8705731
