38
VERBATIM heavy-atom coordinates for the full VASP-optimized Sb1 precursor from jp046147k SI; hydrogens were not included in the source table; precursor was truncated/reduced for the reported CASSCF/CASPT2 model; heavy-atom formula C31N3O4
C -6.520860 1.489950 1.828820
C -7.577900 1.200420 2.912900
C -6.964470 0.546450 4.144570
C -6.391080 -0.800440 3.749270
C -5.558040 -0.765600 2.495130
C -5.566360 0.300020 1.651490
C -4.654890 0.402120 0.509630
C -3.321990 0.141140 0.542720
C -2.393050 0.204620 -0.551540
C -1.083060 -0.112940 -0.275400
C 0.005910 -0.141960 -1.191220
C 1.332900 -0.406000 -0.950610
C 2.070500 -0.643050 0.264090
C 3.393930 -1.007640 0.133430
C 4.292860 -1.330010 1.194930
N 5.488190 -1.800280 0.989560
C -7.274150 1.774730 0.521970
C -5.711830 2.746250 2.202560
C -4.780000 -2.026610 2.264440
C -2.870560 0.593570 -1.920350
C 1.431050 -0.477680 1.620340
C 3.773640 -6.324630 3.855500
C 3.966050 -7.777730 4.267960
C 5.131770 -5.675770 3.495630
C 5.000970 -4.260430 2.889540
C 6.335910 -3.668960 2.454790
C 6.293110 -2.158000 2.155820
N 3.052380 -5.519850 4.842610
O 4.195490 -8.710390 3.518630
C 6.028840 -1.271840 -5.372660
C 4.631670 -1.086810 -4.760530
C 7.100640 -0.400130 -4.652040
C 7.595060 -1.005200 -3.321480
C 6.596980 -0.936640 -2.187230
N 5.982220 -1.104070 -6.827850
O 3.975990 -1.937570 -4.208800
O 6.910640 -1.795220 -1.205340
O 5.643380 -0.153290 -2.192640
