10
Exact ACS SI CASSCF(6,6)/6-31G* geometry for 11; DOI 10.1021/jo0256991
C      -0.5433261      1.0811459      0.0000000
C       1.6343587     -0.0021171      0.0000000
C      -0.5294701     -1.1485296      0.0000000
C      -1.7924816     -0.6668794      0.0000000
H      -0.1589684      2.0786397      0.0000000
H      -0.1261108     -2.1366653      0.0000000
H      -2.7079501     -1.2177993      0.0000000
N       0.2985118     -0.0208697      0.0000000
N      -1.7986784      0.7283957      0.0000000
N       2.7710844      0.0157434      0.0000000
