26
singlet biradical 1BRxx; verbatim CASSCF(14,12)/ANO-S coordinates from ACS SI
H -0.057952 -2.416937 -0.331872
H -0.057950 2.416932 -0.331885
H 2.377152 -2.469342 -0.403547
H 2.377175 2.469340 -0.403465
H -2.490691 -2.468778 -0.491720
H -2.490710 2.468773 -0.491664
H 4.461839 -1.233936 -0.898655
H 4.461805 1.233930 -0.898806
H -4.560009 -1.233683 -1.046167
H -4.560002 1.233675 -1.046195
C -0.069267 -1.466414 0.203353
C -0.069267 1.466415 0.203352
C 1.196888 -0.700619 -0.125053
C 1.196891 0.700618 -0.125044
C -1.322276 -0.701223 -0.159584
C -1.322277 0.701221 -0.159577
C 2.376652 -1.388634 -0.403392
C 2.376659 1.388630 -0.403368
C -2.489906 -1.387569 -0.483021
C -2.489912 1.387564 -0.482998
C 3.552636 -0.690493 -0.681138
C 3.552628 0.690488 -0.681177
C -3.658966 -0.689752 -0.797783
C -3.658966 0.689745 -0.797786
O -0.023450 -1.715042 1.576624
O -0.023416 1.715092 1.576611
