30
Source-verbatim SI TS-6c-2c-n (R/U)B3LYP/6-31+G(d) geometry used for CASPT2(6,6)
C -1.87623 1.99858 0.59151
C -0.68151 1.34696 0.24413
C -0.54332 -0.02576 0.15928
C -1.67684 -0.99900 0.33533
C -3.05561 -0.58295 -0.19793
C -4.15060 -1.24866 0.30160
C -3.18262 0.45332 -1.14527
O 0.64001 -0.64147 -0.10824
Si 2.26559 -0.14489 -0.04513
C 2.65250 1.03374 -1.46731
C 3.21009 -1.75586 -0.25621
C 2.62328 0.65437 1.62398
H 3.68364 0.92975 1.69728
H -2.34108 0.83028 -1.70878
H -4.17448 0.75251 -1.47525
H -1.36927 -1.93588 -0.14548
H -1.79352 -1.23827 1.40554
H 0.15815 1.96316 -0.07359
H -2.65254 1.52528 1.17635
H -4.05197 -2.01990 1.06119
H -5.15179 -1.04464 -0.06849
H -1.94981 3.07690 0.47985
H 2.17177 2.01212 -1.35244
H 3.73520 1.20617 -1.53260
H 2.32664 0.61172 -2.42607
H 2.95213 -2.24104 -1.20534
H 4.29411 -1.58397 -0.25093
H 2.97668 -2.45909 0.55215
H 2.03146 1.56286 1.78285
H 2.40144 -0.03617 2.44693
