22
VERBATIM heavy-atom coordinates for the full VASP-optimized Sb precursor from jp046147k SI; hydrogens were not included in the source table; precursor was truncated/reduced for the reported CASSCF/CASPT2 model; heavy-atom formula C21N1
C -5.964380 0.626540 0.560290
C -7.282570 -0.158080 0.394590
C -7.090370 -1.662790 0.537590
C -6.148620 -2.151870 -0.551210
C -4.932600 -1.283870 -0.765280
C -4.808330 -0.045470 -0.217970
C -3.598880 0.762640 -0.323910
C -2.318590 0.322370 -0.207540
C -1.133460 1.142170 -0.285780
C 0.092670 0.533100 -0.132450
C 1.364120 1.176630 -0.197060
C 2.627910 0.652800 -0.099440
C 3.107940 -0.702000 0.086950
C 4.468560 -0.869060 0.083120
C 5.217510 -2.087220 0.211880
C 7.190070 -3.350590 0.297350
C -6.221650 2.055930 0.039550
C -5.580850 0.722180 2.051740
C -3.923790 -1.919760 -1.687760
C -1.292690 2.610640 -0.559290
C 2.160880 -1.856250 0.256280
N 6.512470 -2.075110 0.189350
