17
Source-verbatim SI TS-5-6 (R/U)B3LYP/6-31+G(d) geometry
C 2.53478 0.83469 -0.17660
C 2.06501 -0.45761 -0.35752
C 0.86861 -0.99778 0.11466
C -0.17550 -0.26559 0.91440
C -1.39883 0.13675 0.07990
C -2.21981 -0.86457 -0.43854
C -1.65850 1.48156 -0.14497
H -1.02927 2.26319 0.26968
H -2.50365 1.79473 -0.75253
H -0.51350 -0.91485 1.73472
H 0.25115 0.62783 1.38082
H 2.69833 -1.13247 -0.93458
H 1.98153 1.58395 0.38134
H 0.65062 -2.03399 -0.13643
H -2.02250 -1.91732 -0.25888
H -3.09330 -0.61898 -1.03610
H 3.48799 1.14210 -0.59478
