19
2a (NN) open-shell singlet; source-verbatim CASSCF(14,12) optimized coordinates from JA043988W SI
C       -1.952911       0.922741      -0.680282
C       -2.980877      -0.624368       0.496261
C       -3.207791       0.459791      -0.389788
C        0.326643       0.264571       0.055517
C        0.915340       1.440170       0.280194
C        2.355808       1.582505       0.280206
C        3.171971       0.446799       0.100225
C        2.610650      -0.792194      -0.093197
C        1.147283      -0.945388      -0.202953
N        0.649530      -2.055694      -0.573172
N       -1.074150       0.138024       0.002938
N       -1.699062      -0.802486       0.722553
H        4.240954       0.549875       0.136698
H        2.788014       2.548140       0.455155
H        0.310146       2.306464       0.475643
H       -3.698463      -1.265594       0.964634
H       -4.141082       0.824424      -0.762883
H       -1.612414       1.704367      -1.324268
H        3.208943      -1.671754      -0.229880
