3329
4-thiothymidine T2-MIN; verbatim full 3329-atom QM/MM coordinates from ACS SI
N 0.6397419 -0.3911193 -0.9541762
C -0.4898407 -0.3954014 -1.8515744
C -0.5549261 0.5788978 -2.8566573
C 0.4226793 1.5427578 -2.8896075
N 1.5117809 1.4690710 -1.9970229
C 1.6839465 0.4823933 -1.1247808
C -2.1168223 -1.2450094 1.7064947
H -2.8018313 -1.4121225 0.8724291
H -2.6384283 -1.4863231 2.6352582
C -0.8790518 -2.1449393 1.5802632
H -1.1958763 -3.1505669 1.8508362
O -0.4020341 -2.2419950 0.2207655
C 0.8011234 -1.4524490 0.1024408
H 1.6270817 -2.1383792 -0.2027186
H -1.2244458 -1.1658925 -1.7465511
C -1.6905086 0.5086635 -3.8436744
H -2.2265125 1.4457981 -3.8839104
H -1.3205857 0.2695630 -4.8313869
H -2.3994086 -0.2525239 -3.5577556
H 1.9938693 2.3840768 -1.7600635
O 2.7514856 0.3379687 -0.5045009
C 0.2810327 -1.7026876 2.4545489
H -0.0431471 -1.1163835 3.3162666
C 1.1108120 -0.8652010 1.5038920
H 0.7323519 0.1596080 1.5486180
O 0.9741248 -2.8616813 2.9750902
O 2.5233643 -0.7891690 1.7903481
H 2.8577266 -0.3257007 0.9603827
H 1.0285942 -3.5522364 2.2688932
O -1.8258862 0.1528227 1.7535907
H -2.6157879 0.5521222 2.1962979
S 0.5435974 2.8110540 -4.1549565
O -13.2220037 2.3610007 -3.2990009
H -13.2790037 2.6980008 -4.1580012
H -14.1220040 2.0690006 -3.0750009
O 1.2560004 -15.7570044 -1.4500004
H 0.9160003 -15.7940044 -2.3930007
H 0.5620002 -15.1610042 -1.1050003
O 4.3165243 -3.2831192 0.1575081
H 4.6833470 -3.0991982 -0.7343044
H 4.1124050 -4.2246805 0.0514674
O 3.0790009 2.5840007 16.4080046
H 3.6480010 3.3420009 16.1760045
H 2.2090006 2.9160008 16.3270046
O 1.8570005 19.4680054 -2.9100008
H 1.0590003 18.9360053 -2.9230008
H 2.5190007 18.9570053 -3.4510010
O -15.6390044 0.8660002 -2.5550007
H -16.3330046 0.5060001 -2.0000006
H -16.2250045 0.9490003 -3.3350009
O 3.5110010 -14.7870041 0.0920000
H 2.7030008 -15.1600042 0.4820001
H 3.3340009 -15.1010042 -0.8120002
O 2.2820006 0.2210001 -19.1820054
H 2.3510007 0.7400002 -18.3970051
H 2.0940006 -0.7160002 -18.8820053
O -8.0660023 -16.6670047 1.8350005
H -8.3200023 -17.4640049 1.3500004
H -8.0450023 -15.9360045 1.1740003
O -6.9427717 3.2506145 2.1073155
H -7.1884948 4.0272080 1.5658781
H -6.7064004 3.6960342 2.9420522
O 11.1532651 -0.2469304 0.8757684
H 11.6570651 -0.7208795 1.5766540
H 11.1468364 0.6472604 1.2405018
O -14.4160040 3.3100009 -0.3490001
H -13.4700038 3.5680010 -0.3200001
H -14.8050041 3.4420010 -1.2650004
O 7.3190020 -14.5080041 -1.1390003
H 6.8100019 -14.4100040 -0.3040001
H 7.2660020 -13.5580038 -1.5450004
O 7.9200022 0.9820003 -17.6480049
H 8.0760023 0.0290000 -17.4910049
H 8.8040025 1.3000004 -17.3330049
O 2.3840169 3.7699323 -1.2364304
H 2.8214017 4.1433122 -0.4378316
H 1.8473633 4.5539422 -1.5016670
O 0.9828194 0.3709630 11.3202800
H 0.0980768 0.3842518 11.7342744
H 0.8769802 1.0948650 10.6562170
O -2.3940007 -14.7170041 -1.4440004
H -1.8350005 -15.4330043 -1.8090005
H -1.7480005 -14.1310040 -0.9410003
O -3.6560010 5.1860015 -17.6390049
H -3.6850010 4.3930012 -18.2250051
H -3.7500010 4.9520014 -16.7040047
O -6.4492811 1.9496496 -1.1249755
H -5.9543007 2.7078900 -0.7499542
H -6.3171680 1.2940889 -0.4063275
O 10.8570030 -15.2270043 -2.7490008
H 11.7160033 -15.1520042 -2.2770006
H 10.9020031 -14.5920041 -3.4690010
O 13.3630037 3.8550011 1.6850005
H 13.4890038 2.9280008 2.1630006
H 14.2750040 4.1680012 1.5700004
O -9.1720924 -1.6979524 -5.3397234
H -8.5241227 -1.2903840 -5.9562495
H -9.9239452 -1.8314202 -5.9598498
O -8.9420025 -5.9920017 12.3410035
H -8.6070024 -5.6600016 13.2350037
H -8.5070024 -5.3400015 11.7390033
O 9.7606874 -3.4256311 -5.0040665
H 10.6010182 -3.9192075 -4.9240262
H 9.8181676 -3.1593375 -5.9485755
O 9.7860027 0.1920001 14.5570041
H 8.8640025 0.3450001 15.0050042
H 9.7020027 0.9100003 13.8840039
O -4.5520013 0.3510001 -18.6490052
H -4.7830013 -0.5720002 -18.8840053
H -3.6500010 0.4980001 -19.0090053
O -8.9480447 1.8823287 0.8562648
H -8.2191195 2.2938016 1.3676087
H -8.8030271 0.9398362 1.0343172
O 8.5450024 -1.4890004 -16.5020046
H 9.2190026 -2.2050006 -16.6950047
H 8.2660023 -1.7790005 -15.5900044
O 10.8402593 0.4489752 -1.8949506
H 10.2897333 -0.2659720 -2.2784082
H 10.9440410 0.1519961 -0.9702336
O -18.7610053 -6.3820018 -1.4570004
H -18.3970051 -7.2910020 -1.4930004
H -18.0480051 -5.8470016 -0.9820003
O -11.7173852 4.2105449 -0.6029549
H -11.5152632 3.2535440 -0.5001639
H -11.4148765 4.3458042 -1.5211114
O 1.1001134 -10.5342728 0.1595659
H 0.6927387 -11.1074578 0.8472090
H 1.3646990 -11.1899770 -0.5104921
O 0.7473089 5.4569205 2.2226904
H 0.1809998 5.3194280 1.4311065
H 1.6412069 5.3741734 1.8209381
O 0.6400002 6.1370017 17.3010048
H 0.3720001 6.3830018 18.1220051
H 1.4950004 5.7600016 17.5540049
O -16.8320047 3.3460009 1.1310003
H -17.4500049 3.7350010 0.5020001
H -16.0480045 3.2180009 0.5580002
O 1.8020005 -18.0550051 1.7210005
H 2.0870006 -17.7560050 2.5900007
H 1.6380005 -19.0430053 1.9460005
O 0.1790001 3.1610009 -17.0310048
H 0.0250000 4.0810011 -17.4470049
H 0.7140002 3.4640010 -16.2400045
O -1.0381467 4.9197639 0.1423083
H -1.2891231 3.9668522 0.0816457
H -1.9170397 5.3464597 0.0673059
O 17.7410050 1.7230005 -1.9780006
H 18.3480051 1.1930003 -2.4890007
H 17.0520048 1.1080003 -1.7660005
O -6.5590018 -6.9800020 -12.4030035
H -5.9000017 -6.2920018 -12.4010035
H -6.2540018 -7.6100021 -13.1090037
O -7.7652613 -5.0704249 3.0580702
H -7.3754609 -4.3007654 3.5210171
H -8.3071386 -4.6047190 2.3846377
O -6.9880020 11.7150033 -13.8220039
H -6.9770020 12.4740035 -13.3070037
H -6.1750017 11.7680033 -14.2810040
O -7.5300021 16.3790046 -0.7660002
H -6.8580019 15.8030044 -0.3520001
H -7.4810021 15.8290044 -1.6200005
O 9.3893663 -6.6904292 1.9867505
H 10.2603303 -7.0459094 2.2479373
H 9.2278590 -6.0467685 2.7080726
O 10.9890031 12.2640034 -1.2580004
H 10.7160030 13.1540037 -0.9770003
H 10.6630030 12.2160034 -2.1780006
O -15.0590042 -3.7000010 -1.5480004
H -15.7440044 -3.6270010 -2.2360006
H -15.0710042 -2.6890008 -1.2730004
O 2.2470006 -2.2720006 -18.1530051
H 1.8080005 -3.1660009 -17.9430050
H 2.9350008 -2.5990007 -18.7430052
O 3.1984748 -6.3836182 1.9986546
H 2.9481408 -7.3285068 1.9668642
H 2.3478716 -5.9470642 1.7885883
O -0.0380000 -4.3410012 17.5470049
H 0.2170001 -4.4020012 16.6370047
H -0.8050002 -4.9430014 17.6360049
O 3.5720010 17.8050050 -4.1120012
H 4.5470013 17.7970050 -4.1570012
H 3.4240010 16.9230047 -3.6500010
O -2.7680008 -5.8890016 -17.9160050
H -1.9280005 -5.6120016 -18.3510051
H -2.7260008 -6.8960019 -18.0800051
O -5.4272601 -6.6692321 -1.4705250
H -5.7424901 -6.8817396 -2.3724388
H -5.7727609 -7.4680777 -1.0183004
O -7.7830022 -4.7940013 14.3360040
H -7.4310021 -4.8730014 15.2010043
H -7.2610020 -3.9900011 14.1550040
O -3.8890011 15.0050042 -2.1220006
H -4.1890012 15.9380045 -2.2300006
H -4.2450012 14.5910041 -2.8410008
O 15.2830043 -2.7450008 -4.4390012
H 15.8410044 -1.9120005 -4.3270012
H 14.4610040 -2.5930007 -3.9380011
O -14.7820041 -7.0280020 -2.1460006
H -14.5000041 -6.6220019 -1.3420004
H -14.0330039 -7.5740021 -2.2810006
O -13.0630037 13.3900037 -2.9660008
H -12.4810035 12.9610036 -3.6420010
H -13.2990037 14.1460040 -3.5320010
O 4.4411278 -5.5295162 -1.7588258
H 5.2695837 -5.5115919 -1.2329204
H 4.7103713 -6.0987539 -2.5068695
O 2.8160008 -1.7670005 16.3250046
H 2.9320008 -2.1720006 17.2220048
H 3.2180009 -2.3680007 15.6650044
O 6.1610017 17.4020049 -3.8660011
H 6.4530018 16.6980047 -3.2620009
H 6.3600018 17.0880048 -4.7370013
O -4.9510014 -2.3400007 -18.9020053
H -5.3340015 -3.1830009 -18.9740053
H -4.4070012 -2.4870007 -18.1140051
O -8.4360270 -0.9775115 1.2103997
H -8.2525446 -0.7538068 2.1479748
H -7.6196504 -1.4775441 1.0006583
O -4.1510012 19.0830053 0.4430001
H -3.8220011 19.3080054 -0.4300001
H -5.1130014 19.2780054 0.3800001
O 12.7100036 0.2510001 -4.0510011
H 12.5370035 -0.7410002 -3.7980011
H 12.0320034 0.6590002 -3.5060010
O -2.2080006 -18.0080050 -0.3020001
H -2.7660008 -18.8190053 -0.1540000
H -2.2990006 -17.7980050 -1.3060004
O -3.7185911 -2.2442881 -1.4935429
H -3.6710377 -3.0963928 -1.0092028
H -4.6181922 -2.3216938 -1.8879914
O -7.1420020 -1.3160004 17.3150048
H -6.4210018 -1.6400005 16.8060047
H -7.8430022 -1.1380003 16.5990046
O 18.1500051 -2.2520006 -1.7830005
H 18.9000053 -1.7270005 -1.6350005
H 17.9500050 -1.8280005 -2.6090007
O -7.7920022 -4.1490012 -12.5320035
H -7.8490022 -3.5440010 -13.2920037
H -8.6080024 -4.8160013 -12.6390035
O -9.8192869 -2.5481907 6.5736707
H -10.2813940 -1.7631103 6.2161084
H -10.5879608 -3.0674912 6.8859020
O -9.5630027 13.9430039 2.8650008
H -10.2170029 14.7090041 2.9770008
H -9.9800028 13.2980037 3.4970010
O 9.0130025 -4.6630013 -13.2630037
H 8.4100024 -4.7070013 -14.0780039
H 8.6090024 -5.3950015 -12.7530036
O 9.5469508 -5.1246956 4.2550354
H 8.9834814 -4.6481247 4.8979814
H 9.7560795 -5.9263299 4.7665871
O 8.8020025 16.7050047 4.7590013
H 7.8470022 16.7150047 4.4780013
H 8.9110025 15.7470044 4.8090013
O -3.5270010 -3.7980011 -14.1270040
H -2.6640007 -4.3430012 -14.1830040
H -4.0620011 -4.3400012 -13.5190038
O -4.9094356 -6.5683221 4.1486002
H -4.9151352 -5.6564613 3.7945405
H -5.3458762 -6.4802095 5.0172875
O -7.1440020 13.9400039 1.8020005
H -7.4750021 13.3210037 1.1560003
H -7.9300022 13.9510039 2.4060007
O 13.7900039 -5.3760015 -2.4890007
H 13.2940037 -5.6660016 -1.6650005
H 14.6620041 -5.1250014 -2.1140006
O 14.0230039 13.0250036 0.8850002
H 14.7370041 13.4770038 0.4480001
H 13.9180039 13.6090038 1.6030004
O -15.9460045 4.4580012 -2.4050007
H -16.4020046 3.9350011 -3.1320009
H -15.1900043 4.9850014 -2.7210008
O 2.2180006 -16.9780048 -5.1200014
H 1.8810005 -17.1470048 -6.0190017
H 2.2420006 -17.8190050 -4.6700013
O -0.0560000 -13.6800038 12.4980035
H 0.0220000 -14.4210040 13.1220037
H 0.8500002 -13.2740037 12.7570036
O -0.0286992 3.6383083 12.6673063
H 0.1500747 4.3845067 13.2809049
H -0.9853671 3.5021731 12.7598632
O -18.5520052 2.9300008 3.7940011
H -17.9840050 3.1780009 3.0810009
H -18.0630051 2.1400006 4.1940012
O -4.8240014 -16.7640047 0.4300001
H -4.8370014 -16.2180045 1.2170003
H -4.0400011 -16.4990046 -0.0160000
O -1.8070005 1.5020004 -17.4900049
H -2.0570006 1.2400003 -16.5590046
H -1.0580003 2.1260006 -17.4290049
O -2.5110007 19.0510053 2.6990008
H -3.1350009 19.1360054 1.8620005
H -3.0680009 19.3230054 3.4840010
O 16.4920046 3.9830011 3.3480009
H 17.3590049 3.7670011 2.8630008
H 16.4560046 4.8620014 2.8930008
O -14.8940042 -5.6620016 0.6570002
H -15.1510042 -4.9500014 0.0880000
H -14.7850041 -5.1440014 1.5240004
O 6.6375602 -5.5548991 -0.1424061
H 6.6397548 -5.1150653 0.7412114
H 7.5457121 -5.3256973 -0.4215076
O -5.2010015 -4.9240014 -18.4350052
H -5.4200015 -4.8350014 -17.5020049
H -4.4080012 -5.4010015 -18.3160051
O -6.1150061 -2.5134154 1.0632422
H -5.5934303 -3.0646126 1.6811221
H -6.4396316 -3.2249917 0.4580781
O -3.0720009 14.7530041 0.9880003
H -3.0890009 13.8330039 0.7280002
H -3.0300008 15.1750042 0.1050000
O 13.4170038 -2.4810007 -0.9530003
H 13.3060037 -3.3940009 -0.5410002
H 13.4510038 -1.9040005 -0.1890001
O -5.7220016 -15.3570043 2.6700007
H -6.0890017 -14.4810041 2.6190007
H -6.4090018 -15.8680044 2.2550006
O -4.2250012 5.3950015 -15.0470042
H -4.6400013 4.6080013 -14.5650041
H -3.2600009 5.2460015 -14.8950042
O -3.7832073 3.8567822 2.4403926
H -2.8387717 3.7739291 2.6943445
H -4.0017750 4.7277119 2.8365147
O 11.8810033 -14.1840040 2.1090006
H 11.3470032 -14.9260042 2.4310007
H 12.7990036 -14.5440041 2.0890006
O 16.6280047 8.2530023 3.2120009
H 17.4000049 7.7030022 3.2600009
H 17.1360048 9.0680025 3.3800009
O -6.4034057 3.3748595 -4.4548555
H -5.6602912 3.2482109 -3.8371459
H -6.0340362 4.0102121 -5.0967803
O -9.5660027 6.5370018 12.7180036
H -9.0680025 7.1420020 12.0870034
H -10.4390029 6.5470018 12.2640034
O 12.9370036 -13.8750039 -4.1800012
H 13.7530038 -13.9040039 -3.6610010
H 12.8400036 -12.8940036 -4.3910012
O 10.9027022 2.9565489 -2.9698526
H 11.5828849 3.1968788 -2.3057274
H 10.6639717 2.0691106 -2.6237278
O 7.2780020 3.6230010 15.3510043
H 7.1360020 3.9330011 16.2500045
H 6.9940020 2.6930008 15.4460043
O -14.5390041 -10.2520029 -0.3070001
H -14.8730042 -9.5330027 0.2280001
H -14.9120042 -10.9050031 0.3420001
O -9.7005760 6.1080360 3.7098356
H -10.2602039 6.0298288 2.9059433
H -9.0018696 6.6912536 3.3644337
O 7.7580022 -14.8240041 2.3460007
H 7.1890020 -15.5800044 2.3960007
H 7.0310020 -14.1660040 1.9950006
O 6.0799707 7.2401257 -1.3204459
H 5.1268781 7.3633847 -1.1097419
H 6.1989653 7.8715244 -2.0558736
O -10.9979642 -5.6199039 2.8541518
H -10.5146549 -4.9080144 2.3892687
H -10.3154118 -5.9625095 3.4610474
O -10.3060029 13.4760038 -0.2670001
H -10.6470030 14.0130039 0.4880001
H -9.7410027 12.7630036 0.1930001
O 7.2031741 -8.3969378 2.6899489
H 6.7356560 -8.3415282 1.8322349
H 8.0637967 -8.0067112 2.4366073
O 9.0340025 14.7620041 1.9870006
H 9.9980028 14.9100042 1.8300005
H 9.0750025 14.2920040 2.8740008
O -17.4190049 7.3950021 -0.0480000
H -16.8920047 7.8060022 -0.7210002
H -18.1870051 8.0560023 -0.0930000
O -0.4460001 -9.1550026 -17.4820049
H -0.4360001 -9.8370028 -16.7780047
H -1.3430004 -8.9670025 -17.6490049
O -1.1774900 -8.0645529 1.3575251
H -1.5670259 -7.1659724 1.3997962
H -0.5474864 -8.0019806 2.1047354
O -3.0990009 -9.1880026 16.4430046
H -3.7470010 -8.6730024 15.9640045
H -2.2920006 -9.1510026 15.8820044
O 1.5210004 14.0460039 0.0620000
H 2.4390007 13.8720039 0.3370001
H 1.1920003 14.4860041 0.8540002
O 15.3060043 -8.2090023 2.8280008
H 15.6150044 -9.1660026 2.8620008
H 15.4000043 -7.9880022 3.7690011
O 15.4460043 10.7520030 -0.1100000
H 16.0220045 11.1870031 0.5030001
H 14.6660041 11.3470032 -0.0430000
O -13.5510038 7.8710022 -5.9490017
H -12.6470035 7.4420021 -5.7960016
H -14.0260039 7.0720020 -6.3110018
O 3.4380010 -12.9130036 -4.9810014
H 4.2160012 -13.3870037 -4.6520013
H 3.4340010 -12.1870034 -4.3000012
O 1.6960005 -10.7140030 16.5440046
H 2.3710007 -10.5890030 15.8370044
H 1.9250005 -9.9760028 17.1230048
O 4.6935310 3.8397413 -3.6358416
H 3.8816160 4.3898328 -3.6464139
H 5.3614022 4.5146910 -3.4688170
O 0.6620002 5.4570015 14.6310041
H 1.4770004 6.0670017 14.6520041
H 0.5090001 5.4470015 15.5530044
O -10.9150031 -11.3250032 -0.5910002
H -11.3450032 -12.0570034 -0.9550003
H -11.1880031 -11.3930032 0.3100001
O -11.6725989 1.4877751 -0.6830524
H -11.9601168 1.1294419 0.1860519
H -12.4197175 1.2770973 -1.2623736
O 5.5280015 -14.0410039 -3.8830011
H 5.9610017 -13.2910037 -3.4380010
H 5.2830015 -14.5600041 -3.0940009
O 2.1830006 -12.2310034 12.2510034
H 2.5070007 -11.2960032 12.5190035
H 3.0830009 -12.6880036 12.2720034
O 2.2020006 5.3150015 -17.7290050
H 1.4090004 5.6970016 -18.1560051
H 2.3190006 5.9390017 -16.9560047
O 6.2820484 1.6447378 -2.8742229
H 5.5896713 0.9600656 -2.7299318
H 5.7241163 2.4231979 -3.0611100
O 4.6650013 4.5740013 15.3250043
H 5.4230015 4.8110013 15.8730044
H 4.0990011 5.3860015 15.2970043
O -13.1250037 -12.7670036 3.7570011
H -13.6670038 -12.7800036 4.5140013
H -12.2870034 -13.2400037 4.1270012
O -8.0230022 0.5440002 -16.5310046
H -8.2080023 -0.4560001 -16.4490046
H -8.2920023 0.6250002 -17.4190049
O -12.9070036 5.7040016 4.3420012
H -13.0100036 6.6160019 4.6610013
H -13.0750037 5.7980016 3.3940009
O 7.8080022 2.5930007 -13.0480037
H 7.4150021 1.9830006 -13.7350038
H 7.7250022 3.4740010 -13.4160038
O 3.9996464 4.5402415 5.2487860
H 3.0346869 4.6167778 5.1122592
H 4.1352852 5.2872278 5.8682595
O -17.4810049 3.1720009 -4.0950011
H -17.2990048 2.4780007 -4.7910013
H -18.3520051 2.9010008 -3.7370010
O -0.6370002 -19.4900055 -4.3850012
H -1.4890004 -19.3230054 -3.9520011
H -0.5220001 -18.6040052 -4.8050013
O 2.7778070 0.0388263 -4.8251873
H 3.2663532 -0.0290682 -3.9758603
H 2.6643867 -0.9133589 -5.0325121
O -0.5301774 -2.3880821 12.3600955
H 0.0221258 -2.3174223 13.1633033
H -1.0082920 -1.5428285 12.4005016
O 15.1860043 -1.0580003 9.8340028
H 15.0100042 -0.7410002 8.9340025
H 14.6470041 -0.5070001 10.4560029
O -15.3760043 -1.4580004 -10.2100029
H -14.9430042 -0.5990002 -10.3270029
H -14.7790041 -1.7550005 -9.5160027
O 5.5576605 0.6342964 -7.8794761
H 5.2390429 0.9830487 -7.0214681
H 6.0257225 -0.1766112 -7.5933098
O -0.0941050 -3.7881058 10.1078967
H 0.2758997 -3.1319436 9.4870664
H -0.1742718 -3.2468441 10.9305962
O -10.3815594 2.0954952 6.5005045
H -9.7590130 2.6107844 5.9427191
H -10.4844633 2.6683001 7.2878969
O 5.7860016 1.3240004 -14.8120041
H 5.1400014 2.0170006 -15.1040042
H 6.3240018 1.3390004 -15.5550044
O 8.2699556 2.7597844 1.8790943
H 8.0758846 2.1729514 1.1098456
H 7.4313028 3.2470526 1.9300605
O -9.2262885 0.6429539 -3.9387184
H -9.4246380 0.4140605 -2.9993757
H -9.3201311 -0.2377639 -4.3569575
O 4.3149054 -0.2045132 -2.5071163
H 4.6426954 -1.1149559 -2.3554880
H 3.8353954 -0.0240403 -1.6459031
O 2.6431266 0.4329120 13.4885520
H 3.3019128 1.1501436 13.5724749
H 2.2256014 0.6379989 12.6253088
O -11.1510031 -0.3150001 -14.0320039
H -11.2490031 0.4060001 -14.6780041
H -11.9410033 -0.8500002 -14.3040040
O -14.8860042 0.1630000 2.9420008
H -15.8530044 0.1200000 3.1370009
H -14.4940041 -0.3660001 3.6630010
O 3.1910009 -16.4360046 4.5060013
H 3.4040010 -17.3870049 4.5080013
H 2.3860007 -16.3830046 5.0600014
O 5.2320015 -3.3520009 -14.8320042
H 5.0230014 -2.4060007 -14.7610041
H 4.4230012 -3.8390011 -14.6980041
O 4.7545294 -1.9576752 5.4008730
H 5.2933474 -1.2626473 4.9670749
H 4.4260594 -2.4046266 4.5930744
O -2.9520008 -17.9980050 -3.3370009
H -3.9040011 -18.0270050 -3.5310010
H -2.7520008 -17.1140048 -3.6600010
O -3.6588359 0.5643876 -1.2789592
H -3.6095443 -0.4022485 -1.4192819
H -4.3382379 0.5680414 -0.5705822
O 15.2030043 0.2980001 -5.2660015
H 14.8930042 0.5390002 -6.1010017
H 14.3110040 0.1440000 -4.8250014
O 12.3990035 -0.6230002 14.9750042
H 11.4190032 -0.3930001 14.9410042
H 12.4560035 -1.4670004 14.4680040
O -0.1460000 -13.7020038 -0.3430001
H 0.3940001 -13.1370037 -0.9680003
H 0.1420000 -13.2930037 0.4610001
O -1.2270003 6.6530019 -15.5920044
H -0.7210002 6.2200017 -14.9090042
H -0.9150003 7.5990021 -15.4790043
O -0.6096225 8.0201744 2.6820933
H 0.0768340 8.7026771 2.8463692
H -0.0750494 7.2089695 2.6017616
O 14.9960042 -8.3460023 -2.4940007
H 14.3790040 -9.1540026 -2.5750007
H 14.8970042 -8.1580023 -1.5010004
O 16.4060046 3.9830011 -1.4080004
H 15.6720044 3.7760011 -1.9390005
H 16.8300047 3.0720009 -1.4430004
O -5.4520015 0.8830002 -15.7750044
H -6.3210018 0.7800002 -16.1870045
H -5.0180014 0.5610002 -16.6070046
O 15.2660043 -0.4270001 -1.3780004
H 14.6800041 -1.1510003 -1.6490005
H 15.2620043 -0.4920001 -0.3600001
O -15.6860044 -8.2440023 1.4930004
H -15.3520043 -7.5590021 0.9070003
H -16.6100046 -7.9390022 1.7500005
O -13.2690037 9.3680026 0.8700002
H -14.2360040 9.4020026 0.9040003
H -13.1410037 8.4720024 0.6320002
O 0.1206438 -12.3402833 1.9979130
H -0.6736918 -12.8446856 2.2695143
H 0.6327754 -12.3732990 2.8343771
O 2.7280008 6.8740019 -15.5300043
H 3.7220010 6.9520019 -15.5790044
H 2.4020007 7.6210021 -14.9180042
O 4.5067077 1.6976287 0.7449350
H 5.0648853 0.8953007 0.7669012
H 3.7525407 1.2844096 0.2296399
O 18.1660051 5.8390016 -2.2490006
H 18.1290051 6.4940018 -1.4960004
H 17.6840049 5.0560014 -1.8200005
O -3.7130010 -15.7530044 -10.3330029
H -3.1880009 -16.1640045 -11.0710031
H -3.1930009 -16.0270045 -9.5500027
O -3.8460011 -16.0270045 4.6380013
H -4.4780013 -16.3200046 5.3410015
H -4.5150013 -15.5820044 3.9800011
O -2.1822316 0.5142714 -11.3384280
H -1.3376590 0.7591357 -10.9019689
H -2.4270263 1.3557312 -11.7766641
O -2.3357519 2.2664948 7.1425154
H -2.8360292 3.0244948 6.7777845
H -1.7844869 1.9942366 6.3776417
O -0.2950001 18.6790052 4.3190012
H -0.6480002 18.4000051 5.1700014
H -1.1730003 18.7250052 3.7710011
O 15.3150043 3.2070009 5.6350016
H 15.7300044 3.2660009 4.7690013
H 14.6130041 2.6240007 5.3120015
O -12.3620035 0.5440002 -7.8660022
H -13.3290037 0.8050002 -7.8110022
H -12.0380034 1.2490003 -7.2880020
O -15.5090043 -0.7790002 11.4150032
H -15.3490043 -1.4120004 10.7110030
H -15.0710042 -1.1920003 12.2390034
O 7.2427722 -1.3246885 -6.7897975
H 8.0749132 -1.7376888 -7.0842407
H 7.5562252 -0.7450602 -6.0628893
O 0.6285783 2.3877941 9.5803745
H -0.1898933 2.9188411 9.6185635
H 1.0693052 2.7751519 8.8015302
O -2.9584643 1.2790215 -14.6363912
H -3.8705663 1.2461563 -14.9925073
H -3.0564806 1.9022989 -13.8907685
O -6.6581696 4.9556064 4.3074942
H -5.7854285 5.3533789 4.1092348
H -6.8698706 5.4210923 5.1418632
O -4.3990012 16.5470046 5.4800015
H -4.5430013 16.0690045 4.6210013
H -5.3920015 16.6770047 5.6990016
O 9.7283738 1.8833485 4.1610217
H 9.3584349 2.4893701 4.8359341
H 9.2662901 2.1851988 3.3526448
O -13.6570038 5.6980016 -3.5030010
H -12.9960036 6.3340018 -3.7740011
H -13.9460039 5.2900015 -4.3330012
O 1.4660004 -12.3200034 -1.9990006
H 1.0270003 -11.8670033 -2.7730008
H 2.4040007 -12.0420034 -2.1590006
O 3.5252554 7.6739209 -0.4799665
H 2.8951300 8.0149106 -1.1528708
H 3.4084957 8.3485585 0.2240387
O -1.0910003 7.8050022 15.6270044
H -0.4980001 7.2150020 16.1290045
H -0.5700002 8.0020022 14.8010041
O -3.3280009 -11.7420033 -13.2320037
H -3.1460009 -11.4460032 -12.3520035
H -3.4140010 -10.8770030 -13.7060038
O -5.9520017 -13.6930038 6.5220018
H -6.3660018 -12.7940036 6.3720018
H -6.7990019 -14.2520040 6.6080018
O -3.2355281 2.8903313 -12.3061920
H -2.6965436 3.7097091 -12.2266900
H -4.0340942 3.1705970 -11.8136793
O -3.8384805 4.5078372 6.5597573
H -4.6259982 3.9171539 6.4854458
H -4.1991030 5.1784985 7.1757499
O 14.1310040 5.9080017 -11.9960034
H 14.2920040 5.9910017 -11.0520031
H 13.4300038 5.2050015 -12.0440034
O 14.1570040 7.5580021 3.9630011
H 14.5940041 6.9160019 4.5260013
H 14.9370042 7.9000022 3.5040010
O -12.2070034 -10.7100030 -6.8700019
H -11.5750032 -11.4460032 -6.7060019
H -11.9490033 -10.0620028 -6.1740017
O -12.7310036 -11.2510031 7.6670021
H -13.3770037 -11.3480032 8.3710023
H -12.3880035 -10.3550029 7.9180022
O -8.1370023 10.1770028 -2.6820008
H -7.4000021 10.6770030 -3.0430009
H -8.6900024 11.0070031 -2.5310007
O 5.6020016 -11.0070031 -8.4050024
H 4.7170013 -11.4730032 -8.2520023
H 5.5260015 -10.6520030 -9.2830026
O 6.1856780 -5.9609039 9.7111514
H 5.4443541 -5.4490798 9.3337749
H 5.8954578 -6.8622752 9.5131207
O 7.2661130 10.3469362 -5.8912268
H 7.0016590 9.9678444 -5.0363711
H 8.1485324 10.7141757 -5.6705830
O 5.7160016 13.2040037 12.0880034
H 4.9180014 13.4300038 12.6230035
H 5.2740015 12.9030036 11.2440031
O -3.8042938 -1.7292985 -5.5639743
H -4.4355381 -1.0027206 -5.7364141
H -3.3661398 -1.8255187 -6.4296182
O -4.5940013 1.8110005 14.8890042
H -4.2610012 1.2970004 15.6630044
H -5.3440015 2.3450007 15.1810042
O 15.6680044 0.4620001 -8.5420024
H 15.6040044 -0.4250001 -8.9570025
H 15.1020042 1.0870003 -9.0310025
O 11.6590033 2.6950008 11.8360033
H 10.7470030 2.3800007 12.1020034
H 11.7810033 3.2680009 12.5980035
O -10.3930029 -13.1260037 -6.5510018
H -9.7610027 -13.4480038 -5.8340016
H -9.9820028 -13.3590037 -7.4090021
O -10.9890031 -11.8530033 10.6610030
H -11.7020033 -12.4180035 10.2330029
H -11.5280032 -11.1860031 11.2030031
O -10.0010028 8.0530023 -8.0560023
H -9.8620028 7.6750021 -7.2150020
H -9.1740026 8.4140024 -8.1720023
O -12.9030036 5.0150014 7.0770020
H -12.8850036 5.1970015 6.1150017
H -13.6990038 5.3540015 7.4210021
O 11.5190032 -12.6940036 -8.2620023
H 10.8850030 -13.1220037 -7.7420022
H 10.9010031 -11.9900034 -8.5940024
O 6.6470019 -9.5540027 11.6620033
H 6.6750019 -10.2250029 12.4160035
H 7.6260021 -9.5820027 11.4440032
O 8.7570189 5.4713964 -8.9072709
H 9.2645820 6.3038117 -8.9123780
H 8.4324540 5.4737220 -7.9911838
O 8.2156210 6.2074350 7.8275322
H 8.1853013 6.1225960 6.8520585
H 9.1265777 6.5467298 7.9564490
O -8.8730025 -15.2040043 4.0870011
H -8.8990025 -14.3900040 3.5520010
H -8.6300024 -15.8630044 3.4230010
O -7.1756132 6.4185984 6.6558652
H -7.0886631 7.3220347 7.0342378
H -6.5296058 5.9687360 7.2359408
O 11.2520031 4.1300012 -15.6760044
H 10.5260029 4.6500013 -16.0550045
H 11.0990031 3.2770009 -16.1750045
O 9.9360527 4.2951114 0.2783299
H 9.1425162 4.5290633 -0.2429642
H 9.5191288 3.7093613 0.9433246
O -8.6640024 -9.5580027 -14.7320041
H -7.7770022 -9.9310028 -14.5880041
H -8.5040024 -8.6110024 -14.8890042
O -8.7700025 -12.6810035 3.0200008
H -7.8520022 -12.4880035 2.7990008
H -8.9810025 -11.7750033 3.1840009
O -5.8050016 6.9870020 -17.7680050
H -5.1110014 6.3140018 -17.8590050
H -5.2790015 7.7730022 -17.5660049
O -4.6770836 3.8948753 -0.1924559
H -4.2710572 4.7860827 -0.2175405
H -4.5141320 3.6875048 0.7529574
O 8.6020024 -16.7130047 -1.8570005
H 9.2420026 -16.0780045 -2.3150006
H 8.0480023 -16.0750045 -1.4410004
O 7.3950021 4.6560013 -14.5760041
H 8.0500023 5.0610014 -15.2450043
H 6.5860018 5.0650014 -14.9680042
O 11.6058880 7.1527669 -1.7002030
H 12.0827721 7.9530401 -1.3777714
H 10.7307578 7.3951563 -1.3376915
O -10.3120029 -11.9100033 6.3330018
H -11.1180031 -11.9670033 6.8060019
H -10.3590029 -10.9730031 6.0470017
O -8.7850025 5.0080014 -13.4550038
H -8.7190024 4.3340012 -14.1980040
H -8.9020025 5.8580016 -13.8040039
O -9.9060028 9.5040027 5.7030016
H -10.8300030 9.7960027 5.8150016
H -10.1180028 8.5080024 5.9710017
O 7.9020022 -12.7240036 8.5810024
H 7.8950022 -13.6060038 8.1620023
H 7.2710020 -12.2310034 8.0330022
O 9.9870028 5.2490015 -11.6770033
H 9.6680027 4.7340013 -10.9250031
H 9.3150026 5.9700017 -11.7230033
O 7.9547421 5.7722883 5.1062909
H 8.5236122 6.1818787 4.4149897
H 7.0879945 5.8318640 4.6864405
O 0.1590000 -13.2930037 -14.1310040
H 0.3560001 -12.4260035 -13.7110038
H -0.3970001 -13.6290038 -13.4270038
O -1.4910004 -14.8980042 5.5800016
H -2.0240006 -14.1940040 5.9490017
H -2.1530006 -15.6180044 5.3190015
O 2.2333720 1.0045126 -11.1768835
H 1.3448186 1.1426654 -10.7868093
H 2.1527965 0.0592045 -11.4301425
O -1.4671764 5.3787525 5.4781726
H -1.6729608 6.3354332 5.4036652
H -2.2835870 5.0749756 5.9334536
O 15.7830044 5.4940015 0.9350003
H 16.2160045 5.1390014 0.1040000
H 15.3810043 6.2900018 0.5780002
O -14.9660042 8.6900024 -1.5750004
H -15.8570044 8.8240025 -2.0170006
H -14.5230041 9.5650027 -1.7910005
O 2.3021108 -8.9024885 -4.1404262
H 1.9807286 -7.9781038 -4.1835869
H 2.1956426 -9.1782973 -5.0718215
O 0.0350000 -11.0440031 11.0450031
H -0.6740002 -11.1730031 10.4110029
H 0.0600000 -11.8970033 11.5290032
O 1.7830097 8.9007184 -2.2488110
H 2.0660462 9.3154340 -3.0927138
H 0.8979633 8.5564048 -2.4953133
O 0.0150000 7.6320021 11.1670031
H -0.9190003 7.4600021 11.2370031
H 0.2120001 7.8650022 12.0950034
O -5.3110015 -15.0220042 -1.6750005
H -5.6190016 -14.0870039 -1.7840005
H -4.3420012 -14.9340042 -1.9200005
O -4.0842045 2.9843298 -2.7204887
H -4.3197574 3.4057801 -1.8656652
H -3.9946256 2.0610489 -2.4076075
O -5.7810016 6.2460017 16.3830046
H -5.9470017 6.4520018 17.3130048
H -6.6050018 6.4950018 15.9140045
O 13.2810037 -10.4440029 -1.7990005
H 14.0060039 -11.0530031 -1.5890004
H 12.5760035 -11.1300031 -1.7170005
O 14.2670040 7.0230020 -2.5910007
H 14.7850041 7.1500020 -1.7530005
H 13.3500037 6.8040019 -2.2880006
O -14.5530041 -8.8390025 -6.8440019
H -13.8960039 -9.4220026 -7.3410021
H -14.5370041 -9.2200026 -5.9890017
O -11.0440031 9.3140026 11.1830031
H -10.8320030 9.0340025 10.2630029
H -10.3570029 9.9090028 11.4420032
O 3.4090010 -11.8860033 -7.4740021
H 3.0930009 -11.1060031 -7.0240020
H 3.4600010 -12.4940035 -6.7430019
O 2.0515040 -9.9447823 9.5781009
H 1.3318660 -10.2464738 10.1638424
H 1.7065638 -9.0859058 9.2694838
O 5.2246087 7.1883173 -6.9967246
H 4.7719545 7.3916976 -6.1511605
H 4.4475067 7.0885355 -7.5918289
O 2.8030008 9.1880026 11.3370032
H 3.6540010 8.7800025 11.5150032
H 2.4500007 9.2910026 12.2620034
O -14.2470040 -10.1500028 -4.3180012
H -14.0600039 -11.1130031 -4.0830011
H -13.3650037 -9.7120027 -4.1310012
O -15.6110044 9.9300028 -5.2900015
H -15.3270043 10.2290029 -4.3570012
H -14.7550041 9.4570026 -5.4920015
O -14.6430041 7.0770020 10.7770030
H -15.1190042 6.3810018 11.2910032
H -14.5760041 6.6880019 9.8620028
O 3.6029947 -10.9942433 -3.0150422
H 4.0821685 -10.4509583 -2.3627262
H 3.0972363 -10.2715843 -3.4585177
O 0.6770002 -8.8780025 12.5090035
H 1.5930004 -8.7060024 12.7050036
H 0.7570002 -9.7360027 12.1340034
O 3.3502521 12.8239577 -1.8921536
H 3.9157582 12.0797751 -2.1977120
H 3.7586219 13.0003304 -1.0213221
O 0.0510000 8.9590025 13.5990038
H 0.9530003 9.1110025 13.7460038
H -0.4840001 9.7170027 14.0220039
O -11.8190033 -2.2580006 -11.6470033
H -11.3130032 -1.8410005 -12.3960035
H -12.0570034 -3.0470009 -12.1200034
O -14.3210040 -3.2050009 10.3560029
H -13.5610038 -3.1730009 10.9660031
H -13.9120039 -3.9060011 9.7360027
O 7.6070021 -6.9860020 -12.1660034
H 7.2490020 -7.8740022 -12.1920034
H 7.9310022 -6.9890020 -11.2180031
O 5.8704063 -3.2546800 7.5803280
H 5.4891893 -2.7341195 6.8390536
H 5.0937369 -3.7890162 7.8525707
O 5.1670014 16.0490045 7.2770020
H 5.6440016 16.5010046 7.9590022
H 4.3080012 16.6110046 7.3420021
O -7.6550021 -15.8090044 6.5100018
H -6.9340019 -16.4110046 6.1460017
H -8.1250023 -15.5900044 5.7080016
O -5.7180016 3.4910010 -13.9580039
H -5.5340015 2.7290008 -13.4190038
H -6.4600018 3.0490009 -14.5340041
O -5.9509543 2.8166776 6.7254884
H -6.4553982 3.0348503 7.5400893
H -6.1998903 1.8879268 6.5737833
O 11.4880032 -12.1060034 3.7520011
H 11.8090033 -12.4800035 4.5900013
H 11.7610033 -12.8000036 3.1540009
O 12.1730034 3.7020010 -13.3150037
H 11.3020032 3.8760011 -12.9170036
H 11.9340033 3.9340011 -14.1990040
O 11.5548546 6.0152279 1.6983838
H 12.2354062 5.3374675 1.8833694
H 10.9691275 5.5002886 1.1075538
O -3.3940009 -9.1400026 -14.1780040
H -2.9130008 -8.5620024 -13.6380038
H -4.0980011 -8.5600024 -14.6410041
O -3.4161128 -4.9122232 -0.7060898
H -2.7893492 -5.2223345 -1.3933030
H -4.1622549 -5.5291996 -0.8752896
O -5.2770015 -6.7170019 17.0740048
H -6.0510017 -7.3190020 16.8490047
H -4.9820014 -7.1100020 17.9340050
O -2.5090007 9.6440027 -13.7350038
H -2.5800007 9.5430027 -14.6670041
H -2.6270007 10.6520030 -13.5730038
O -3.7730011 12.0210034 0.2040001
H -2.9660008 11.4660032 0.1700000
H -3.9030011 12.1610034 -0.7580002
O 17.2670048 -6.2800018 1.5500004
H 16.5510046 -5.6420016 1.5700004
H 16.8230047 -7.0980020 1.6770005
O -17.4310049 -2.4460007 4.9520014
H -17.1650048 -3.3950010 4.6550013
H -16.7400047 -2.4070007 5.5620016
O 1.7060838 -6.9568364 -10.0926547
H 1.4737477 -7.8395724 -9.7279256
H 1.2497529 -6.3812024 -9.4485254
O -0.8953030 -5.9325068 5.3900381
H -0.3032099 -6.2890085 4.6968713
H -1.5400776 -6.6748809 5.4212088
O 2.8050008 11.9890034 -11.0020031
H 2.6600007 11.3520032 -10.2760029
H 2.5890007 12.8020036 -10.6130030
O 2.3290007 15.2780043 2.7610008
H 1.8680005 14.8110041 3.4970010
H 1.7620005 16.0670045 2.7160008
O -12.5950035 -4.5360013 -12.7470036
H -13.1010037 -4.8940014 -11.9280033
H -13.1470037 -4.7490013 -13.4420038
O -13.6480038 -1.3910004 4.8870014
H -13.9720039 -2.0160006 5.4800015
H -12.8420036 -1.0100003 5.2930015
O 7.5570021 -5.0600014 -15.6130044
H 6.9850020 -4.4060012 -15.2240043
H 6.8980019 -5.6980016 -15.9830045
O 1.6708619 -5.1905779 6.6479700
H 1.3912729 -4.3243500 6.2852730
H 0.8363055 -5.6756666 6.5392986
O 5.9320017 16.0170045 4.7230013
H 5.5560016 15.9300045 5.6560016
H 5.9270017 16.9830048 4.7090013
O -11.2996156 2.9392698 -7.0037909
H -10.9163018 3.4017959 -7.7817759
H -10.5144492 2.9005554 -6.4212330
O -14.6530041 -0.2880001 8.3190023
H -14.4090040 0.3590001 7.5950021
H -15.1620042 0.2840001 8.8950025
O 4.1042981 -2.6113545 -10.6222329
H 4.7524616 -1.8771392 -10.7115881
H 4.6345885 -3.3709510 -10.9276955
O 4.6180922 0.3155124 8.8361110
H 4.3798554 1.2255872 9.1160137
H 4.2142915 -0.2236500 9.5425192
O 4.4250012 -8.5980024 -10.3310029
H 4.2610012 -7.8110022 -10.8910030
H 5.2650015 -9.1080025 -10.5760030
O 1.0039773 -1.9751796 8.2102533
H 0.8682287 -2.4785393 7.3777503
H 1.5922769 -1.2800957 7.8372554
O 0.4087886 11.9848870 -4.3790184
H 0.4136598 12.4074799 -5.2596476
H -0.5136165 11.6739649 -4.2992721
O -0.6720002 15.5460044 10.7860030
H 0.1620000 15.0540042 10.5560030
H -0.7680002 15.3170043 11.7760033
O -3.4040010 -2.2010006 -16.7250047
H -3.6370010 -2.2340006 -15.8120044
H -2.5390007 -2.6470007 -16.7910047
O -4.2094220 1.1817984 2.9107518
H -4.1855626 2.1481164 2.7266799
H -4.5634370 1.1738839 3.8091308
O -0.2500001 16.6230047 1.3770004
H -1.1300003 17.0220048 1.5520004
H -0.2680001 16.7100047 0.4480001
O 12.4480035 -5.1930015 0.0900000
H 12.3970035 -6.1390017 0.2170001
H 11.8490033 -4.9150014 0.8280002
O -5.0123145 -4.6353979 -4.3767744
H -5.9044621 -4.8779187 -4.6899327
H -5.2159045 -3.8169879 -3.8774506
O -8.8980025 -1.6510005 15.3000043
H -8.6730024 -1.2080003 14.4670040
H -9.5580027 -2.3640007 15.1210042
O -2.1740006 16.9150047 -6.5670018
H -2.5900007 17.4640049 -5.8890016
H -2.3570007 17.4950049 -7.3520021
O 17.4300049 -0.7820002 -4.3570012
H 16.7540047 -0.2330001 -4.8310014
H 18.2570051 -0.5430002 -4.8640014
O 12.7380036 -3.1410009 13.6830038
H 12.1430034 -3.7730011 13.2280037
H 13.4540038 -3.0880009 13.0100036
O -13.0890037 -0.4790001 -4.2080012
H -12.4790035 0.1370000 -4.6740013
H -13.5270038 -0.8840002 -4.9910014
O 2.6398354 -2.6684434 -5.2891081
H 3.5167874 -2.8897307 -5.6714801
H 2.6437975 -3.1917508 -4.4553128
O -1.5810004 -0.6090002 15.1950043
H -0.5700002 -0.7360002 15.0600042
H -1.6670005 -0.2550001 14.3020040
O 3.3130009 14.4290040 -6.0850017
H 3.3180009 15.0780042 -6.7960019
H 2.6360007 13.7900039 -6.4140018
O -17.2580048 0.6430002 4.6940013
H -17.3130048 -0.2610001 4.4270012
H -16.9860048 0.6040002 5.6270016
O 2.9167938 -1.6385285 -8.2236453
H 3.6116587 -2.0253228 -7.6556393
H 3.2088029 -1.9664471 -9.0946292
O -1.7376467 -1.3210455 5.2195693
H -1.4263909 -0.4140969 5.0037477
H -2.4880260 -1.0836380 5.7992859
O -0.0980000 15.9520045 8.1770023
H 0.7750002 15.5650044 8.4000024
H -0.5750002 15.7770044 9.0310025
O 17.6160049 -4.0290011 7.7500022
H 17.5400049 -3.2940009 8.4490024
H 17.4600049 -4.8100013 8.2780023
O -13.8010039 -1.0060003 -1.5750004
H -14.6110041 -0.4600001 -1.5780004
H -13.3990037 -0.7980002 -2.4230007
O 0.2802551 -4.5833032 -1.3266755
H -0.4088090 -5.1164928 -1.7780391
H -0.2252776 -3.8057300 -1.0396293
O 0.8350002 -1.4380004 14.5470041
H 1.2820004 -0.8150002 13.9080039
H 1.4770004 -1.3290004 15.2500043
O 0.5640002 16.0110045 -4.7950013
H 0.5120001 15.1770042 -5.2630015
H 1.1920003 15.9160045 -4.0210011
O -5.5250015 -4.4190012 -15.7350044
H -6.3240018 -3.9870011 -15.3920043
H -4.8450014 -3.9740011 -15.1890043
O -11.2553295 -0.3427436 5.7039115
H -10.9959505 0.4524462 6.2216571
H -10.9375949 -0.0331595 4.8282370
O -2.5020007 14.9500042 -9.7500027
H -2.4200007 15.8820044 -10.1460028
H -3.3070009 15.1570042 -9.1430026
O -4.7840013 15.3660043 3.1330009
H -5.4260015 14.7330041 2.7940008
H -4.1390012 15.3130043 2.3490007
O 11.2806855 -4.2028154 2.3110424
H 11.4178884 -3.2492249 2.4755040
H 10.6662089 -4.4382834 3.0409632
O 13.5450038 13.6440038 3.4620010
H 14.2580040 12.9990036 3.8480011
H 13.1830037 13.9230039 4.3860012
O 0.2567143 -5.5112401 -8.2829648
H 0.1854101 -4.5919887 -7.9658488
H -0.5257959 -5.6063447 -8.8597764
O -5.0503915 -4.0317486 9.7089838
H -4.1972355 -4.2986734 10.1219031
H -4.8808486 -4.2554324 8.7731125
O -0.1550000 13.3830037 -9.5350027
H -0.9360003 14.0040039 -9.5800027
H 0.6530002 13.8660039 -9.8440028
O -0.7620002 12.2300034 7.6840022
H -1.1640003 12.8800036 7.0030020
H 0.0660000 12.7570036 7.9630022
O 15.1710042 -4.3760012 6.2870018
H 15.9690045 -3.9480011 6.5310018
H 14.5120041 -3.9430011 6.8450019
O -8.5833591 -6.7840513 -0.6931554
H -8.1134895 -7.6326122 -0.7359610
H -9.3652707 -6.9417859 -1.2624813
O -9.2370026 12.7670036 -2.6620007
H -10.0120028 12.6300035 -3.2230009
H -9.6350027 13.1240037 -1.9180005
O 10.3710305 -6.2451968 -2.3024047
H 10.0567947 -5.6610409 -1.5701893
H 10.8776133 -5.6198081 -2.8471481
O 6.9150019 -2.8570008 16.1870045
H 6.7520019 -3.4000010 16.9180047
H 7.8480022 -2.7380008 16.2890046
O 9.3280026 13.4410038 -3.1740009
H 9.6050027 14.1780040 -3.7570011
H 8.6210024 13.8190039 -2.5750007
O -7.4897493 -5.2143378 -5.5903488
H -7.3796281 -4.3466026 -6.0503298
H -7.2934292 -5.7721708 -6.3748915
O -7.5265433 -4.2136552 10.8598166
H -6.7023776 -4.1402206 10.3320214
H -8.1459667 -3.6387137 10.3889912
O -5.9540017 16.3770046 -5.7620016
H -6.0190017 17.1600048 -5.2000015
H -6.5090018 16.6240047 -6.5460018
O 10.1030028 -5.8530016 -7.5080021
H 10.9850031 -6.3800018 -7.5780021
H 10.1960029 -5.3020015 -8.3040023
O 12.4440035 -3.8350011 10.2750029
H 11.9740034 -3.0480009 9.8280028
H 11.7670033 -4.4940013 10.2160029
O 9.7250027 15.3230043 -5.1600014
H 10.3230029 14.8590042 -5.7220016
H 9.2020026 15.7920044 -5.8510016
O -17.6530049 -0.9360003 -1.0040003
H -18.6760052 -0.8670002 -1.0980003
H -17.5280049 -0.5510002 -0.1360000
O 2.3890007 -18.2730051 -0.9480003
H 2.1690006 -17.3260048 -1.3030004
H 2.4110007 -18.1830051 0.0730000
O 2.9410008 -0.5280001 -15.8100044
H 3.7040010 -0.8090002 -16.2980046
H 3.3140009 -0.4650001 -14.8740042
O 3.9974822 -2.9268395 2.9241946
H 4.2221190 -3.1228054 1.9916205
H 3.3219928 -2.2334135 2.7667559
O -0.3900001 -2.0270006 18.6680052
H -0.0300000 -1.2580004 18.1970051
H -0.0220000 -2.7890008 18.2050051
O 2.1300006 18.8340053 0.1270000
H 2.4510007 19.4190054 -0.5660002
H 2.1160006 17.9840050 -0.3110001
O 18.1510051 -1.2260003 3.3700009
H 18.4080052 -1.8380005 2.6110007
H 18.0860051 -1.9480005 4.0470011
O 1.3660004 -4.8160013 -17.7050050
H 0.6050002 -5.2830015 -18.1710051
H 1.7560005 -5.5650016 -17.1920048
O -2.1813525 -2.7749986 -3.6860852
H -2.8012830 -2.4312334 -4.3697638
H -2.7449565 -2.7083910 -2.8926677
O -2.6140007 -5.4430015 16.6760047
H -3.4940010 -5.7160016 17.0050048
H -2.8130008 -4.4600012 16.3510046
O -1.4400004 15.6000044 -1.4120004
H -2.3410007 15.3370043 -1.7520005
H -0.9260003 14.7790041 -1.5190004
O 16.0680045 -4.1350012 -1.6470005
H 16.7230047 -4.7930013 -1.9660006
H 16.5920046 -3.2920009 -1.7140005
O -6.0367663 -2.4358678 -2.9171256
H -6.9425645 -2.7621951 -2.7462302
H -6.2122914 -1.4966493 -3.1398152
O -7.8800022 -1.1860003 12.7690036
H -8.0720023 -1.6440005 11.9560033
H -7.0140020 -0.6690002 12.6070035
O -4.7340013 17.5420049 -2.4170007
H -5.4110015 18.1370051 -2.7590008
H -4.0650011 18.2100051 -2.2900006
O 12.1770034 -2.4110007 -3.3700009
H 12.2830034 -3.3220009 -3.5960010
H 12.3000034 -2.4570007 -2.3600007
O -17.3010048 0.4350001 -4.8700014
H -17.7980050 -0.3010001 -4.4690013
H -17.2360048 0.0490000 -5.7610016
O -0.5510609 -4.5403875 -4.8810149
H -0.1798826 -4.0516435 -5.6416907
H -1.0729135 -3.8221841 -4.4528108
O -4.9220014 -2.7900008 15.6770044
H -3.9140011 -2.8990008 15.6080044
H -5.1920015 -2.9000008 14.7340041
O 0.6960002 13.5120038 -6.8050019
H -0.1360000 13.9920039 -6.7370019
H 0.8070002 13.6400038 -7.7720022
O 14.8240041 -3.5160010 11.1820031
H 15.2270043 -2.8360008 10.6400030
H 13.8940039 -3.5850010 10.8680030
O -17.5800049 -4.0380011 0.4240001
H -17.5020049 -3.1310009 0.3910001
H -18.4780052 -4.2710012 0.1560000
O 2.5240007 -5.3990015 -14.3900040
H 2.5640007 -5.8310016 -13.5260038
H 2.4930007 -6.1180017 -15.0570042
O 6.1230370 -8.2221990 0.1306558
H 5.2877793 -8.3016161 -0.3864509
H 6.2730807 -7.2510134 0.0684637
O 7.1090020 16.1620045 0.6600002
H 7.9640022 15.7490044 1.0420003
H 6.4380018 15.7850044 1.2470003
O -16.8870047 -0.7860002 -7.1630020
H -17.1720048 -1.7110005 -7.0890020
H -17.2710048 -0.5910002 -8.0390022
O -2.1387315 -2.4301370 -7.6441572
H -2.1734242 -2.7543943 -8.5717065
H -1.1999194 -2.6252141 -7.4293954
O -5.3108343 -1.3263200 10.0797538
H -6.2516774 -1.1764438 9.8671356
H -5.2456418 -2.3011594 10.0364539
O 15.3670043 -1.8230005 -9.8670028
H 14.6530041 -2.4120007 -9.6100027
H 15.8600044 -2.3360007 -10.4330029
O 13.8450039 -2.2550006 7.3320021
H 12.9310036 -2.2880006 7.6180021
H 14.0480039 -1.4620004 6.9320019
O -11.3280032 -9.1880026 -9.5670027
H -10.7050030 -8.9270025 -10.2730029
H -10.9710031 -10.0310028 -9.2530026
O -11.9760034 -8.6760024 8.4280024
H -12.2530034 -8.6880024 9.3390026
H -11.1400031 -8.1420023 8.4750024
O -12.5660035 9.3310026 -10.7020030
H -11.9880034 10.1110028 -10.7160030
H -11.9990034 8.6250024 -11.0080031
O -12.3210034 10.1150028 6.5980018
H -11.8380033 10.6630030 7.2940020
H -13.1450037 9.9330028 7.0510020
O 4.7024096 -9.2905155 6.9298228
H 4.4234936 -8.3932113 6.6280128
H 5.1725268 -9.0739156 7.7655087
O 6.1131352 8.9070491 -10.8369792
H 6.0717114 9.1226537 -9.8878272
H 6.3610973 9.7710612 -11.2085506
O 6.7760019 7.8680022 9.4080026
H 7.2050020 8.6830024 9.1750026
H 7.3580021 7.3200020 8.8640025
O -6.5594495 1.0184542 -12.6445650
H -7.3626567 0.4720888 -12.7099990
H -6.0970125 0.5812242 -11.9165397
O -7.8950022 7.3520021 10.5790030
H -7.1600020 7.8060022 10.1000028
H -8.3030023 6.8790019 9.8110027
O 10.8420030 -14.6440041 5.7740016
H 10.0450028 -14.6990041 6.2830018
H 10.6220030 -15.0420042 4.9170014
O 12.8790036 2.1070006 5.5830016
H 13.0910037 2.0090006 6.5370018
H 11.8810033 2.1100006 5.4890015
O -0.5650002 -3.3180009 -16.2490045
H 0.3230001 -3.5310010 -16.5020046
H -0.5250001 -2.3740007 -16.0220045
O -1.9831399 -5.4821961 1.6190878
H -2.6058463 -5.2213529 0.9068104
H -2.3406647 -5.0007189 2.3851004
O -3.3790009 0.3310001 17.0170048
H -3.3590009 -0.3490001 17.6640049
H -2.7730008 -0.1810001 16.4340046
O -1.0110003 17.9290050 -3.3620009
H -0.5150001 17.3120048 -3.9410011
H -1.4410004 17.3130048 -2.7340008
O -6.3672671 -7.5945598 -3.9313754
H -6.7095617 -8.5023429 -4.1202480
H -7.0584687 -7.0673156 -4.3539168
O -5.5560016 -4.1340012 12.9760036
H -6.1940017 -4.4080012 12.3060034
H -4.8510014 -4.7830013 12.7710036
O -2.2926033 10.8926671 -4.1360416
H -2.2174863 10.8747382 -5.1109947
H -2.5716413 9.9791358 -3.9231311
O 12.1690034 -4.9550014 -4.6280013
H 12.8990036 -5.2750015 -4.0230011
H 12.2470034 -5.5590016 -5.4110015
O 10.5240029 -4.7060013 13.0740037
H 10.1480028 -3.8550011 12.7050036
H 9.7100027 -5.2650015 12.9190036
O 12.6400035 11.5500032 -3.3930009
H 13.6250038 11.4220032 -3.2070009
H 12.4510035 10.6350030 -3.6160010
O 10.8630030 7.1210020 14.6950041
H 10.4390029 7.0680020 13.7410038
H 10.4250029 6.3240018 15.0410042
O -1.5830004 -5.7960016 -15.1960043
H -2.2730006 -6.1040017 -15.8330044
H -1.3250004 -4.9150014 -15.6030044
O -6.7876319 -2.8507057 4.4087981
H -6.9069127 -2.7456369 5.3732101
H -7.1744664 -2.0034067 4.0960395
O -6.7260019 -4.3980012 17.1410048
H -6.2300017 -5.2080015 16.8280047
H -6.1550017 -3.7310010 16.8450047
O 1.9780006 16.4530046 -1.3700004
H 1.8170005 15.6310044 -0.9220003
H 2.4860007 16.1430045 -2.1250006
O 17.8070050 -2.9750008 1.2190003
H 17.4540049 -2.9810008 0.3430001
H 18.7650053 -3.1210009 1.0210003
O -0.7520002 -17.1290048 -5.9010017
H -1.4950004 -17.3320049 -6.5000018
H -0.0140000 -17.2430048 -6.5950018
O 1.0846463 0.3097570 -7.4166475
H 1.6903038 -0.3575155 -7.8149630
H 1.5701509 0.4983960 -6.5952491
O -1.5282903 0.2975594 12.5578155
H -2.0780684 0.1343747 11.7541940
H -1.8811059 1.1844524 12.8002684
O -10.2272869 0.9255117 3.4940480
H -10.9019963 0.8828578 2.7835786
H -10.0359072 1.8788130 3.5304618
O 6.2440017 -16.7970047 3.7920011
H 5.3940015 -17.1920048 3.6970010
H 6.1110017 -16.2740046 4.6550013
O 4.5340013 2.9500008 -16.7930047
H 3.6180010 3.1260009 -16.8280047
H 4.7160013 2.3500007 -17.4890049
O 5.7915453 4.1020223 0.8970684
H 6.4014878 4.2200017 0.1423130
H 5.4047495 3.2132299 0.7224332
O 1.6280005 1.9530005 19.1370054
H 1.3400004 1.3040004 18.5300052
H 0.9000003 2.6290007 18.8830053
O -15.1260042 -4.4050012 -7.2470020
H -15.9240045 -3.7480010 -7.2500020
H -15.1430042 -4.8930014 -6.3530018
O 5.6300016 -8.5420024 -6.2630018
H 5.3050015 -7.8600022 -6.8680019
H 4.9570014 -9.2040026 -6.3070018
O 2.2044721 -4.8554081 12.7220530
H 2.1450203 -5.2875857 11.8454756
H 2.9813593 -4.2833897 12.5621723
O 4.1140400 11.2067651 -6.5934329
H 3.5505468 11.1711872 -7.3883564
H 4.9033256 10.7622103 -6.9565449
O -16.1750045 3.9660011 5.9950017
H -15.8320044 3.1400009 6.2200017
H -17.1540048 4.0380011 6.0730017
O -0.6140002 -13.8930039 -11.4460032
H -0.2170001 -14.2860040 -10.6680030
H -1.0360003 -14.7140041 -11.7060033
O -0.6770002 -18.7140052 6.2110017
H 0.1540000 -18.4190052 6.4800018
H -0.8660002 -18.2750051 5.3740015
O 4.8350014 -0.9180003 -13.6690038
H 5.0680014 -0.9600003 -12.7890036
H 5.3490015 -0.1410000 -14.0230039
O -0.9917853 1.3407529 4.8795528
H -0.0089016 1.2304991 4.8907308
H -1.0760291 2.0424629 4.2028598
O 3.4610010 19.3370054 2.4380007
H 2.9510008 18.9450053 1.6390005
H 4.3590012 18.9500053 2.3870007
O -14.2500040 -1.4810004 -6.4920018
H -14.9420042 -0.9020003 -6.8740019
H -13.9180039 -2.0430006 -7.2300020
O -11.4710032 12.6340035 -4.9380014
H -10.9130031 13.2590037 -5.3840015
H -11.4940032 11.9060033 -5.5980016
O 5.6040228 -2.6380753 -2.2081439
H 6.0166675 -3.1906173 -2.9099098
H 6.4020218 -2.2142222 -1.8361490
O 4.3824957 -3.2823987 11.6515371
H 3.8353913 -2.5937555 11.2200438
H 5.2180303 -3.1696874 11.1596624
O 2.9740008 16.3710046 -8.1520023
H 2.1730006 16.9750048 -8.3040023
H 3.5980010 17.0310048 -8.5090024
O -0.5720002 -16.6810047 1.4560004
H 0.3030001 -17.1390048 1.4520004
H -1.0050003 -17.1690048 0.7060002
O -5.4748036 0.1483091 0.6926112
H -5.6474147 -0.8024877 0.8649709
H -5.1468605 0.4563851 1.5650173
O 13.6800038 1.4760004 2.9460008
H 14.5200041 1.3490004 3.3760009
H 13.1030037 1.6930005 3.7180010
O -14.9700042 1.3950004 -7.9430022
H -15.5410043 1.8840005 -8.5920024
H -15.4350043 1.5840004 -7.1340020
O 1.1780003 -14.3580040 -4.9820014
H 1.9080005 -13.8760039 -4.5220013
H 1.6190005 -15.2060043 -5.0350014
O 4.5358070 1.9536446 -5.6622834
H 4.5505315 2.5549820 -4.8892500
H 3.8500708 1.3066665 -5.3857720
O -2.8250008 2.6630007 13.0670037
H -3.5140010 2.4270007 13.7290038
H -3.3230009 3.3510009 12.6010035
O -6.0430017 -1.3960004 -14.1140040
H -6.0240017 -1.3880004 -13.1380037
H -5.8450016 -0.4420001 -14.3150040
O -10.1370028 0.5840002 10.0780028
H -10.8720030 0.0570000 9.6680027
H -10.5720030 1.4480004 9.9420028
O 12.6370035 0.8320002 -13.5610038
H 12.3670035 1.6860005 -13.1910037
H 12.8850036 0.2780001 -12.7700036
O 8.8727307 -0.4506010 5.4120078
H 8.1346030 -0.2081754 6.0187511
H 9.0680701 0.4091054 4.9845110
O 1.8164248 -1.6253476 -11.7132009
H 1.7162446 -1.9759594 -12.6241379
H 2.6320856 -2.0813076 -11.4122108
O -1.8117715 -1.7076852 8.3836281
H -1.9860282 -2.6159740 8.0405284
H -0.8374947 -1.6778184 8.3395904
O -3.9920011 15.1030042 8.9760025
H -4.8330014 14.6470041 8.8050025
H -3.4640010 14.2790040 9.0930025
O 16.2790046 0.5810002 4.1550012
H 16.8490047 -0.1870001 4.0630011
H 16.7780047 1.2380003 3.6600010
O -12.2330034 5.8710016 -12.3480035
H -11.6360033 5.0890014 -12.3900035
H -12.0540034 6.3000018 -11.5180032
O -14.6460041 10.6040030 4.3230012
H -15.2150043 10.8920030 3.5380010
H -14.9710042 11.1730031 5.0250014
O 3.4240010 -12.8380036 -13.2910037
H 3.8360011 -11.9680033 -13.5290038
H 3.1520009 -12.6540035 -12.3640035
O 1.1700003 -16.1410045 6.3610018
H 0.3060001 -15.7400044 6.0950017
H 0.8410002 -16.5740046 7.2200020
O 3.2902310 2.9629159 -12.7269596
H 2.8394638 2.2275268 -12.2572914
H 4.2045600 2.8007598 -12.4266861
O 1.2561522 5.0027510 5.0495765
H 1.1860270 5.2073757 4.0994322
H 0.3424945 5.2088198 5.3399358
O 18.9190053 1.3450004 2.7960008
H 18.5880052 0.5060001 3.1380009
H 19.4080054 1.1390003 2.0280006
O -11.2510031 -1.8240005 -7.0430020
H -11.5870032 -2.5470007 -7.6080021
H -11.3390032 -0.9440003 -7.5190021
O -11.9940034 -3.2150009 12.6320035
H -11.6630033 -3.6260010 13.5390038
H -12.6100035 -2.5090007 12.9330036
O -9.5260027 14.5750041 -5.4300015
H -9.3330026 15.3360043 -4.8460014
H -9.2890026 15.1210042 -6.2060017
O 10.0230028 -2.4520007 -7.5720021
H 10.2910029 -3.0280008 -8.3040023
H 10.5580030 -1.6290005 -7.7030022
O 7.6630021 -0.7490002 11.8860033
H 7.4320021 -1.3310004 11.1830031
H 6.7700019 -0.6330002 12.3780035
O -8.6940024 -0.9460003 -13.0360036
H -8.5800024 -1.7190005 -13.6520038
H -9.5110027 -0.5070001 -13.4220038
O -9.3053880 5.5967617 8.8291477
H -9.9548845 4.8605887 8.8663073
H -9.5013126 5.9673187 7.9504901
O 9.9750028 -15.7950044 3.2190009
H 9.5520027 -16.6400047 3.0560009
H 9.3040026 -15.2240043 2.8940008
O 10.1600028 1.6750005 -11.6550033
H 9.2650026 2.0010006 -11.9770034
H 10.2650029 0.7650002 -12.1790034
O 9.1922308 7.0505218 3.0231657
H 8.6975478 7.2236976 2.1941037
H 10.0837692 6.8420954 2.6753181
O -12.3840035 -12.3370035 -3.5350010
H -12.0670034 -12.9850036 -2.9040008
H -13.3080037 -12.8110036 -3.4830010
O -9.2641926 5.5110341 -6.1746086
H -9.1707903 4.5522669 -5.9780605
H -8.7494515 5.5821900 -7.0064614
O -13.9110039 3.9780011 12.1700034
H -13.8440039 3.3780009 12.9340036
H -14.8240041 4.2540012 12.1490034
O 8.0550023 -15.4260043 -5.0740014
H 7.2670020 -15.1690042 -4.5250013
H 7.6290021 -15.5270043 -5.9350017
O 8.3220850 7.0871355 -4.4910696
H 8.8599339 6.4601339 -3.9561809
H 8.0936484 6.5126695 -5.2484742
O 7.3280021 5.6620016 13.3570037
H 8.1830023 5.7730016 12.8460036
H 7.4210021 4.7990013 13.8110039
O -15.2290043 -12.5620035 2.1650006
H -14.3700040 -12.8650036 2.5610007
H -15.5400043 -11.8540033 2.7220008
O -12.3814476 0.3468515 1.7136586
H -13.2585371 0.4347080 2.1428304
H -12.3846840 -0.5983165 1.4608056
O 6.1580017 -17.4430049 0.7700002
H 6.0520017 -16.9440047 -0.0270000
H 5.7690016 -18.2550051 0.5710002
O 5.6164388 -0.8455536 0.8368652
H 4.9895714 -1.5721814 0.6523168
H 6.3225612 -1.0394429 0.1919607
O -3.5310010 2.3260007 18.9870053
H -3.5340010 1.7450005 18.1130051
H -4.4610012 2.1330006 19.1840054
O -18.0120050 4.9980014 -0.8700002
H -17.1890048 4.9210014 -1.4510004
H -17.8310050 5.9040017 -0.4810001
O -0.7020002 -15.9480045 -3.4170010
H -0.3280001 -15.2040043 -3.8870011
H -1.0260003 -16.4980046 -4.1420012
O -0.6510002 5.7120016 -17.9450050
H -0.8290002 6.1470017 -17.0860048
H -1.5210004 5.8240016 -18.2750051
O 0.6034371 5.7193875 -1.8988934
H 0.0087894 5.4779418 -1.1552753
H 0.1446565 6.5176824 -2.2395584
O -0.9320003 3.1660009 18.5590052
H -1.1990003 3.7740011 17.8970050
H -1.7000005 2.6190007 18.6220052
O 14.4080040 2.2360006 -2.3870007
H 14.4040040 1.3890004 -1.8580005
H 13.7480038 2.8710008 -2.0000006
O 12.0960034 4.2730012 14.1200040
H 12.8830036 4.8190013 14.2540040
H 11.3160032 4.7170013 14.5650041
O -4.4937430 3.2891008 -8.1790628
H -4.0685298 2.9898184 -7.3419844
H -4.4286380 2.4238403 -8.6532908
O -6.1110017 0.7540002 12.7640036
H -6.7210019 1.5580004 12.7370036
H -5.4660015 0.9900003 13.4390038
O 12.1580034 -0.5230001 -8.3250023
H 12.7650036 0.0570000 -7.7830022
H 11.6440033 0.2290001 -8.6380024
O 9.9930028 0.5320001 9.6150027
H 9.0020025 0.5370002 9.5700027
H 10.1960029 1.1810003 10.3220029
O -3.5270010 -15.4840043 -4.3260012
H -4.4260012 -15.0780042 -4.2400012
H -3.0370008 -14.7480041 -4.6760013
O -1.7020718 2.2688720 -0.1119283
H -2.3662733 1.7606415 -0.6133569
H -1.5046408 1.6238868 0.5922097
O 0.5330001 2.1110006 15.0860042
H 1.1340003 2.0040006 14.3240040
H -0.1240000 2.7900008 14.7510041
O 16.0470045 2.8360008 -4.6070013
H 15.4890043 2.6630007 -3.7780011
H 16.0120045 1.8850005 -5.0290014
O -17.1730048 8.2340023 4.0720011
H -17.0830048 8.2160023 5.0830014
H -16.6610047 7.4640021 3.9020011
O 0.1730000 -10.6150030 -13.2690037
H 0.8270002 -10.0750028 -12.8660036
H -0.5750002 -10.5040029 -12.5230035
O -0.5774323 -11.3440275 5.7837281
H -0.0933135 -11.8382896 5.0990894
H -0.4906216 -11.9560861 6.5380956
O 0.2548972 6.2093184 -13.3127610
H 1.1680566 5.9108747 -13.1189209
H 0.3688828 7.1851186 -13.2923552
O -2.4215219 7.8826341 4.8076391
H -2.4444950 8.7181486 5.3130836
H -1.8080689 8.0966267 4.0748218
O -2.5994317 -10.6713243 -2.4018659
H -3.2527880 -10.6202036 -1.6666399
H -1.9118740 -10.0671346 -2.0500327
O -8.3480023 -9.0120025 13.4690038
H -8.0380022 -9.9170028 13.6630038
H -8.3550023 -8.8790025 12.4720035
O -0.6412016 7.8515413 -3.0695003
H -0.5170758 7.8339541 -4.0455263
H -1.5941126 8.0707662 -3.0144728
O -2.7680008 8.6140024 13.8640039
H -2.3270007 8.3740023 14.6720041
H -2.1430006 9.2530026 13.5890038
O 11.7250033 -9.1760026 -6.4400018
H 11.4530032 -9.0900025 -5.4770015
H 12.0870034 -10.1140028 -6.3890018
O 16.7530047 7.9590022 -3.4810010
H 17.1170048 7.0770020 -3.1870009
H 15.7900044 7.6120021 -3.3390009
O 9.5980027 4.9270014 15.4950043
H 8.6650024 4.7290013 15.3320043
H 9.5500027 5.0250014 16.4620046
O -13.9880039 5.6310016 1.9490005
H -13.7670039 6.0490017 1.0430003
H -14.2560040 4.7650013 1.7790005
O 3.8260011 -13.9840039 3.3100009
H 4.3010012 -14.4810041 2.6340007
H 3.5660010 -14.7580041 3.8680011
O 1.9910006 4.0360011 -15.0200042
H 2.3340007 3.6180010 -14.2200040
H 2.5240007 4.8580014 -15.0180042
O -1.2052222 3.6841455 3.3670108
H -0.4623082 4.1139059 2.9089964
H -1.2946249 4.2677244 4.1526384
O -13.6280038 3.8050011 -5.6880016
H -13.0410036 3.5950010 -6.4430018
H -14.5150041 3.6620010 -6.1430017
O -15.7790044 2.1920006 9.2170026
H -16.3500046 2.5960007 9.9080028
H -16.4730046 1.8460005 8.5420024
O 4.6620013 -15.8140044 -5.9060017
H 3.9260011 -16.3930046 -5.6440016
H 4.6700013 -15.0780042 -5.2240015
O 4.8160013 -13.5550038 8.1700023
H 5.1050014 -12.8590036 7.5570021
H 3.9010011 -13.1700037 8.3720023
O 5.3284475 3.7491152 -7.5502859
H 4.6496376 3.4176878 -8.1724411
H 5.1321154 3.1504490 -6.7987486
O 3.8394708 2.9639592 9.2604785
H 4.5849886 3.5788470 9.1123837
H 3.1802078 3.3040287 8.6187279
O -9.9100028 8.3690023 -11.7480033
H -10.5100029 8.8210025 -12.2890034
H -9.0760025 8.8580025 -11.9710034
O -12.4860035 10.9560031 2.8690008
H -12.6410035 10.3110029 2.1880006
H -13.2630037 10.9860031 3.4070010
O 1.4786775 -12.6245764 4.3455375
H 1.9183616 -11.8956064 4.8328971
H 2.2512319 -13.1393510 4.0479455
O 2.8055257 5.6361915 -12.3515310
H 3.7691199 5.8411923 -12.3940484
H 2.8844389 4.6603888 -12.4073357
O 4.0942297 9.4909343 4.8467108
H 4.6019823 9.4061580 5.6824421
H 3.1883502 9.3900429 5.2068945
O -8.5900024 -13.7090038 -4.1450012
H -8.7930025 -14.4100040 -3.4720010
H -8.8920025 -12.9170036 -3.7590011
O -8.5070024 9.3220026 -5.3120015
H -8.4910024 8.4690024 -4.8180013
H -7.5590021 9.3650026 -5.5630016
O -11.2390031 11.4530032 8.5570024
H -10.3610029 11.3530032 8.7840025
H -11.6200033 11.4490032 9.4080026
O 8.3870023 -13.8100039 -8.8040025
H 8.3470023 -13.3350037 -7.9140022
H 7.4170021 -13.9130039 -8.8390025
O 5.7640016 -7.7810022 13.9260039
H 6.3880018 -8.0210022 13.2950037
H 6.0700017 -6.8940019 14.2700040
O 9.9460028 7.9440022 -8.0430023
H 10.4100029 8.2360023 -8.7970025
H 9.6950027 8.7650025 -7.5970021
O 7.5950021 9.5270027 11.4730032
H 8.4920024 9.1400026 11.2070031
H 7.0330020 8.8480025 11.0970031
O -5.1369106 -4.7285533 -12.1075563
H -6.0581240 -4.4010747 -12.1800064
H -5.0039650 -4.6934697 -11.1359395
O -6.1908781 -7.1049939 6.6383055
H -6.0398031 -7.6382485 7.4396063
H -6.7945222 -7.7270566 6.1771315
O -0.8640002 11.3890032 -11.3040032
H -0.6370002 12.1010034 -10.7090030
H -0.7510002 10.5740030 -10.7490030
O -3.8320011 13.5570038 6.6310019
H -3.3480009 13.4620038 5.7560016
H -3.4510010 14.4090040 6.9800020
O 11.5400032 -3.7070010 -12.6990036
H 10.6040030 -3.9610011 -12.9290036
H 11.8450033 -4.5940013 -12.5620035
O 11.5890032 -6.0850017 7.1840020
H 11.2780032 -6.8000019 6.6080018
H 12.5230035 -6.4300018 7.4250021
O 8.2550023 9.9150028 -13.4280038
H 8.4780024 10.5770030 -14.1100039
H 7.8210022 10.4450029 -12.7210036
O -11.2920032 -13.7810039 -1.4470004
H -10.7430030 -13.9600039 -0.6600002
H -10.9410031 -14.5080041 -2.0360006
O -10.8618975 4.2386662 -3.2344824
H -10.1108364 3.7140110 -2.8773328
H -11.5388257 3.5478836 -3.3598109
O 3.7790011 -16.0220045 -2.8370008
H 4.4970013 -16.6150047 -2.7730008
H 3.2210009 -16.4950046 -3.5420010
O 4.4920013 -13.5820038 12.4550035
H 4.6770013 -14.5510041 12.4000035
H 5.3490015 -13.1360037 12.2210034
O 7.9336525 0.5220578 -4.8332559
H 7.3560701 0.9113164 -4.1413229
H 8.2179763 1.3384851 -5.2966520
O 2.8443470 -1.3731528 10.3327421
H 2.2825261 -1.7469242 9.6320464
H 2.1996786 -0.7723641 10.7677203
O -6.0810017 -11.3940032 -14.3630040
H -5.6080016 -12.1820034 -14.0670039
H -6.1250017 -10.8960030 -13.5330038
O -5.9500017 -12.5750035 2.4990007
H -5.1240014 -12.4470035 2.9780008
H -5.6210016 -12.7070036 1.6270005
O -6.0850281 5.8053204 -12.4483810
H -5.7600906 5.1973450 -11.7506917
H -6.2075269 5.1386165 -13.1521134
O -8.1285896 7.9702885 2.2168253
H -8.0900105 8.2283048 1.2699778
H -8.8412648 8.5795543 2.5283747
O 10.0330028 -9.8010027 2.7220008
H 10.5860030 -10.4510029 3.2050009
H 10.7630030 -9.3260026 2.2040006
O 12.3600035 8.6370024 2.1880006
H 13.0810037 8.3910023 2.7880008
H 12.3030034 7.7080022 1.8180005
O -14.6590041 5.0770014 -9.7970027
H -15.0810042 5.3540015 -10.6530030
H -14.3980040 4.1800012 -10.1200028
O -3.3740009 -13.1960037 7.5540021
H -3.8080011 -12.3560035 7.7590022
H -4.0980011 -13.7130038 7.1560020
O -0.0657115 1.4352374 -9.8040120
H 0.3020829 1.1528038 -8.9429774
H -0.1917690 2.4002905 -9.6782586
O 0.0682570 7.7201883 6.9695540
H 0.2811873 6.9577751 7.5332031
H -0.8052592 7.9435577 7.3637815
O -3.1600009 -15.7620044 -7.2070020
H -2.7870008 -16.6180047 -7.5130021
H -3.5760010 -16.1660045 -6.4320018
O -2.6140007 -15.4080043 9.1790026
H -2.6600007 -15.0780042 10.0460028
H -2.6750007 -14.5120041 8.7740025
O 1.0930700 5.2952201 -6.1668113
H 0.7137098 4.4303349 -5.9567714
H 1.5033722 5.0996050 -7.0392020
O -2.1370006 4.3900012 15.9180045
H -3.0390009 4.1240012 15.6300044
H -1.9080005 5.0710014 15.2760043
O 16.2560045 5.2620015 -5.6980016
H 15.7270044 4.6150013 -5.1550014
H 17.0300048 4.6200013 -5.8070016
O 15.3040043 5.2850015 9.3830026
H 15.9800045 4.6950013 8.9500025
H 14.9580042 4.5410013 9.8260028
O -5.2650015 -17.5070049 -6.0490017
H -5.9320017 -17.0750048 -6.5540018
H -5.6990016 -17.3060048 -5.1950015
O -5.3280091 0.5590895 -5.8398057
H -5.6943175 0.5958129 -4.9290972
H -4.6728320 1.2837465 -5.8264937
O -7.7280022 2.7990008 13.5460038
H -8.6610024 3.0640009 13.6810038
H -7.3980021 2.6710007 14.4500040
O 13.2130037 1.2870004 -6.6200019
H 12.7800036 0.7990002 -5.8370016
H 12.9760036 2.1930006 -6.3990018
O 9.2330026 1.6670005 12.3760035
H 8.8520025 0.9170003 12.0270034
H 8.4260024 2.2380006 12.3440035
O 3.7382597 -6.3087367 -11.8340857
H 4.3816320 -5.5774727 -11.7620065
H 3.1073701 -6.1428283 -11.1065278
O 0.8128077 -5.1192934 1.3057960
H -0.1085627 -5.3750895 1.5079221
H 0.7740245 -5.0518494 0.3295872
O 3.4850010 12.0140034 3.8290011
H 2.5430007 12.2110034 3.9410011
H 3.5940010 11.0880031 4.1260012
O 18.4580052 -5.9760017 4.1250012
H 17.7280050 -6.4310018 4.5680013
H 18.0960051 -6.0240017 3.2450009
O -12.6760035 -6.2990018 -4.8780014
H -12.6070035 -5.3350015 -4.6060013
H -13.5020038 -6.4650018 -4.4100012
O 2.4599950 -4.1541545 -2.9858863
H 3.2281238 -4.5137624 -2.4858075
H 1.7497694 -4.2256611 -2.3148763
O 0.7920002 -5.0050014 15.0740042
H 1.2700004 -4.8510014 14.2040040
H 0.8580002 -5.9960017 15.0940042
O 5.1258726 10.7700221 -2.1750047
H 5.7069966 10.7422401 -1.3865791
H 5.5643068 10.1177431 -2.7560429
O 3.1070009 13.0990037 13.7850039
H 3.8380011 13.0890037 14.3960040
H 2.9160008 14.0590039 13.8710039
O -16.2080045 3.6790010 -6.5310018
H -16.6130046 3.6240010 -7.4440021
H -16.9370047 3.7800011 -5.9110017
O 0.1931041 -11.3177556 -4.2268926
H -0.5541329 -11.9109439 -4.4130131
H -0.2041463 -10.4337025 -4.3403855
O -2.7420008 -13.7770039 11.6760033
H -3.0430009 -13.6220038 12.5290035
H -1.7960005 -13.7920039 11.8560033
O 4.0512266 7.8429886 -4.6270714
H 3.5036062 7.1002045 -4.2876537
H 3.4088550 8.5843145 -4.6163246
O 0.2812009 5.8577634 9.0562399
H -0.4573889 5.2123891 9.1456181
H 0.1027187 6.4303398 9.8361593
O -16.8740047 -2.8900008 -3.5400010
H -16.6110046 -2.9760008 -4.5020013
H -17.4800049 -2.0970006 -3.5510010
O 0.4802881 -3.0167859 -6.9943640
H 0.7311002 -2.6058299 -7.8555476
H 1.2833929 -2.8016839 -6.4644848
O -2.3080006 -3.1550009 15.2930043
H -2.0230006 -2.2570006 15.2470043
H -1.4340004 -3.6290010 15.1480042
O -2.0230006 14.2850040 -6.1270017
H -2.0460006 15.2990043 -6.3200018
H -2.6740007 14.1120039 -5.3880015
O 18.1760051 -4.0540011 -5.0550014
H 17.4960049 -3.4180010 -4.8300014
H 18.0030050 -4.6610013 -4.3130012
O 13.4520038 0.2040001 11.4890032
H 12.9010036 1.0440003 11.6310033
H 12.8100036 -0.4630001 11.7050033
O -17.1540048 0.6530002 1.0540003
H -17.2540048 1.5760004 1.4240004
H -16.2150045 0.7060002 0.8970003
O 1.5420004 -2.7040008 -14.2210040
H 1.9070005 -2.2090006 -15.0060042
H 1.8390005 -3.5890010 -14.5070041
O -3.6041164 -0.1778120 6.9521718
H -3.1154171 -0.7145585 7.6100818
H -3.2443473 0.7133396 7.1530576
O 4.9720014 15.3230043 2.2750006
H 4.0290011 15.3380043 2.3560007
H 5.2340015 15.6800044 3.1440009
O 18.3110051 -3.2280009 5.1360014
H 18.0690051 -3.5260010 6.0690017
H 18.3200051 -4.1730012 4.8750014
O -16.2400045 -5.6370016 -4.1580012
H -15.7280044 -5.9630017 -3.3530009
H -16.7990047 -4.9410014 -3.8100011
O 1.5266786 -6.2638633 -4.4552619
H 1.9843481 -5.5792840 -3.9242321
H 0.6737341 -5.8029598 -4.6028207
O -0.5350001 -9.1820026 15.0460042
H 0.3530001 -9.3950026 15.4680043
H -0.1380000 -8.9430025 14.2170040
O 2.9800008 15.1970043 -3.4600010
H 3.1060009 14.3820040 -2.8840008
H 3.0610009 14.9090042 -4.2870012
O 1.6400005 14.0600039 11.1830031
H 2.4950007 14.1170040 11.5510032
H 1.2960004 13.1410037 11.1990031
O -2.1020006 -12.9230036 -3.8630011
H -2.0650006 -13.4840038 -3.0990009
H -2.1480006 -12.0500034 -3.4750010
O -4.3040012 -11.8100033 10.5040029
H -3.6470010 -11.2450031 10.0890028
H -3.6390010 -12.5580035 10.6190030
O 2.5795874 5.6729761 -3.8656826
H 2.0666792 5.4807420 -4.6790326
H 1.8683657 5.6386570 -3.1938502
O -5.2940015 10.1460028 13.0180036
H -4.6740013 9.5180027 13.4160038
H -6.2090017 10.0860028 13.4690038
O 11.7260033 5.5120015 10.2270029
H 12.2020034 5.9080017 9.4500026
H 11.7310033 4.5950013 9.8980028
O -3.6942262 -7.0806665 -4.2207406
H -4.5435388 -7.5345432 -4.0276316
H -4.0365068 -6.1584648 -4.2532775
O -3.6790010 -6.0560017 13.9640039
H -3.9410011 -5.7930016 14.8810042
H -2.7110008 -5.9930017 14.0530039
O -0.2392654 7.6655346 -5.7458065
H 0.3556243 6.9198359 -5.9842027
H 0.0553309 8.3608558 -6.3746528
O -1.5200004 12.7580036 11.8640033
H -1.6410005 12.2990034 12.7080036
H -1.8440005 13.6610038 12.1180034
O 15.3740043 -3.7410010 -7.0980020
H 16.1390045 -3.2840009 -7.4550021
H 15.5010043 -3.8020011 -6.1710017
O 11.6910033 -7.0420020 14.1090039
H 11.4510032 -6.3050018 13.5100038
H 11.2680032 -6.7480019 14.9610042
O -10.1200028 -5.7340016 -12.8480036
H -10.8760030 -5.1350014 -12.9340036
H -10.6630030 -6.4300018 -12.4240035
O -13.4110038 -5.8020016 4.1060011
H -13.7420038 -4.8980014 4.2450012
H -12.5770035 -5.6210016 3.6180010
O 7.7370022 -7.9650022 -15.3460043
H 7.8530022 -7.4420021 -14.5070041
H 7.8470022 -7.3720021 -16.0660045
O 3.7061795 -6.9370798 5.9799011
H 2.9363414 -6.3888857 6.2241342
H 4.1054318 -6.3929484 5.2777788
O 8.6640024 13.8340039 4.8770014
H 8.8590025 12.9460036 5.1340014
H 7.6770021 13.7700039 4.8180013
O -12.4770767 -2.1882044 0.5279176
H -12.9378235 -1.8037257 -0.2505141
H -11.6818268 -2.5539294 0.0946453
O 5.2710015 -0.6120002 -17.1120048
H 6.1820017 -0.9200003 -17.2510048
H 5.1890015 0.0900000 -17.8420050
O 4.8100220 -5.3739300 3.9075547
H 4.4714819 -4.4673327 3.7435014
H 4.3070804 -5.8421569 3.1964589
O 0.8620002 0.0750000 17.2950048
H 0.5690002 0.4880001 16.4330046
H 1.7950005 -0.2040001 17.1350048
O -6.2560018 -15.0960042 -5.1210014
H -6.7670019 -15.4110043 -5.8610016
H -6.8550019 -14.4200040 -4.7160013
O -6.8160019 -12.6300035 9.4980027
H -6.5340018 -13.5350038 9.2440026
H -5.9580017 -12.3000034 9.7500027
O -3.1754608 2.3546658 -6.0683843
H -2.6536200 2.9949484 -5.5473343
H -2.4957450 1.7276288 -6.3986772
O -3.7500010 5.8580016 14.4070040
H -3.9570011 6.6620019 13.9740039
H -4.2100012 5.9780017 15.2290043
O 13.6450038 5.9820017 -6.8240019
H 13.9170039 6.9330019 -6.9800020
H 14.5010041 5.7200016 -6.4580018
O 12.6590035 5.5020015 7.6250021
H 13.5260038 5.1100014 7.5490021
H 12.0090034 4.7590013 7.4360021
O -6.9013148 -3.1354234 -7.2193255
H -7.0346719 -2.1751213 -7.1073554
H -7.0329946 -3.2186049 -8.1827611
O -7.9652504 -1.1070311 9.4171454
H -8.3585529 -0.2138047 9.4323895
H -8.7292239 -1.5875402 9.8083212
O -4.6130013 15.3070043 -8.2400023
H -4.7760013 14.3420040 -8.1250023
H -4.8820014 15.6310044 -7.4000021
O 12.9740036 -3.2220009 -8.6030024
H 12.9720036 -2.3080006 -8.3350023
H 13.8640039 -3.5180010 -8.2260023
O 11.4550032 -1.6760005 8.9320025
H 10.8350030 -0.8840002 9.0730025
H 11.0630031 -2.2210006 8.1780023
O -8.5140024 -6.7220019 -14.7730041
H -7.6530021 -6.2660018 -14.4690040
H -9.1510026 -6.3090018 -14.0810039
O -11.4000032 -11.5590032 1.9900006
H -11.3070032 -10.5920030 2.2300006
H -12.0930034 -11.7870033 2.5660007
O -8.9450025 7.4990021 -14.4200040
H -9.4030026 7.9110022 -13.6710038
H -7.9730022 7.6060021 -14.2640040
O -10.6205668 6.0218780 1.1463442
H -11.1486163 5.3838909 0.6180031
H -10.8587482 6.8734340 0.7227403
O 5.6270016 -13.4880038 1.3180004
H 4.8150013 -13.6820038 0.7740002
H 5.6480016 -12.4950035 1.3490004
O 9.7099431 5.4176632 -2.8465323
H 10.5109911 5.9006338 -2.5545817
H 10.0850914 4.5231773 -3.0032055
O 4.7860013 8.3970024 15.4090043
H 4.4380012 8.9900025 16.0940045
H 5.7840016 8.4870024 15.5570044
O -6.6405419 -9.0966623 -0.8897033
H -7.3048486 -9.7463360 -1.2030982
H -5.8628608 -9.6792602 -0.8023482
O -5.7430348 7.4804132 -1.2873190
H -6.5352413 7.9153469 -0.9178961
H -6.1732555 6.6932770 -1.6736512
O 14.0010039 -7.6470021 0.2760001
H 14.4100040 -8.0470023 1.0370003
H 13.1430037 -8.0550023 0.2510001
O 13.6640038 13.8370039 -2.1020006
H 13.0480037 13.2360037 -2.5640007
H 13.0090036 14.0550039 -1.4090004
O -7.4650021 -14.6890041 0.0900000
H -7.3240020 -13.9910039 -0.5440002
H -6.4870018 -14.9990042 0.0700000
O -8.1028711 6.9078199 -4.0739597
H -8.5391683 6.2759173 -4.6806037
H -8.0394171 6.3800852 -3.2443567
O -6.5420018 3.4810010 16.1020045
H -7.1540020 3.3990010 16.8760047
H -6.4290018 4.4420012 15.9940045
O 11.4930032 -11.3860032 -4.7570013
H 11.2430031 -11.2030031 -3.8610011
H 10.8170030 -12.0570034 -4.9050014
O 11.3062146 3.1799729 -5.6537608
H 11.2680691 3.1245322 -4.6765613
H 11.2732316 4.1502375 -5.7998860
O 4.5840013 7.1010020 12.3450035
H 4.6050013 6.4410018 11.6120032
H 5.4470015 6.9570019 12.7390036
O -7.1920020 -10.0870028 -7.5660021
H -6.5600018 -9.4480026 -8.0450023
H -7.8090022 -10.3560029 -8.3390023
O -8.8400025 -10.4340029 9.5220027
H -9.4960027 -11.1360031 9.7950027
H -7.9720022 -10.8180030 9.7900027
O -7.5743248 6.0427111 -8.3253320
H -7.4367809 7.0050312 -8.4485641
H -7.8184408 5.7819633 -9.2388392
O -6.8660643 8.8039397 7.9450247
H -7.2124248 9.6203123 8.3706542
H -6.3268752 9.1965025 7.2275251
O 8.3067041 -7.0368526 7.3093760
H 9.0402347 -7.3287427 6.7401545
H 7.5798561 -7.0983745 6.6453380
O 11.7040033 8.1810023 -11.4610032
H 11.6700033 7.2600020 -11.1870031
H 12.0390034 8.6080024 -10.7040030
O 9.7120027 8.7640025 10.2080029
H 9.8920028 8.2150023 9.3680026
H 10.6330030 8.7280024 10.5970030
O -5.4270015 -13.9120039 -9.0610025
H -5.0970014 -14.4470040 -8.3220023
H -4.6260013 -14.0350039 -9.5650027
O -4.6701326 -10.8163403 6.8353659
H -4.0402980 -10.1112847 7.0839179
H -5.5018250 -10.4834233 7.2065098
O -2.6147711 5.2760198 -8.5919432
H -2.6086148 5.6838348 -7.7029400
H -3.3090308 4.5980033 -8.5029580
O -2.6392001 6.8949597 10.9012670
H -3.4384947 7.4412447 11.0451866
H -3.0218639 5.9990242 10.9695550
O 14.1850040 7.9000022 9.8470028
H 14.4640040 6.9670019 9.9260028
H 14.4370040 8.1330023 8.9400025
O -16.3750046 7.3470021 6.8350019
H -15.9250045 6.4780018 7.0370020
H -15.7180044 7.9680022 7.1240020
O 0.1410000 -13.2470037 -7.0790020
H 0.4840001 -13.6840038 -6.2700018
H 0.4700001 -12.3290035 -6.8340019
O -0.2680001 -13.1780037 7.7790022
H -0.7530002 -13.8480039 7.2530020
H 0.0530000 -13.7540038 8.5020024
O 1.5909397 7.5726309 -10.8228065
H 1.9660133 6.7948336 -11.2923419
H 1.9581335 8.2907947 -11.3863690
O 1.6022893 9.6873669 5.9892933
H 1.0744998 8.9083987 6.2996211
H 1.5369171 10.2568458 6.7672541
O 15.6070044 6.0500017 5.7300016
H 15.4580043 5.0880014 5.7680016
H 16.3620046 6.1260017 6.3180018
O -15.2710043 5.1690014 8.7660025
H -16.2210045 5.3430015 8.8880025
H -15.2500043 4.2520012 8.6470024
O 0.9770003 -14.6990041 -9.2740026
H 0.7320002 -14.3090040 -8.4130024
H 0.8380002 -15.6540044 -9.0990025
O 0.9520003 -14.4110040 10.0040028
H 0.7140002 -14.3190040 10.9110031
H 1.6930005 -13.8380039 10.0620028
O 2.9080479 7.1298634 -8.4703998
H 2.7034044 6.1726607 -8.4603463
H 2.4448576 7.3721146 -9.2981064
O 2.6207690 7.3536239 9.2044666
H 1.8119834 6.8107318 9.1679276
H 2.4461312 7.8812213 10.0042436
O -12.4230035 9.9530028 -8.0140022
H -13.2360037 9.5120027 -7.6680021
H -12.2080034 9.4620026 -8.8100025
O -11.7250033 7.6260021 8.3140023
H -11.2190031 7.4390021 7.4490021
H -11.5950032 6.7870019 8.8390025
O 5.8370016 -15.0540042 -9.3020026
H 4.9440014 -15.4680043 -9.4010026
H 6.3730018 -15.3650043 -10.0810028
O 2.5150007 -12.3870035 8.5100024
H 2.4110007 -11.5200032 8.9900025
H 1.8460005 -12.4430035 7.8090022
O 7.2492738 5.4262573 -6.5322028
H 6.6378675 4.7144532 -6.8234264
H 6.6483283 6.1839702 -6.7186881
O 2.6142742 3.0685401 11.8497069
H 2.7419447 2.9802990 10.8861810
H 1.6555512 3.2625876 11.9141656
O -7.6212273 2.6632140 -9.5330158
H -7.7108485 1.7134689 -9.7577256
H -7.9638991 2.6799323 -8.6345065
O -10.3430029 3.0870009 13.9330039
H -10.4670029 2.1570006 13.6770038
H -11.0110031 3.5800010 13.4700038
O 8.5340024 -14.0870039 11.1190031
H 9.3920026 -13.9460039 10.7030030
H 7.9600022 -13.9680039 10.3170029
O 13.4720038 2.4850007 -9.8160027
H 13.1860037 2.2640006 -10.6770030
H 12.6050035 2.3540007 -9.3570026
O 10.9130031 3.4250010 7.7140022
H 11.1500031 2.4940007 7.6930022
H 9.9600028 3.4030010 7.5120021
O -5.9470017 -15.3160043 9.2960026
H -5.5590016 -15.7310044 10.0780028
H -6.0090017 -16.0230045 8.7190024
O -3.7605532 0.8762820 -9.1178461
H -3.3270304 0.6263288 -9.9576430
H -3.0566140 0.6549110 -8.4797525
O -4.1679978 4.5593311 10.7109974
H -4.9599045 4.8166750 11.2420077
H -4.3636965 3.5943390 10.6068598
O 15.9570045 3.8590011 -9.0000025
H 15.0670042 3.3780009 -9.0380025
H 16.3160046 3.4720010 -9.8530028
O 12.9490036 1.0800003 8.3090023
H 13.3990037 0.8770002 7.4410021
H 12.4590035 0.2190001 8.4820024
O -3.3437380 -1.8941383 -11.9270652
H -2.8227172 -1.0611671 -11.8545522
H -3.1798679 -2.1521762 -12.8536849
O -1.6778753 3.9181722 9.2818935
H -2.5196211 4.0845699 9.7387643
H -1.9535554 3.2804836 8.5874740
O 16.9400047 3.7350010 7.8500022
H 16.4300046 3.5710010 7.0440020
H 17.4120049 2.9150008 7.8020022
O -14.9530042 5.9690017 -7.1940020
H -14.9910042 5.7650016 -8.1200023
H -15.3510043 5.1730014 -6.9080019
O 1.5860004 -17.0670048 -7.7650022
H 1.8060005 -17.9600050 -8.1010023
H 2.3970007 -16.6000046 -8.2100023
O 2.0287465 4.5067692 -8.5938540
H 1.2311501 4.3739184 -9.1502181
H 2.5555005 3.7072844 -8.8120356
O 1.8334656 4.0237503 7.6753652
H 1.3374661 4.7570418 8.0908371
H 1.6916526 4.2078860 6.7269582
O -8.4450024 3.0300008 -15.4250043
H -8.2830023 3.2890009 -16.3380046
H -8.3900023 2.0800006 -15.3540043
O -15.9150045 5.7330016 3.8540011
H -15.1350042 5.5520016 3.2590009
H -15.8970044 4.9860014 4.5390013
O 5.5250015 -15.5120043 6.3300018
H 4.9810014 -16.2570045 6.6260019
H 5.1430014 -14.8170041 6.9370019
O 5.7213093 2.1695155 -11.3667251
H 5.8449408 2.9239446 -10.7537075
H 6.5015056 2.3170597 -11.9403428
O 4.0012106 1.9510620 3.5148517
H 4.0476648 1.9988890 2.5370590
H 4.1047572 2.8775970 3.7821959
O 2.6840008 4.9850014 18.4910052
H 2.8150008 3.9660011 18.7090052
H 3.5380010 5.2100015 18.8230053
O -5.9198694 -1.4715523 -11.2105862
H -6.2123936 -2.2363256 -10.6794673
H -4.9608958 -1.6701528 -11.3318253
O -10.2490029 0.4360001 12.7550036
H -10.2470029 0.3830001 11.7650033
H -9.3490026 0.1040000 12.9850036
O -6.5390018 13.0630037 7.5350021
H -6.9970020 12.5880035 6.8040019
H -5.7720016 13.3510037 7.0430020
O 13.3100037 -0.0550000 -11.1490031
H 12.8120036 -0.4940001 -10.4370029
H 14.2360040 -0.3310001 -11.0060031
O 11.4744130 -1.2583271 5.4405611
H 10.5577261 -0.9104417 5.4532875
H 11.3404686 -2.0977217 5.9256027
O -1.6797932 0.3156320 -7.3144131
H -0.6981229 0.3533469 -7.3492068
H -1.8161987 -0.6429535 -7.4453376
O -4.6840839 1.9387762 10.6657057
H -5.2386058 1.3525136 11.2139942
H -3.9871813 1.3059225 10.3991130
O 18.1280051 0.7850002 -7.3650021
H 18.1940051 1.7400005 -7.3850021
H 17.2130048 0.6080002 -7.7400022
O 13.7240038 3.1080009 10.1180028
H 13.3150037 2.5850007 9.4570026
H 13.0480037 3.1820009 10.8670030
O -1.5977008 -1.0833570 -14.2960146
H -2.1239133 -0.2559559 -14.3057198
H -0.9516208 -0.8620478 -14.9910605
O -7.8300370 -0.3766481 3.8385516
H -8.6647557 0.1407641 3.8696589
H -7.3169033 0.0295193 4.5668306
O 2.2490006 19.2120054 4.9780014
H 1.2800004 19.1560054 4.7410013
H 2.7090008 19.2380054 4.1380012
O 12.2900872 -1.6813485 2.8947263
H 12.0440611 -1.4283391 3.8163239
H 13.1892801 -2.0442181 3.0462866
O 0.1713412 -2.2870439 -9.6196321
H -0.5375092 -2.6895357 -10.1424993
H 0.7543824 -1.9444085 -10.3286220
O -2.9267393 -0.1540479 10.3118179
H -2.4309965 -0.6837796 9.6512322
H -3.7955267 -0.6239725 10.2825375
O -3.7830011 17.7080050 7.7200022
H -3.7680011 17.0290048 8.4610024
H -3.9590011 17.2650048 6.8820019
O 15.0910042 0.3330001 6.5720018
H 15.4340043 0.3620001 5.6620016
H 15.9000044 0.6300002 7.0550020
O -13.6630038 2.3210006 -12.4830035
H -12.8010036 2.8260008 -12.2130034
H -13.7360038 1.5710004 -11.8880033
O -17.5570049 0.5350001 7.5420021
H -18.0520051 -0.3370001 7.5200021
H -18.3290051 1.2030003 7.4180021
O 0.2640001 -16.9500047 8.6390024
H 0.0750000 -17.5670049 9.3200026
H 0.2360001 -16.1520045 9.1420026
O 3.5840434 2.2507248 -9.0941342
H 3.2213145 1.8096628 -9.8910479
H 4.2118050 1.5616389 -8.7905228
O 1.6898708 0.9809656 4.8515109
H 2.1013835 0.4734067 5.5790512
H 2.4767464 1.2337766 4.3297200
O 17.6860049 1.0920003 7.6100021
H 18.5560052 1.1930003 7.2600020
H 17.8830050 0.9560003 8.5580024
O -13.3170037 0.3970001 -10.6440030
H -12.8220036 -0.4460001 -10.7740030
H -12.8060036 0.7380002 -9.9310028
O -12.9680036 2.3580007 9.8740028
H -13.0390036 2.7070008 10.8130030
H -13.8830039 2.0980006 9.6020027
O 8.4807804 -0.7401968 -10.1674778
H 9.1897130 -0.5829559 -10.8194272
H 8.5488330 0.0503588 -9.5904278
O 5.8888918 2.9093754 6.4616172
H 5.1772809 3.3060541 5.9167608
H 5.8214667 3.4603922 7.2677668
O -0.8156121 -3.4012819 -12.9173023
H -1.2079270 -2.6056705 -13.3301549
H 0.0848206 -3.3141652 -13.2772509
O -7.1959623 -2.4581118 7.1153311
H -8.1539730 -2.5850836 6.8952871
H -7.3105066 -2.0151524 7.9826626
O -1.2040003 14.3800040 5.9260017
H -1.0100003 14.6260041 5.0270014
H -0.8760002 15.0750042 6.4680018
O 13.0860037 -5.3680015 4.1080011
H 13.8910039 -4.9900014 4.4130012
H 12.9270036 -4.8110013 3.3710009
O -0.1440000 -6.9190019 -13.0190036
H -0.4570001 -6.8150019 -13.9740039
H -0.4550001 -6.0520017 -12.6850036
O -4.7295312 -3.9566271 3.0497062
H -3.8674299 -3.8135798 3.4981981
H -5.3552035 -3.4818148 3.6393098
O -3.1610009 -2.2470006 18.8060053
H -3.3000009 -3.2080009 18.8580053
H -2.2360006 -2.1130006 18.9310053
O -0.8300002 14.3160040 2.7940008
H -1.5790004 14.1840040 2.2200006
H -0.5190001 15.2170043 2.4980007
O 14.7390041 -2.9160008 2.9810008
H 15.6960044 -3.0840009 3.2480009
H 14.7550041 -3.4660010 2.1980006
O -1.6950005 -17.7210050 3.7530011
H -1.4630004 -17.4100049 2.8870008
H -2.4310007 -17.1480048 3.9440011
O 0.1260000 -0.6260002 -16.5090046
H 1.0950003 -0.5770002 -16.2560045
H -0.0440000 0.2570001 -16.8770047
O -6.1965511 0.0446168 6.1004556
H -5.2507870 -0.0153272 6.3675233
H -6.5400575 -0.7591022 6.5267821
O 15.0120042 -0.4680001 1.3810004
H 14.5440041 0.1290000 1.9830006
H 15.2890043 -1.2090003 1.9600005
O -13.0720037 -2.5770007 -9.1920026
H -12.7000036 -3.4040010 -8.9100025
H -12.7930036 -2.5370007 -10.0570028
O -16.0450045 -2.4250007 7.4830021
H -15.5990044 -1.7000005 7.9770022
H -16.8830047 -2.4960007 8.0020022
O 4.9893088 -2.9157230 -6.7698642
H 5.4679518 -3.7089573 -7.0845275
H 5.7590844 -2.3181985 -6.6553753
O 2.9175608 -0.5240220 6.8583737
H 3.5250891 -1.0894027 6.3340212
H 3.5518581 -0.1363577 7.4981832
O 5.4160015 13.4160038 -9.4260026
H 5.9380017 13.9540039 -10.0290028
H 5.8870016 13.5270038 -8.5480024
O -10.7890030 3.6840010 -11.6840033
H -10.0600028 3.9800011 -12.3230034
H -10.3770029 3.4100010 -10.8080030
O -12.6143157 2.8305902 4.9276588
H -11.7442658 2.7121569 5.3458117
H -12.5953520 3.7574526 4.6307731
O 5.8795559 -0.5959939 -11.1287502
H 5.7268384 0.3725819 -11.0529143
H 6.7758795 -0.6722350 -10.7348255
O 5.7600254 -0.2269419 3.5035278
H 5.6072218 -0.4155922 2.5518573
H 5.1781013 0.5509728 3.6262940
O -2.2541086 -3.6908148 -10.1264045
H -1.9102752 -4.5380515 -10.4868645
H -2.5025493 -3.2025573 -10.9436611
O -5.1299038 -4.5675403 6.9968587
H -5.6023992 -5.4224978 6.9006220
H -5.8593210 -3.9208719 6.9535233
O -1.8764942 11.4798341 -6.7921072
H -2.5847504 11.2928068 -7.4427465
H -1.8934938 12.4554328 -6.7468074
O -4.9350014 14.2060040 12.3870035
H -5.3340015 13.5080038 11.8600033
H -5.1890015 13.8840039 13.2750037
O 10.8059415 -3.4287215 6.9457545
H 9.8554426 -3.6509157 6.8289053
H 11.1898404 -4.3324029 6.9540607
O -1.3945255 -6.3209526 -10.4379778
H -0.7063774 -6.8043482 -10.9222656
H -2.0277928 -7.0562226 -10.2702165
O -2.7336765 -7.9232745 5.1407248
H -3.5212778 -7.4913929 4.7444616
H -2.5832495 -8.6308192 4.4719125
O -1.9210005 12.6190035 -13.3620037
H -1.6630005 12.3260034 -12.5290035
H -2.3360007 13.5160038 -13.1920037
O 0.9260003 12.7590036 4.0350011
H 0.9110003 12.9460036 5.0230014
H 0.0790000 13.1300037 3.7510010
O 15.7240044 -7.0860020 5.2250015
H 15.5690044 -6.3680018 5.8750016
H 15.2440043 -7.7880022 5.7230016
O -16.5510046 -5.4540015 5.7230016
H -17.4590049 -5.4030015 6.0180017
H -16.6340047 -5.5240015 4.7390013
O 2.3689165 -6.6652464 -6.9993177
H 2.1675632 -6.4740480 -6.0574862
H 1.5892460 -6.2519254 -7.4302880
O -2.3520409 -4.1340471 7.2427035
H -3.2848908 -4.3495783 7.0442162
H -1.8661804 -4.8206212 6.7569614
O 2.1660006 14.7020041 -10.1390028
H 1.7740005 15.5310043 -10.5040029
H 2.7280008 15.2720043 -9.5560027
O 1.6750005 13.6550038 8.3440023
H 2.2260006 13.8080039 9.1020025
H 2.4150007 13.5810038 7.6520021
O -14.6220041 -3.6110010 5.7160016
H -15.1600042 -4.4270012 5.5850016
H -15.1620042 -3.1350009 6.4150018
O 5.9340017 -4.5560013 -11.5360032
H 6.4140018 -5.3850015 -11.4730032
H 6.5150018 -3.7630011 -11.1940031
O 0.5267860 -2.8781191 5.6888622
H -0.2603534 -2.3040562 5.5869924
H 0.8551177 -2.8745228 4.7627775
O 4.9720014 13.9570039 -12.2350034
H 4.4650012 13.4030038 -11.6050032
H 4.3670012 14.0120039 -13.0330036
O 0.8310002 16.4030046 5.3400015
H 0.5090001 17.2060048 4.8720014
H 1.3730004 16.7580047 6.0630017
O -13.7390038 -5.3720015 -10.1660028
H -13.5450038 -6.2090017 -9.6480027
H -14.0780039 -4.8520014 -9.4310026
O -16.2260045 -7.3690021 7.5970021
H -16.4310046 -6.4490018 7.6820021
H -15.2950043 -7.2550020 7.2750020
O 4.7570551 -6.8148968 -8.2919402
H 4.5728944 -7.5176286 -8.9524964
H 3.8612099 -6.6606452 -7.9195391
O 0.5869535 -7.7498007 8.6235337
H 0.5805017 -8.0817084 7.6985113
H -0.3466211 -7.4812236 8.7397840
O 7.2020020 13.6600038 -7.2990020
H 7.2480020 13.3700037 -6.3840018
H 7.3720021 14.5830041 -7.1320020
O 3.8870011 13.1170037 6.5870018
H 4.5820013 12.4740035 6.7860019
H 4.4490012 13.8990039 6.7250019
O -3.5511723 -7.4046837 -6.9711964
H -3.6063375 -7.4345570 -5.9957713
H -3.5165884 -6.4317744 -7.0953195
O -6.0140017 -9.0390025 8.7960025
H -6.4960018 -8.6510024 9.4870027
H -5.1380014 -9.0530025 9.1850026
O -5.2320015 12.7280036 -7.2940020
H -6.1480017 12.5170035 -7.0590020
H -4.8090013 11.8840033 -7.6780021
O -5.4490015 12.1400034 3.1830009
H -5.8190016 12.9810036 2.8370008
H -6.0080017 11.4710032 2.7620008
O 9.5610027 -9.0370025 11.4920032
H 9.7750027 -9.7290027 10.8540030
H 10.2750029 -8.4190024 11.2570032
O 11.4400032 11.9390033 -10.2840029
H 11.2990032 11.2850032 -9.6250027
H 12.1270034 11.5240032 -10.8150030
O 10.6200030 13.4320038 7.4690021
H 9.7340027 13.0290036 7.3610021
H 10.9330031 12.8650036 8.1280023
O -17.0490048 -5.0560014 3.1780009
H -17.2880048 -5.9660017 2.8730008
H -17.4790049 -4.5570013 2.4140007
O -3.0970009 -11.1220031 -9.0500025
H -2.9730008 -12.0960034 -8.8630025
H -3.3090009 -10.9030031 -8.1040023
O -2.7919920 -9.0288525 7.6203282
H -2.6857990 -8.6644619 6.7113915
H -2.5244209 -8.2484079 8.1511473
O -0.7436685 8.8851480 -10.0584926
H 0.0291665 8.3420821 -10.3329105
H -1.4683114 8.4294261 -10.5353212
O -5.6462619 8.7080059 3.0574641
H -5.5120926 9.3251145 2.3168988
H -6.5494715 8.3808718 2.8596365
O 0.6040572 -9.2628105 -9.0025275
H 0.2739750 -9.8960208 -9.6740987
H -0.1572110 -9.2290946 -8.3806174
O -2.0139678 -7.0670435 9.2926427
H -2.1988835 -7.6068538 10.0893659
H -2.2538450 -6.1753114 9.6227148
O 0.1256367 9.6982733 -7.5952213
H -0.2745895 9.4125784 -8.4464912
H -0.5038837 10.3896630 -7.3047380
O -2.9760008 12.7120036 9.3800026
H -2.2220006 12.3110034 8.9330025
H -2.4160007 12.9800036 10.1810028
O -2.3480007 -13.5580038 -8.2350023
H -1.4580004 -13.4730038 -7.7760022
H -2.6660007 -14.3400040 -7.7330022
O -1.1440003 -6.1330017 12.7720036
H -0.7690002 -7.0120020 12.6740035
H -0.3620001 -5.6060016 12.6140035
O -0.4477128 4.1607752 -9.8028732
H -0.7563660 4.4331155 -10.6891677
H -1.1530706 4.5986318 -9.2760864
O -2.1565630 8.0609665 8.4329370
H -2.7333502 8.8346972 8.5550625
H -2.2469148 7.6022166 9.2893463
O 13.9540039 8.6430024 -6.8040019
H 13.6650038 8.8690025 -5.9270017
H 14.6100041 9.2920026 -6.9930020
O -7.5180021 -16.0440045 -7.3960021
H -7.3800021 -16.3280046 -8.3410023
H -8.1950023 -15.3480043 -7.5530021
O -5.7560383 5.0981149 -6.5250242
H -5.3229450 4.4644613 -7.1316841
H -6.4247856 5.4727341 -7.1388174
O -6.5170018 5.0580014 11.9770034
H -7.0730020 5.8570016 12.0020034
H -6.9490019 4.4130012 12.5660035
O 12.8380036 5.6510016 -9.3620026
H 13.2030037 5.9290017 -8.4960024
H 12.4480035 4.8530014 -9.0790025
O 9.9130028 6.4610018 12.1490034
H 10.6070030 5.9170017 11.7100033
H 9.4290026 6.8810019 11.4150032
O -8.5090024 -10.9290031 -1.7730005
H -9.3500026 -11.0870031 -1.2580004
H -8.9870025 -10.6650030 -2.6120007
O -5.4033581 7.1118474 -4.6580955
H -5.3377711 6.3650991 -5.2926232
H -6.3146730 6.9847043 -4.3233007
O 10.3010029 -10.7320030 -1.9200005
H 9.4890027 -10.2780029 -1.6380005
H 10.2890029 -11.5210032 -1.3120004
O 10.0516953 9.1985260 -3.4658458
H 9.8582425 9.0157688 -2.5255070
H 9.5007437 8.5274632 -3.9055829
O -4.8450014 -11.8810033 -3.6070010
H -4.8610014 -11.7770033 -4.6100013
H -4.0750011 -11.3940032 -3.3800009
O -7.9368360 5.5165124 0.9058544
H -7.7396222 6.2744346 1.4840137
H -8.9168338 5.5134379 0.9682482
O 6.9180019 -12.0940034 -2.3150006
H 6.3620018 -11.6730033 -1.6250005
H 7.5830021 -11.3460032 -2.4780007
O 12.4067713 3.6433376 -0.8422179
H 11.5137169 3.9158130 -0.5402568
H 12.8671465 3.7048046 0.0202655
O -8.3816087 -9.8460668 3.0006936
H -9.2943018 -9.5686912 2.7728044
H -7.8756507 -9.0817139 2.6535799
O -5.9500017 8.0080022 -14.3920040
H -5.1030014 8.1000023 -14.8900042
H -5.8050016 7.0420020 -14.2130040
O -8.1365384 8.6530232 -0.4404160
H -8.1139687 9.1846364 -1.2685320
H -9.1065286 8.5140063 -0.3562642
O 8.6570024 -11.1900031 0.8070002
H 9.1690026 -10.6160030 1.4730004
H 9.1840026 -11.9970034 0.6090002
O 9.3760026 10.4250029 1.1300003
H 8.6990024 10.8910030 1.6340005
H 10.2310029 10.8270030 1.4840004
O -9.0570025 -9.2070026 -11.7240033
H -9.3330026 -8.7900025 -12.5550035
H -9.1300026 -10.1230028 -11.9730034
O -11.1320031 -14.0880039 5.0540014
H -10.5250029 -13.3560037 5.3530015
H -10.5290029 -14.7000041 4.5240013
O -8.6660024 5.5860016 -10.8490030
H -8.9840025 6.4650018 -11.0070031
H -8.3810023 5.3760015 -11.7500033
O -9.9010394 6.8060270 6.3315111
H -10.0703034 6.4572083 5.4256769
H -8.9223249 6.7021263 6.3524617
O 9.0200025 -10.2270029 5.5240015
H 8.7220024 -10.7890030 4.7120013
H 8.2480023 -10.2960029 6.1330017
O 8.4620024 7.5410021 -11.8220033
H 7.5150021 7.7260022 -11.6440033
H 8.7550025 8.3090023 -12.3230034
O 7.7737119 9.0465770 4.3621703
H 8.3813927 8.3722814 3.9952231
H 7.0501596 9.0297676 3.7144670
O -9.0040025 -14.0890039 9.4230026
H -8.3330023 -13.3780037 9.4250026
H -9.7110027 -13.4770038 9.7710027
O -10.1960029 4.2740012 -9.1590026
H -10.8370030 4.7880013 -9.6700027
H -9.3150026 4.4640012 -9.5100027
O -11.2120031 3.6370010 8.5920024
H -11.7440033 3.0840009 9.2770026
H -11.9220033 4.0920011 8.1000023
O 6.8330019 -16.6130046 -7.2560020
H 5.9480017 -16.5600046 -6.8430019
H 6.6060018 -15.9600045 -7.9390022
O 6.3340018 -15.3370043 9.7070027
H 5.7840016 -14.7640041 9.0960025
H 5.7440016 -15.4750043 10.4430029
O 8.1300238 1.4781069 -8.4928991
H 7.1707128 1.2966726 -8.4456442
H 8.2498448 1.9865921 -7.6633663
O 5.8578606 4.7531405 8.5002485
H 6.7462998 5.1633866 8.4705756
H 5.3236291 5.4717077 8.0989487
O -9.7860027 -15.7380044 -2.7630008
H -9.9170028 -16.2920046 -3.5220010
H -9.5540027 -16.4610046 -2.1290006
O -8.8925456 2.8613441 -5.5090515
H -9.1124820 2.0679454 -4.9685464
H -7.9891100 3.0204528 -5.1503289
O 8.6407045 2.8494981 -6.1780730
H 8.3947939 3.7895261 -6.1409584
H 9.6186767 2.9063805 -6.0745287
O 4.6640013 2.5050007 13.4810038
H 4.5250013 3.2810009 14.0940039
H 4.0210011 2.7230008 12.7690036
O -6.5199646 0.3024168 -3.3517851
H -7.4503842 0.4954547 -3.5820642
H -6.4159619 0.8833443 -2.5678980
O 5.6510016 -17.9360050 -2.4890007
H 5.2880015 -18.8140053 -2.7450008
H 6.5570018 -18.0650051 -2.8280008
O 7.6158133 1.4432632 -0.4171023
H 7.6659070 0.4817606 -0.5594413
H 7.2344668 1.7175300 -1.2738738
O 6.7560019 0.8760002 15.3770043
H 5.9020017 0.8220002 14.8660042
H 6.4240018 0.6070002 16.2550045
O -10.0710028 -14.0290039 0.8400002
H -9.1460026 -14.3240040 0.7170002
H -9.9160028 -13.2600037 1.4380004
O -7.6290123 5.4669542 -1.8084999
H -8.0357518 4.5841283 -1.9329573
H -7.6695606 5.5058357 -0.8272498
O 7.5962186 4.9630809 -1.1332414
H 8.2532905 5.0992247 -1.8480623
H 7.0641080 5.7825000 -1.2128504
O 4.5550013 0.4670001 17.4120049
H 4.2240012 -0.3190001 17.0650048
H 3.9160011 1.0710003 17.0500048
O -14.7900041 -8.5760024 3.9190011
H -14.0980039 -7.8890022 3.9930011
H -15.0050042 -8.6430024 2.9920008
O -9.1116123 3.5643044 4.5835315
H -9.4342102 4.4248260 4.2458215
H -8.1524904 3.7407146 4.5506547
O 8.5360024 -12.5340035 3.8600011
H 8.2790023 -13.3890037 3.5150010
H 9.4600026 -12.6890036 3.8230011
O 4.9670014 5.3870015 -15.9340045
H 5.0950014 6.0170017 -16.7010047
H 4.8040013 4.5080013 -16.3940046
O 7.3772977 7.7461457 1.0471920
H 6.7348056 8.2988815 1.5322758
H 6.8368934 7.4496732 0.2868783
O -7.5005797 -0.4825022 -7.1435935
H -6.7106734 0.0044908 -6.8167955
H -7.5653831 -0.1876875 -8.0737651
O -12.5660035 -0.9320003 13.8530039
H -12.8280036 -0.5410002 14.7160041
H -11.9100033 -0.2760001 13.5400038
O 8.0900023 -14.8850042 6.8390019
H 8.4810024 -15.7460044 7.0230020
H 7.2300020 -15.2080043 6.4750018
O 10.8500030 1.7360005 -9.0400025
H 10.7060030 1.8080005 -9.9810028
H 9.9540028 1.8780005 -8.7000024
O 6.9690020 3.1440009 11.9030033
H 6.1710017 3.0740009 12.4060035
H 6.7450019 3.9030011 11.4440032
O -9.5560027 -5.0690014 -8.9100025
H -10.4360029 -5.0160014 -8.5200024
H -9.6180027 -5.8300016 -9.5090027
O -9.9760028 -2.4400007 10.6080030
H -10.4180029 -2.7540008 11.4270032
H -10.6950030 -2.4560007 9.9530028
O -7.7610022 15.0020042 9.5160027
H -8.4170024 15.5970044 9.0430025
H -7.5340021 14.2580040 8.9100025
O 8.2130023 -3.5050010 -10.1450028
H 8.3190023 -2.4940007 -9.9980028
H 9.1320026 -3.7610011 -10.1510028
O 6.7545055 -2.7854843 10.1688017
H 7.4458152 -3.4591870 10.1519109
H 6.4633640 -2.7929153 9.2313764
O -9.5350400 -0.1534654 -1.3654193
H -10.2074705 0.4740803 -1.0300408
H -9.1980655 -0.5374364 -0.5376793
O 7.6756382 -1.3143680 -0.9932109
H 8.2438801 -1.3344007 -1.7995441
H 8.2596556 -1.7830544 -0.3531112
O 5.2480015 -0.5880002 13.2170037
H 5.1800014 -1.5190004 13.5770038
H 4.2860012 -0.4540001 13.1810037
O 9.9820028 16.3910046 -2.3540007
H 9.8660028 16.6380047 -3.2340009
H 9.0000025 16.1660045 -2.1850006
O -5.6650016 -17.2870048 -3.1200009
H -5.5430016 -16.5250046 -2.4950007
H -5.9640017 -17.9870050 -2.4690007
O -8.9087615 3.0309393 -1.6708580
H -8.0555325 2.5500994 -1.7084389
H -9.2067468 2.6855051 -0.8006095
O 9.2872793 -2.3178339 0.9170652
H 8.8475033 -2.2191361 1.7909765
H 9.9527826 -1.6007544 0.9511318
O -7.8579107 -0.0436964 -9.8956817
H -8.5840425 -0.4912006 -10.3515209
H -7.0964842 -0.5147068 -10.2959344
O -7.2611465 3.7039904 8.9853718
H -6.9726621 3.7434871 9.9042375
H -7.9280867 4.4153655 8.9534870
O 3.5890010 -17.0990048 7.9110022
H 2.7640008 -16.6180047 7.6460021
H 3.4100010 -17.3370049 8.8200025
O 10.1690028 -0.9610003 -12.5460035
H 10.8010030 -1.6940005 -12.5440035
H 9.3430026 -1.3570004 -12.9730036
O 3.2365347 5.2867740 0.9015622
H 4.1498609 4.9716213 1.0757348
H 3.4103861 6.1374720 0.4444949
O -7.6623176 -3.3635018 -9.9007071
H -8.4024065 -3.8662628 -9.4909785
H -7.7732729 -3.6360475 -10.8342257
O -12.0430034 -1.0570003 8.9840025
H -12.9490036 -0.8400002 8.7670025
H -12.0330034 -1.8260005 8.3530023
O 10.7390030 -4.4290012 -9.6380027
H 10.9140031 -4.9360014 -10.4730029
H 11.6280033 -4.0750011 -9.5440027
O 6.7692263 0.3639472 7.0144473
H 6.1222709 0.1519156 7.7142714
H 6.4207083 1.2308162 6.7247260
O -11.7880033 -4.6510013 -7.5880021
H -11.8370033 -4.6750013 -6.6330019
H -11.9460033 -5.6150016 -7.6880022
O -13.3110037 -5.5620016 9.1120026
H -12.8740036 -6.3110018 9.6840027
H -13.6320038 -6.0550017 8.4220024
O -10.6420030 12.9240036 -9.1070025
H -10.0680028 12.3840035 -8.4330024
H -10.8300030 13.7510038 -8.6870024
O 6.6651703 -4.8972362 -7.8669782
H 7.1275532 -4.5838682 -8.6651478
H 6.0315892 -5.5651344 -8.2110847
O 3.8157348 -4.8545891 8.5238242
H 3.1744110 -4.9907523 7.7993160
H 3.2465831 -5.1095243 9.2788853
O 8.2150023 11.3410032 -9.4320026
H 7.6250021 11.8030033 -8.8030025
H 8.8580025 10.9710031 -8.8150025
O 4.4000012 13.6380038 9.4960027
H 4.6980013 14.4510040 9.0560025
H 4.9390014 13.0030036 9.0300025
O -8.6558800 -3.4531775 -3.3178883
H -8.8899469 -2.7858988 -4.0004497
H -8.3731220 -4.1949752 -3.8712678
O -8.7230024 16.5410046 -3.7780011
H -8.1680023 15.9040045 -3.3440009
H -8.0920023 17.2570048 -4.0160011
O 7.2051317 -4.0027901 -4.0542663
H 7.1106426 -4.7732641 -4.6310074
H 8.0974490 -3.7044712 -4.3231830
O 4.8460014 -2.8390008 14.5830041
H 5.4870015 -2.7300008 15.3260043
H 5.2360015 -3.4460010 13.9320039
O -14.1130039 -3.5230010 2.5330007
H -13.4790038 -3.0120008 1.9700006
H -14.2210040 -2.9430008 3.3090009
O 6.9535118 -4.3908818 2.2920235
H 7.3177503 -3.5751277 2.6900666
H 6.3587765 -4.7064585 2.9918441
O 4.0090011 -6.3100018 17.3370049
H 4.9890014 -6.1510017 17.4520049
H 3.5980010 -5.4850015 17.3630049
O -8.0480023 -2.9720008 -14.8710042
H -8.3590023 -2.7550008 -15.7740044
H -7.2660020 -2.2690006 -14.9330042
O -14.5860041 1.4840004 6.2340017
H -14.6100041 0.7720002 5.5710016
H -13.7870039 1.9780006 5.9790017
O 7.6150021 -1.5980004 -13.4520038
H 6.9060019 -2.2450006 -13.4780038
H 7.1220020 -0.7370002 -13.3990037
O 7.9261803 -1.9607026 3.3053136
H 7.1488749 -1.3632133 3.3196079
H 8.3825090 -1.6214141 4.1039542
O -4.7429522 -4.5714187 -9.3703401
H -3.8615684 -4.2318141 -9.6263938
H -4.5922616 -4.6430257 -8.4045099
O -12.1970034 -3.5130010 7.5250021
H -12.2790034 -4.3650012 8.0670023
H -12.9770036 -3.6080010 6.9170019
O -9.7840027 13.2470037 6.7570019
H -10.3240029 13.3530037 5.9600017
H -9.1750026 12.5720035 6.4440018
O 11.9160033 -6.2570018 -11.2350031
H 11.8690033 -7.1860020 -11.2020031
H 12.8450036 -6.1400017 -11.5510032
O 8.2238699 -4.2876984 6.5586332
H 8.0293583 -5.1830276 6.8855218
H 7.4248275 -3.8057131 6.8646588
O -10.2760029 -11.8380033 -9.2220026
H -9.2900026 -12.0050034 -9.2440026
H -10.5570030 -12.1030034 -10.1500028
O -9.0670025 -8.0200022 8.4920024
H -8.7780025 -8.9550025 8.5210024
H -8.5270024 -7.7570022 9.2340026
O -7.2600020 8.7910025 -8.5890024
H -6.5690018 8.7260024 -9.3020026
H -6.9790020 9.5050027 -8.0830023
O -7.9340022 11.2740032 5.8970017
H -7.2030020 10.7290030 5.5680016
H -8.5710024 10.4940029 5.9940017
O 10.6740030 -9.4060026 -8.7570025
H 11.3760032 -9.1130026 -9.3790026
H 11.1640031 -9.4320026 -7.9000022
O 6.3720018 -8.9250025 9.0580025
H 6.4760018 -9.1380026 10.0390028
H 7.1770020 -8.4310024 8.8880025
O 7.7740022 9.9060028 7.4440021
H 8.4740024 10.3460029 6.9020019
H 7.2080020 9.5390027 6.7460019
O -10.8670030 -7.0520020 -2.2560006
H -11.5920032 -6.3990018 -2.0660006
H -11.3510032 -7.9280022 -2.3890007
O -6.8980019 14.5230041 -2.5090007
H -7.5640021 13.7950039 -2.5240007
H -6.2120017 14.1630040 -3.1120009
O 7.9910022 -6.3160018 -5.8430016
H 7.4650021 -5.9570017 -6.6020018
H 8.8880025 -6.1280017 -6.2350017
O 6.6340019 -5.3830015 14.1920040
H 6.9640019 -5.1720014 13.2980037
H 6.8690019 -4.6150013 14.7450041
O 9.6020027 11.4600032 -5.0760014
H 10.0820028 10.9310031 -4.3720012
H 9.3540026 12.2400034 -4.4800013
O -5.3700015 -7.4170021 -15.2640043
H -5.9770017 -7.8040022 -15.8850044
H -5.1670014 -6.4840018 -15.5930044
O -6.9508437 -4.6135315 -0.4164159
H -6.3019417 -5.2252767 -0.8104950
H -7.7228083 -5.2189873 -0.4165036
O -5.9683429 10.5123404 0.8364833
H -5.7935908 9.9215655 0.0919536
H -5.2176097 11.1459035 0.7375494
O 9.3257423 -4.9098818 -0.1624975
H 9.3804837 -4.0203337 0.2507545
H 9.3375109 -5.4870438 0.6316173
O -9.3640026 -4.7870013 -16.9110047
H -8.7830025 -5.2130015 -16.2570045
H -9.9560028 -4.2460012 -16.3680046
O -9.5178209 -3.6124158 1.5320783
H -9.3278543 -2.6574736 1.5484045
H -9.7451632 -3.7130579 0.5818818
O 9.2124768 -1.3202199 -3.2193626
H 9.5639092 -2.0410429 -3.7859539
H 8.8012351 -0.7350467 -3.8922303
O 11.5960032 14.9860042 -0.5270001
H 10.9700031 15.4230043 -1.1890003
H 11.8800033 15.6830044 0.1380000
O -6.9337426 -6.0508060 -8.1932706
H -7.8236563 -5.9391753 -8.5821323
H -6.4184885 -5.3963281 -8.7001922
O -11.0440031 -6.1870017 6.7710019
H -10.5720030 -5.9080017 5.9870017
H -10.3270029 -6.7530019 7.1180020
O -7.9100022 12.4600035 -6.5980018
H -8.7670025 12.0270034 -6.8770019
H -8.3230023 13.2510037 -6.2500017
O -11.6400033 13.2120037 4.6160013
H -12.1340034 13.5660038 3.8270011
H -12.3260034 12.6730035 4.9060014
O 6.8077177 -6.9810484 5.0562829
H 6.1103324 -6.3776021 4.7365209
H 6.9235150 -7.5485095 4.2678699
O 9.3460026 11.0550031 5.3520015
H 8.6900024 10.4630029 4.8570014
H 10.1530028 10.9060031 4.9280014
O -12.6810035 -3.5610010 -4.9410014
H -13.2700037 -3.2750009 -5.6570016
H -12.0710034 -2.7900008 -5.0460014
O -12.8010036 -7.5120021 11.1000031
H -12.0790034 -7.4020021 11.8190033
H -13.6080038 -7.4470021 11.6060032
O -6.5110018 11.4920032 -4.4060012
H -6.2080017 10.6830030 -4.9430014
H -7.0120020 11.8810033 -5.1340014
O 8.6790024 -7.5080021 -9.7740027
H 9.3230026 -8.2350023 -9.6440027
H 8.5830024 -7.2010020 -8.8670025
O 9.6930027 -5.3660015 9.3480026
H 10.5060029 -5.6990016 8.8710025
H 8.9550025 -5.8210016 8.8700025
O 6.5060018 12.4570035 7.3910021
H 7.2840020 12.8340036 7.8330022
H 6.6620019 11.5030032 7.3670021
O -10.3842709 -3.4710325 -1.0531753
H -10.9345731 -4.1480040 -1.4813930
H -9.6998370 -3.3352484 -1.7428331
O -11.0630031 -7.6730021 13.2180037
H -11.0080031 -7.9920022 14.1470040
H -10.3470029 -7.0150020 13.2100037
O -4.6220013 14.1770040 -4.7490013
H -5.1250014 14.9280042 -4.9980014
H -4.8810014 13.5120038 -5.4680015
O 8.2220023 -9.7200027 -5.1260014
H 8.8390025 -8.9660025 -4.8560014
H 7.3920021 -9.3290026 -5.4560015
O 8.1690023 -5.5450016 11.6100032
H 8.7480024 -5.5720016 10.7880030
H 7.3920021 -5.6580016 11.0620031
O 12.7150036 11.9090033 -6.2800018
H 12.7210036 11.8650033 -5.3210015
H 12.3000034 12.8250036 -6.3560018
O -12.6170035 -9.4280026 -1.9850006
H -13.4090038 -9.7800027 -1.4920004
H -11.9170033 -9.9870028 -1.5710004
O -10.6460030 8.7860025 -2.7820008
H -9.6340027 8.8370025 -2.9380008
H -10.9010031 8.2410023 -3.5520010
O 6.0437841 -11.0004501 0.1833575
H 5.9122122 -10.0384024 0.2563884
H 7.0078441 -11.0615430 0.3841508
O 4.6130013 -9.0710025 15.8540044
H 5.0620014 -8.3710023 15.3110043
H 3.9440011 -8.4340024 16.1230045
O 6.9136291 11.1978787 -0.1374622
H 6.8783389 11.6290458 0.7377515
H 7.8118164 10.8233839 -0.1110636
O 3.0280008 6.6770019 14.5070041
H 3.4710010 6.6380019 13.6560038
H 3.6350010 7.3720021 14.9370042
O -8.5880024 -6.9760020 -10.5810030
H -9.0560025 -7.7180022 -10.9950031
H -7.8320022 -6.8870019 -11.2430031
O -9.1925471 -6.7211692 4.7005280
H -8.6978168 -7.5153935 4.9755076
H -8.5122475 -6.2196363 4.2032085
O -6.8010019 14.0990039 -10.7370030
H -7.4730021 14.1820040 -11.4360032
H -6.8170019 14.9680042 -10.3550029
O -8.6200024 11.6500033 0.8800002
H -7.7970022 11.2520031 0.5000001
H -8.7190024 10.8950030 1.5330004
O 11.9500033 -9.1310026 -11.1190031
H 11.3620032 -9.4300026 -11.7920033
H 12.6280035 -9.8430028 -11.1400031
O 10.1420028 -7.7520022 5.2070015
H 9.7170027 -8.6100024 5.1360014
H 10.6530030 -7.7420022 4.3690012
O 11.5510032 11.9160033 1.3970004
H 11.2650032 12.1610034 0.4450001
H 12.4810035 12.1780034 1.3520004
O -7.4430021 -11.9530033 -9.6600027
H -7.3130020 -12.3150034 -10.5920030
H -7.0970020 -12.6830035 -9.1850026
O -7.6130021 -11.5940032 6.8910019
H -8.4330024 -11.8790033 6.6160019
H -7.5160021 -11.7710033 7.8410022
O -5.4086938 3.8006820 -10.7232442
H -6.2838471 3.3972283 -10.5302525
H -5.0372533 3.7898817 -9.8220409
O -5.0780892 6.0660881 8.5109274
H -5.0985084 6.9339613 8.9435468
H -4.7985374 5.4936713 9.2501496
O 11.8130033 -10.5700030 6.7920019
H 11.3510032 -10.4420029 7.6490021
H 11.1410031 -10.4400029 6.0890017
O 10.7620030 6.5770018 -14.1690040
H 10.6030030 5.8820016 -13.5110038
H 11.3530032 7.2040020 -13.7250038
O 8.5752171 3.3294194 6.1619672
H 7.6487164 3.0415398 6.3000601
H 8.4250483 4.2354073 5.8194688
O -0.8580002 -10.9610031 -10.7280030
H -1.6670005 -10.8770030 -10.1560028
H -0.8370002 -11.9430033 -10.8780030
O -3.9328380 -11.9097274 4.2568260
H -3.2587667 -11.2333045 4.0707131
H -4.1839227 -11.6984028 5.1761645
O -1.8674890 5.2350242 -11.9761705
H -2.2742540 6.0936146 -11.7415995
H -1.1039779 5.5440320 -12.5163988
O -4.3525252 6.3214888 3.6122621
H -4.7802946 7.1493658 3.3119289
H -3.6306769 6.7171491 4.1454244
O 12.9150036 -12.8120036 5.9410017
H 12.2900034 -13.4230038 6.3210018
H 12.7130036 -12.0760034 6.4840018
O 14.9660042 8.3950023 7.2770020
H 15.8770044 8.6920024 7.0880020
H 14.8080041 7.6300021 6.6950019
O 2.5000007 -12.6320035 -10.4220029
H 3.0510009 -12.6090035 -9.6020027
H 1.9140005 -13.3260037 -10.1130028
O 0.5378875 -8.9033292 6.1086436
H 1.3939077 -9.3676357 5.9845572
H -0.0644728 -9.6767287 6.0148612
O 2.5840007 9.5970027 -12.3290035
H 2.7760008 10.3440029 -11.6890033
H 3.3340009 9.7540027 -12.9740036
O 1.1399452 10.0316128 3.3269613
H 0.9361831 10.9870343 3.3476727
H 1.2701310 9.8647173 4.2867835
O 6.3760018 -9.8690028 -12.0080034
H 5.4280015 -10.0060028 -12.4270035
H 6.8960019 -10.5800030 -12.4650035
O 0.4364859 -7.7045336 3.6162971
H 0.4698847 -8.1537887 4.4862878
H 1.2093152 -8.1117401 3.1709733
O 2.5493505 10.2798204 -8.7988605
H 3.0054669 9.4234909 -8.7540721
H 1.7189007 10.0732009 -8.3185444
O 5.0700014 9.2110026 7.3730021
H 5.7230016 9.0370025 8.0830023
H 4.4010012 9.7270027 7.9060022
O -11.8910033 -7.6650021 -12.2760034
H -12.8380036 -7.4200021 -12.3680035
H -12.0420034 -8.6050024 -12.2620034
O -10.8830030 -8.7860025 2.7030008
H -11.2550031 -8.0410023 2.2300006
H -10.9270031 -8.4810024 3.6310010
O -11.0880031 11.4200032 -11.4590032
H -10.5360029 11.8270033 -12.2040034
H -10.9720031 12.0270034 -10.6850030
O -9.9790028 9.7930027 2.9440008
H -10.8190030 10.1990029 2.6590007
H -10.0090028 9.9110028 3.8940011
O 6.4614639 -10.7852395 3.8857885
H 6.7758642 -9.9405484 3.4894228
H 7.1935607 -11.3980666 3.6617299
O 6.7760019 11.4560032 -11.7330033
H 6.1630017 12.2320034 -11.7080033
H 7.2490020 11.6470033 -10.8720030
O 7.3030020 11.6440033 2.6210007
H 6.8080019 12.1090034 3.3270009
H 6.8400019 10.7820030 2.5310007
O -5.7540016 -10.2110029 -11.8610033
H -6.0360017 -9.4190026 -11.3940032
H -5.6020016 -10.8440030 -11.1620031
O -5.2198680 -9.8184218 2.0838919
H -5.8345977 -9.0544575 2.0975811
H -5.7728168 -10.5180559 2.4761097
O -5.7970016 8.0190022 -10.8860030
H -6.1460017 7.2960020 -11.4680032
H -6.3360018 8.6960024 -11.3610032
O -5.5517422 9.7113930 5.6460184
H -5.5332587 9.2891985 4.7617382
H -4.6304770 10.0127849 5.7185748
O 11.5790032 -8.2730023 -0.5820002
H 11.5090032 -9.1210026 -1.0440003
H 11.0400031 -7.5960021 -1.0500003
O 11.7530033 10.8030030 4.1460012
H 11.7630033 11.5460032 3.4660010
H 11.5940032 10.0710028 3.5030010
O -3.1200009 -8.4340024 -10.1370028
H -3.2480009 -9.0860025 -9.5080027
H -4.0560011 -8.1790023 -10.3170029
O -2.6727986 -9.6762117 3.0742455
H -3.5628037 -9.7288415 2.6641917
H -2.1439123 -9.2996926 2.3442076
O -2.8848015 7.8609326 -11.5722934
H -3.8481184 7.8786361 -11.4305839
H -2.7821243 8.4462591 -12.3538199
O -2.9315924 12.3617908 4.1987328
H -3.8394566 12.2607449 3.8262521
H -2.5557882 13.0419380 3.6300972
O 11.8690033 -7.6170021 2.9740008
H 12.4680035 -6.8630019 3.1810009
H 12.5430035 -8.3490023 2.6890008
O 13.4720038 10.7990030 6.1760017
H 13.0670037 10.8480030 5.3130015
H 14.0280039 10.0380028 6.0280017
O -15.8470044 8.9020025 1.6530005
H -16.4250046 8.2570023 1.1150003
H -16.2540045 8.7150024 2.5390007
O 1.9040005 -8.5840024 -12.3950035
H 2.2860006 -7.9500022 -11.7340033
H 1.0940003 -8.1060023 -12.4210035
O -2.2608679 -3.8440222 4.1229444
H -1.6841007 -4.4719971 4.6041056
H -2.0519326 -3.0035725 4.5826538
O 2.0240006 13.4070038 -13.3950037
H 1.9780006 12.7280036 -14.1940040
H 2.2760006 12.8670036 -12.6300035
O 3.1109228 9.6162387 1.4158119
H 2.6774997 10.2501956 0.8047639
H 2.4826180 9.6684036 2.1659883
O -13.7560038 -6.9130019 6.4590018
H -13.8890039 -6.6340019 5.5430016
H -12.7600036 -6.7030019 6.6220019
O -15.2230043 12.0830034 1.8070005
H -15.4620043 11.1670031 1.7550005
H -14.6620041 12.2900034 1.0720003
O 3.9400011 -10.0760028 -13.2540037
H 3.1540009 -9.5340027 -13.0520037
H 4.3300012 -9.5300027 -13.9240039
O 2.3671783 -9.0361227 2.1217860
H 1.9440168 -9.4723316 1.3521713
H 2.9556404 -9.7584651 2.4278634
O 4.7270013 9.2660026 -14.4390040
H 4.8180013 10.2050029 -14.7900041
H 5.6740016 9.0520025 -14.3520040
O 5.6151038 9.3524340 2.5720722
H 4.8497651 9.5075691 1.9750527
H 5.1109528 9.3414172 3.4194638
O -14.8510042 -10.0700028 6.0640017
H -14.2080040 -9.4560026 6.4050018
H -15.0470042 -9.5110027 5.2100015
O -7.4090021 9.3760026 -12.6130035
H -7.3800021 10.2840029 -12.9810036
H -6.6260019 8.9770025 -13.0970037
O -13.3520037 12.9590036 -0.0480000
H -12.4370035 13.0170036 0.1390000
H -13.3200037 13.1620037 -1.0200003
O 3.9090011 -8.8700025 -16.3320046
H 4.5320013 -9.2130026 -16.9830048
H 3.5810010 -9.7440027 -16.0590045
O 3.9027910 -11.1693176 3.1080107
H 4.8450496 -11.0010820 3.3332561
H 3.9053437 -12.1483009 3.0560711
O 5.5370100 5.4822521 -12.3528257
H 6.3336795 5.4055793 -12.8949925
H 5.8744527 5.2315843 -11.4689369
O 6.1330017 13.0420037 4.5460013
H 5.2580015 12.6690035 4.6640013
H 5.8700016 14.0000039 4.3810012
O -4.3116213 -10.6705994 -0.3058140
H -4.5504871 -10.2837712 0.5633814
H -4.2083190 -11.6109279 -0.0503279
O -4.4610012 -11.8770033 14.4810041
H -3.9880011 -11.0380031 14.3200040
H -3.7200010 -12.4300035 14.8540042
O -3.8910011 8.0070022 -16.2830046
H -2.9990008 8.3400023 -16.4600046
H -3.7370010 7.0400020 -16.2350045
O -3.4409865 6.3575878 -0.2695525
H -4.2555085 6.7759303 -0.6189030
H -2.9876791 7.1649474 0.0695062
O 10.0350028 -13.0860037 -0.5340001
H 10.4080029 -13.6520038 0.0940000
H 9.8260028 -13.6880038 -1.2330003
O 12.3770035 9.4940027 -0.6120002
H 12.1200034 10.4290029 -0.7690002
H 12.2560034 9.4610026 0.4060001
O -3.7390010 -13.2150037 0.6890002
H -3.4530010 -13.8580039 0.0080000
H -2.9590008 -13.3020037 1.3260004
O -1.3590004 9.0370025 -16.8340047
H -1.0550003 9.0140025 -17.7900050
H -1.0780003 9.9220028 -16.5890046
O -2.2770001 8.6635838 0.5555986
H -1.7381993 8.4706941 1.3506263
H -1.8604023 9.4888267 0.2382647
O 15.1340042 7.8960022 -0.0410000
H 15.8700044 7.9910022 0.5700002
H 14.9230042 8.8550025 -0.1290000
O -18.5280052 6.2630018 2.4970007
H -17.6520049 6.1360017 3.0200008
H -18.1290051 6.2530018 1.6270005
O -1.0920003 -11.0120031 -15.7360044
H -0.9120003 -11.8220033 -15.2410043
H -0.8310002 -10.4110029 -15.0750042
O -1.8140005 -14.2830040 2.5960007
H -1.3320004 -15.1050042 2.1650006
H -1.8130005 -14.4940041 3.5190010
O 0.3570001 8.9070025 -13.5840038
H -0.4500001 9.4460026 -13.6630038
H 1.0830003 9.4770027 -13.2750037
O 1.6628404 10.9621304 -0.4756965
H 1.7236945 10.2453405 -1.1437124
H 2.1224065 11.6918309 -0.9317610
O 12.9570036 -10.0560028 2.3720007
H 12.6290035 -10.8280030 2.8550008
H 13.7710039 -10.4290029 1.9990006
O 1.8820005 -7.0700020 -16.4330046
H 1.2320003 -7.7590022 -16.6700047
H 2.6680007 -7.6500021 -16.5910046
O -1.7591480 -5.7950592 -2.7289315
H -1.3483032 -5.4206283 -3.5362593
H -2.3961430 -6.4123147 -3.1388047
O 4.0790011 13.1720037 0.8580002
H 4.7820013 13.7710039 1.0330003
H 3.6250010 13.0380036 1.7080005
O 15.0380042 -4.6540013 0.8590002
H 15.2720043 -4.4620012 -0.0140000
H 14.3770040 -5.2910015 0.7770002
O -12.6030035 -5.1850015 -1.4830004
H -12.6020035 -5.0810014 -0.5460002
H -13.3480037 -4.5910013 -1.7730005
O -10.8540030 8.4970024 -0.1070000
H -11.0580031 8.5790024 -1.1010003
H -11.3940032 9.2610026 0.2450001
O 5.4700015 -6.5940018 -16.5050046
H 5.1370014 -7.4710021 -16.2600046
H 4.8370014 -6.3650018 -17.2230048
O 7.9534581 -9.3683476 -1.7062046
H 7.4129441 -8.9876091 -0.9904892
H 7.8948875 -8.6602335 -2.3801205
O 7.4230021 15.6750044 -2.1520006
H 6.9910020 14.7950041 -2.1810006
H 7.2850020 15.8850044 -1.1540003
O -6.8222332 -7.6417318 2.5102472
H -7.2382779 -6.7773628 2.3265575
H -6.0676768 -7.3388078 3.0594866
O -4.3674680 11.7953773 -2.4971499
H -3.5701250 11.6021818 -3.0305949
H -5.0703114 11.7300327 -3.1658092
O 7.9003910 -7.1029441 -3.2755258
H 7.9871175 -6.8449119 -4.2252804
H 8.6744735 -6.6475000 -2.8948273
O 9.8130027 -2.0280006 12.7670036
H 9.0650025 -1.5500004 12.3180034
H 9.7580027 -1.5340004 13.6710038
O 9.3504817 8.4697055 -0.7994053
H 9.5937119 9.2115574 -0.2041708
H 8.6554319 8.0704027 -0.2440574
O -6.4850018 -12.6270035 -1.4980004
H -7.3370021 -12.1580034 -1.6780005
H -5.9750017 -12.4050035 -2.3240007
O -7.3780021 -7.9480022 15.9800045
H -7.7090022 -8.8570025 15.8840044
H -7.9140022 -7.6400021 15.2910043
O -3.3780403 8.4134738 -3.2983108
H -3.9819255 7.8714500 -3.8511596
H -3.8715868 8.4013733 -2.4636604
O -7.8410022 9.2650026 14.2530040
H -7.8790022 9.4620026 15.1970043
H -7.8640022 8.2950023 14.3040040
O 10.4430029 -8.6420024 -3.7960011
H 10.4460029 -9.2780026 -3.0840009
H 10.3850029 -7.8080022 -3.3560009
O 12.9460036 8.6840024 -4.3160012
H 12.0610034 8.5070024 -4.0430011
H 13.4290038 8.0440023 -3.7950011
O -9.8060027 -6.8160019 -5.4200015
H -9.0520025 -6.1820017 -5.4030015
H -10.4060029 -6.5170018 -4.7250013
O -7.4190021 -7.8320022 10.9260031
H -6.5220018 -7.8810022 11.2720032
H -7.7930022 -7.2770020 11.5720032
O -5.7628110 9.4063312 -6.0357745
H -5.5698130 8.6341559 -5.4558712
H -5.1854955 9.1571538 -6.7865122
O -7.6260021 11.2030031 9.0480025
H -7.3410021 11.8850033 8.3460023
H -7.2380020 11.6220033 9.8260028
O 12.8000036 -6.6760019 -6.8830019
H 13.7730039 -6.9340019 -6.8100019
H 12.4150035 -7.5870021 -6.6120019
O 10.5330029 10.7380030 -7.5680021
H 11.3300032 11.2270031 -7.8300022
H 10.3610029 10.9930031 -6.6430019
O 8.4060024 12.9940036 9.4440026
H 9.2060026 12.5560035 9.8910028
H 8.3760023 13.7000038 10.0700028
O -13.3720037 6.6340019 -0.5010001
H -13.9190039 7.2090020 -1.1490003
H -12.7400036 6.1660017 -1.0230003
O -0.7347364 -9.0048236 -1.2616871
H -1.0365220 -8.5480145 -0.4499823
H 0.0150065 -9.4970939 -0.8712042
O -2.3570007 -10.6970030 13.4100038
H -2.0530006 -11.6290033 13.5500038
H -1.7030005 -10.0890028 13.7720039
O -1.1335218 11.0906602 -0.2315359
H -1.0450089 11.8096957 -0.8898458
H -0.1810237 10.9538337 -0.0543413
O -1.5900004 11.1710031 14.4090040
H -0.9930003 11.7810033 14.8080041
H -2.2520006 10.9010031 15.1770042
O 15.3930043 10.3240029 -2.8200008
H 15.7090044 9.3920026 -2.9950008
H 15.5840044 10.4430029 -1.8650005
O -17.0060048 -8.4730024 -2.0390006
H -17.0330048 -8.5470024 -3.0050008
H -16.0980045 -8.0500023 -2.0280006
O -13.4830038 10.5850030 -2.9220008
H -12.5260035 10.4120029 -2.9750008
H -13.6250038 11.5390032 -3.0810009
O 4.0657295 -8.6411074 -1.5925557
H 4.4011994 -8.2161992 -2.4136574
H 3.1422840 -8.3596190 -1.6071861
O 2.0040006 -7.6460021 15.7080044
H 2.6630007 -6.9610019 15.9030045
H 1.3120004 -7.6910022 16.3690046
O 6.4750018 13.3350037 -1.8570005
H 6.4480018 12.6170035 -1.2110003
H 6.0380017 12.8680036 -2.6220007
O -11.4830032 -8.8050025 -5.0370014
H -12.0610034 -8.0510023 -4.9750014
H -10.6880030 -8.3000023 -5.4380015
O -10.2100029 10.9980031 -6.8950019
H -10.8920030 10.4410029 -7.2530020
H -9.6730027 10.3950029 -6.3840018
O 5.2523256 -7.3659086 -3.6925786
H 5.2990002 -7.7213456 -4.6016176
H 6.2113343 -7.2614836 -3.5064751
O 1.7770169 -5.7791486 10.1613656
H 1.0428010 -5.1356497 10.0575690
H 1.4465476 -6.5335670 9.6283817
O 5.3390015 13.2920037 -4.8190013
H 5.0880014 12.4900035 -5.2750015
H 4.7640013 13.9100039 -5.3040015
O 2.3180006 10.2840029 14.0620039
H 2.5490007 11.1390031 13.6690038
H 2.7610008 10.3700029 14.9140042
O -7.4860021 -9.9090028 -4.8330014
H -7.5680021 -9.9240028 -5.8070016
H -7.9290022 -10.7490030 -4.6030013
O -8.8970025 -12.0910034 12.6900036
H -9.7970027 -12.0580034 12.2850034
H -8.3750023 -12.2250034 11.8810033
O -2.6796746 6.5068028 -6.1748251
H -2.6826675 5.8199085 -5.4725320
H -1.8347587 6.9663551 -5.9741641
O -8.1780023 6.6270019 15.1950043
H -8.8730025 6.6060018 15.8090044
H -8.7100024 6.5110018 14.3940040
O 7.5790021 -11.9280033 -6.7680019
H 6.8250019 -11.5260032 -7.2030020
H 7.7770022 -11.2220031 -6.1330017
O 10.8580030 5.8230016 -6.1080017
H 10.2840029 6.5110018 -6.4670018
H 11.7480033 6.0070017 -6.3890018
O -3.7104108 -4.6611953 -6.8287843
H -4.1542041 -4.4950996 -5.9697410
H -3.1457385 -3.8709273 -6.9007187
O -5.0800014 -7.7070022 12.0540034
H -4.3330012 -8.0290022 11.4460032
H -4.5720013 -7.3000020 12.7540036
O -3.8947012 10.7308100 -8.5064816
H -3.8575597 9.7531520 -8.5754254
H -3.8609634 11.0278789 -9.4383068
O -5.9090017 12.0580034 11.0460031
H -5.8470016 11.4150032 11.7990033
H -5.0770014 11.9600033 10.5520030
O 15.9380045 -6.9120019 -8.1570023
H 15.7880044 -6.3230018 -8.9230025
H 16.6370047 -6.4960018 -7.6310021
O 11.8990033 -7.6500021 10.8090030
H 11.8190033 -7.8810022 9.8870028
H 12.7600036 -7.2190020 10.8010030
O 10.9910031 11.9890034 9.6780027
H 11.3290032 11.1290031 9.4020026
H 11.3310032 12.0300034 10.5990030
O -1.1455479 -8.7696145 -4.2501863
H -2.0398531 -8.4097130 -4.1350432
H -0.7784364 -8.6397866 -3.3559913
O -2.6219554 -4.8261930 10.7361276
H -2.3458220 -5.1444284 11.6192728
H -1.8242611 -4.3222997 10.4705887
O -0.2135042 13.1595652 -1.8548362
H 0.5378552 13.3742611 -1.2563226
H 0.2366223 12.8135270 -2.6492882
O 15.9160045 -6.6980019 -4.6690013
H 15.4380043 -5.8180016 -4.8200013
H 15.3830043 -6.9350019 -3.8810011
O 9.2150026 -8.5960024 14.5960041
H 9.0730025 -9.4510026 14.2750040
H 9.3310026 -8.1740023 13.7020038
O -17.0560048 7.9180022 -6.1490017
H -16.4260046 7.3550021 -5.7440016
H -16.6480047 8.8070025 -6.1490017
O 2.3867192 -9.3761762 -6.8826573
H 1.8411799 -9.5331145 -7.6832654
H 2.4667593 -8.4020207 -6.9544467
O -1.8999689 -11.1825793 9.1197436
H -1.6007257 -11.8611283 8.4844490
H -2.1355375 -10.4475501 8.5126802
O 2.4758729 10.1310975 -4.5986564
H 1.7769923 10.8156424 -4.5249381
H 3.0798748 10.5630195 -5.2406779
O 1.2840004 11.4190032 11.1520031
H 0.5900002 11.1570031 11.7820033
H 1.8410005 10.6000030 11.1210031
O -10.1590028 -10.9930031 -3.8910011
H -10.9080031 -11.6380033 -3.8370011
H -10.7320030 -10.2350029 -4.1600012
O -11.3070032 6.6050018 -4.7410013
H -10.7060030 6.1910017 -5.4150015
H -11.1660031 5.8980017 -4.0990011
O -12.2470034 5.9810017 11.6920033
H -12.8640036 5.2250015 11.8720033
H -12.8070036 6.7470019 11.4460032
O 9.2770026 -12.9260036 -4.6940013
H 8.6780024 -12.5130035 -5.3030015
H 8.9000025 -13.7660039 -4.7150013
O 3.3390009 -9.7610027 12.7000036
H 4.0020011 -10.1450028 12.1090034
H 3.9620011 -9.2610026 13.2640037
O 6.3884596 8.8014228 -3.6477777
H 5.5963465 8.4231405 -4.0955417
H 7.0978821 8.1920476 -3.9615516
O 7.9660022 11.7810033 12.8410036
H 7.0690020 12.1630034 12.6700035
H 7.7870022 11.0550031 12.1820034
O -5.5206218 -8.3006317 -8.7157122
H -6.1109046 -7.5225520 -8.5974449
H -4.7932000 -8.0455126 -8.1068218
O -7.7603679 -9.0896831 5.5636896
H -7.9459515 -9.4787314 4.6816328
H -7.6221394 -9.9122307 6.0781745
O -4.3060012 12.6650035 -10.5150029
H -3.8570011 13.4720038 -10.1190028
H -5.2240015 12.9370036 -10.5240029
O -3.8995073 10.2081944 8.6371507
H -3.7804529 11.1495495 8.8807529
H -3.7502209 10.2703474 7.6739318
O 13.5740038 -8.3370023 7.2710020
H 12.9980036 -8.9180025 6.6880019
H 13.8640039 -8.9530025 7.9410022
O 10.6730030 7.5020021 8.1240023
H 11.2130031 6.9390019 7.6040021
H 11.0630031 8.4060024 8.0900023
O -1.3430280 -9.0986424 -7.0609166
H -1.1347691 -8.9971495 -6.1123498
H -2.0913167 -8.4782344 -7.1552323
O -2.3170006 -8.9610025 11.2540031
H -1.4110004 -9.1560026 11.0030031
H -2.3860007 -9.5790027 12.0440034
O -4.1479892 8.0466271 -7.9567440
H -4.0994306 7.4486649 -8.7180983
H -3.6467887 7.5277561 -7.2889045
O -2.7028456 10.4439535 6.1051532
H -2.7722357 11.1527556 5.4222314
H -1.9651147 10.7936721 6.6374239
O 14.2380040 -6.1100017 10.3710029
H 15.0380042 -6.1350017 10.9100031
H 14.0000039 -5.1690014 10.2130029
O 12.2030034 9.8900028 8.5920024
H 12.4180035 10.1900029 7.6800021
H 13.0350036 9.5570027 9.0790025
O -5.3120015 -11.8790033 -6.7480019
H -5.0120014 -12.3440035 -7.4980021
H -5.9740017 -11.2950032 -7.1990020
O -5.7920016 -13.6140038 12.4840035
H -5.1840015 -13.4260038 11.7520033
H -5.4840015 -12.8670036 13.0970037
O -2.4143427 4.4644644 -4.3223152
H -3.0637554 4.0177184 -3.7331914
H -1.6459875 4.5432844 -3.7415404
O -4.8950014 8.4260024 10.5160029
H -4.5230013 8.9270025 9.7600027
H -5.3150015 9.0860025 11.0520031
O 9.9370028 -11.0980031 9.4260026
H 10.5550030 -11.8210033 9.4730027
H 9.1310026 -11.6300033 9.1330026
O 13.0860037 9.2060026 -9.4280026
H 12.9400036 8.9830025 -8.5150024
H 14.0260039 9.0670025 -9.4880027
O 11.9690033 8.7900025 11.8260033
H 12.3960035 8.0680023 11.4240032
H 12.4010035 8.7940025 12.6940036
O -12.5720035 -7.1800020 -7.9840022
H -13.3660037 -7.5500021 -7.5330021
H -12.1830034 -8.0230022 -8.3260023
O -14.1610040 8.7110024 8.0260022
H -14.2950040 9.1020025 8.9490025
H -13.3070037 8.2040023 8.0930023
O 9.1500026 -10.3610029 -10.8170030
H 8.2560023 -10.1020028 -10.4610029
H 9.7320027 -10.0960028 -10.1320028
O 2.7194291 -10.4658631 5.5051807
H 3.4073209 -10.0963114 6.1049103
H 3.2093366 -10.4851144 4.6587578
O 5.9127520 9.5817211 -8.0891559
H 5.7580536 8.6576506 -7.8063203
H 6.5716898 9.8593743 -7.4166903
O 3.5910010 10.6670030 8.9460025
H 3.0740009 11.3470032 9.3850026
H 3.2510009 9.9020028 9.4070026
O -10.7540030 -9.3790026 5.9810017
H -11.4240032 -9.1310026 6.6350019
H -10.0170028 -8.9930025 6.5080018
O -11.6120032 6.6380019 -9.8680028
H -10.9440031 7.2240020 -9.4600026
H -12.1320034 6.4380018 -9.0910025
O -13.4140038 8.3310023 4.5310013
H -14.2630040 8.8130025 4.4260012
H -12.8510036 9.0370025 4.8320014
O 6.1541632 -11.5640649 6.6256427
H 5.6384325 -10.7456048 6.8032326
H 6.2256526 -11.5035163 5.6541344
O 6.4770370 4.4302431 -9.9794447
H 6.1023789 4.3176450 -9.0851815
H 7.3543065 4.8108030 -9.7492306
O 4.2804591 6.5643566 7.1745947
H 4.6409806 7.4633724 7.0510079
H 3.6190386 6.7647961 7.8751214
