26
singlet transition state 1TSyy; verbatim CASSCF(14,12)/ANO-S coordinates from ACS SI
H 0.000512 -2.431726 0.443543
H 0.000001 2.431992 0.444174
H 2.334070 -2.477446 -0.458479
H -2.340042 -2.477753 -0.449750
H 2.340202 2.478015 -0.450661
H -2.339849 2.477463 -0.451640
H 4.287511 -1.229444 -1.341748
H -4.287280 -1.230192 -1.340627
H 4.288779 1.229216 -1.339080
H -4.286706 1.229129 -1.343057
C 0.000392 -1.355942 0.618153
C -0.000029 1.356159 0.618444
C 1.238521 -0.701650 0.039564
C -1.237659 -0.701954 0.039215
C 1.238335 0.702243 0.039986
C -1.237702 0.702023 0.038867
C 2.333223 -1.396254 -0.452599
C -2.333041 -1.396578 -0.451209
C 2.333274 1.396820 -0.451339
C -2.332909 1.396303 -0.452557
C 3.435251 -0.688891 -0.953161
C -3.434832 -0.689368 -0.952820
C 3.435408 0.689331 -0.951991
C -3.434955 0.688754 -0.953099
O 0.000234 -1.226042 2.014438
O -0.000708 1.225793 2.014666
