17
Source-verbatim SI 6 (R/U)B3LYP/6-31+G(d) geometry
C 2.37623 0.92519 -0.26691
C 2.03784 -0.41664 -0.33962
C 0.90606 -1.02820 0.20250
C -0.18479 -0.32465 0.96589
C -1.35822 0.11154 0.07749
C -2.09058 -0.86667 -0.59543
C -1.66014 1.46036 -0.04106
H -1.10384 2.22098 0.49842
H -2.46644 1.79969 -0.68617
H -0.56722 -1.00009 1.74308
H 0.21440 0.55282 1.48595
H 2.72494 -1.06980 -0.87873
H 1.75589 1.65387 0.24558
H 0.78386 -2.09700 0.03979
H -1.85384 -1.92250 -0.50530
H -2.93137 -0.59923 -1.22947
H 3.28515 1.29567 -0.73028
