25
18 triplet; source-verbatim CASSCF(14,12) optimized coordinates from JA043988W SI
C       -2.990290      -0.993212       0.265655
C       -3.261245      -0.293259       1.463006
C       -2.302141       0.469862       2.039914
C       -0.992591       0.603202       1.465542
C       -0.724865      -0.141861       0.271437
C       -1.727580      -0.913512      -0.312831
C        1.773344      -0.431783       0.096781
C        2.640181      -0.199078      -0.976724
C        1.834413       0.286781      -2.024144
C        2.246277       0.703850      -3.404207
C        2.053035      -0.984207       1.355427
N       -0.048937       1.391003       1.976271
N        0.569253       0.352894      -1.646011
N        0.529003      -0.060848      -0.368918
H       -3.754800      -1.592722      -0.191940
H       -4.235324      -0.366067       1.912141
H       -2.511675       1.010673       2.946688
H       -1.508755      -1.439653      -1.221929
H        3.696468      -0.371746      -0.985615
H        2.754844      -0.103132      -3.922518
H        1.374326       0.985735      -3.980575
H        2.922732       1.552211      -3.371304
H        1.298795      -1.123412       2.101068
H        3.063073      -1.249327       1.595858
H       -0.396995       1.854775       2.799321
