17
Source-verbatim SI 2 CASSCF(6,6)/6-31+G(d) geometry
C -1.04244 0.01889 0.10399
C -2.28208 -0.07472 -0.44385
C 1.13857 1.24348 -0.03780
C -0.33292 1.34058 0.29628
C 1.77210 0.08246 -0.26916
C 1.08497 -1.26096 -0.21285
C -0.24587 -1.18346 0.54785
H -2.82122 0.79726 -0.77183
H -2.77182 -1.02540 -0.56485
H -0.44096 1.66507 1.33183
H -0.79818 2.11055 -0.31216
H 2.81949 0.09292 -0.52236
H 0.91045 -1.62174 -1.22505
H 1.68925 2.16863 -0.08342
H -0.81534 -2.09685 0.41089
H -0.03401 -1.09361 1.61241
H 1.73911 -1.98808 0.26154
