17
Source-verbatim SI TS-5-5 CASSCF(6,6)/6-31+G(d) geometry
C -2.36797 -0.77056 -0.81422
C -2.14592 0.30684 0.03674
C -1.00486 0.54767 0.80507
C 0.20584 -0.34287 0.88348
C 1.38627 0.03028 -0.01702
C 1.44765 1.24485 -0.68627
C 2.43025 -0.89952 -0.12208
H 2.39789 -1.84162 0.39413
H 3.29725 -0.69570 -0.72311
H 0.56114 -0.34428 1.91128
H -0.07573 -1.36754 0.66792
H -2.93471 1.03822 0.11091
H -1.63795 -1.54217 -0.96983
H -0.98156 1.45325 1.38635
H 0.65805 1.96850 -0.63684
H 2.29820 1.48666 -1.29755
H -3.29016 -0.85554 -1.35746
