25
2b (NMe) open-shell singlet; source-verbatim CASSCF(14,12) optimized coordinates from JA043988W SI
C       -2.579928      -0.580211       0.770649
C       -2.763859       0.067858      -0.481629
C       -1.510138       0.435199      -0.891283
C        0.740247       0.193365       0.188135
C        1.271006       0.857904       1.215023
C        2.701364       1.009011       1.370313
C        3.573213       0.464243       0.403217
C        3.075906      -0.224476      -0.674943
C        1.623254      -0.436825      -0.825057
C       -3.618316      -1.189637       1.663538
C       -1.071481       1.187635      -2.109808
N       -1.308901      -0.599505       1.097279
N       -0.655148       0.005027       0.086823
N        1.174130      -1.159505      -1.770693
H        4.634502       0.593217       0.511476
H        3.085241       1.548802       2.213569
H        0.617074       1.278990       1.955303
H       -3.684638       0.241863      -0.999505
H        3.717336      -0.653685      -1.419848
H       -3.152783      -1.582337       2.558588
H       -4.362805      -0.455555       1.956500
H       -4.136751      -2.001502       1.162872
H       -0.572516       0.542078      -2.822125
H       -1.937905       1.621702      -2.592878
H       -0.392254       1.994298      -1.852983
