10
Exact ACS SI CASSCF(6,6)/6-31G* geometry for 21; DOI 10.1021/jo0256991
C      -0.3765255      1.4053396     -0.1932362
C       0.9903451      1.0542659      0.2948017
C      -1.2414394     -0.6705265      0.3080996
C       0.8276903     -1.0220515     -0.5888096
H      -0.5256595      2.4185190     -0.5342280
H       1.5529734      1.8232402      0.7956542
H      -2.0959011     -1.0298640      0.8494264
N      -1.3815271      0.6408886     -0.1943000
N       1.5258679     -0.1007383      0.1403843
N      -0.2390080     -1.4290225      0.1275969
