17
Source-verbatim SI TS-6-2-x CASSCF(6,6)/6-31+G(d) geometry
C -0.88333 1.53447 0.21197
C 1.84209 0.98881 -0.12165
C 1.74522 -0.37410 -0.50483
C 0.85262 -1.26301 0.04147
C -0.27854 -0.81695 0.93865
C -1.16431 0.14279 0.14806
C -2.07771 -0.37444 -0.73161
H -2.24068 -1.43405 -0.81493
H -2.67873 0.26226 -1.35599
H -0.85292 -1.67553 1.26658
H 0.09178 -0.32708 1.83560
H 2.36714 -0.71088 -1.31830
H 1.60915 1.29774 0.87526
H 0.85353 -2.28356 -0.29868
H -0.46640 1.97127 1.09797
H -1.34811 2.20920 -0.48433
H 2.44904 1.66525 -0.69557
