16
VERBATIM twist-boat cyclohexane-1,4-diyl to 1,5-hexadiene boat transition structure, CASSCF(6,6)/6-31G*, scanned SI p. 11
C -0.397062 -0.002935 1.402168
C 0.173777 1.239406 0.845930
C 0.173777 1.239406 -0.845930
C -0.397062 -0.002935 -1.402168
C 0.173777 -1.237420 -0.923178
C 0.173777 -1.237420 0.923178
H -1.463240 -0.001108 1.574010
H -0.352958 2.123663 1.182218
H 1.217881 1.344686 1.117335
H 1.217881 1.344686 -1.117335
H -0.352958 2.123663 -1.182218
H -1.463240 -0.001108 -1.574010
H -0.340034 -2.135492 -1.235225
H 1.235403 -1.326052 -1.104613
H 1.235403 -1.326052 1.104613
H -0.340034 -2.135492 1.235225
