16
VERBATIM 1,5-hexadiene equilibrium geometry, CASSCF(6,6)/6-31G*, scanned SI p. 15
C 1.355251 1.391893 0.000000
C 0.783079 0.000000 0.000000
C -0.783079 0.000000 0.000000
C -1.355251 -1.391893 0.000000
C -2.125164 -1.906855 -0.967112
C 2.125164 1.906855 0.967112
H 1.104483 2.008216 -0.849954
H 1.124857 -0.540313 -0.879747
H 1.140643 -0.547531 0.867691
H -1.140643 0.547531 -0.867691
H -1.124857 0.540313 0.879747
H -1.104483 -2.008216 0.849954
H -2.501455 -2.912820 -0.913005
H -2.403083 -1.334260 -1.835603
H 2.403083 1.334260 1.835603
H 2.501455 2.912820 0.913005
