30
Source-verbatim SI TS-6c-2c-x (R/U)B3LYP/6-31+G(d) geometry used for CASPT2(6,6)
C 1.99347 2.09661 0.21774
C 0.82676 1.33404 0.34001
C 0.60242 0.17799 -0.39350
C 1.72472 -0.50345 -1.13327
C 2.83300 -0.80727 -0.11594
C 2.64203 -1.87992 0.72108
C 3.87901 0.11797 0.03033
O -0.57297 -0.49687 -0.41380
Si -2.16347 -0.08450 0.03670
C -2.31660 -0.01382 1.91539
C -3.17776 -1.50747 -0.65427
C -2.64467 1.55530 -0.75705
H -2.02930 2.38778 -0.39802
H 1.76875 -2.52002 0.63337
H 3.37154 -2.13696 1.48494
H 1.33806 -1.42021 -1.58680
H 2.12019 0.12531 -1.94399
H 0.10687 1.60736 1.11021
H 2.54962 2.13868 -0.70734
H 4.18397 0.75981 -0.78831
H 4.56036 0.04806 0.87416
H 2.20906 2.88069 0.93793
H -1.78713 0.84037 2.35299
H -3.37220 0.06987 2.20691
H -1.91682 -0.92548 2.37620
H -4.24471 -1.37890 -0.43119
H -3.06796 -1.57811 -1.74308
H -2.85847 -2.46445 -0.22407
H -2.54119 1.51000 -1.84818
H -3.69256 1.79429 -0.53222
