25
8 (amine); source-verbatim CASSCF(14,12) optimized coordinates from JA043988W SI
C        0.733984      -0.400977       0.026447
C        3.477564      -0.749829      -0.012500
C        1.567155       0.717524      -0.141200
C        1.260958      -1.674276       0.176299
C        2.646465      -1.850190       0.151567
C        2.932623       0.526770      -0.152702
C       -0.273185       2.248207       0.328858
C       -2.749249      -0.480366      -0.045371
C       -4.045407      -1.226387      -0.151235
C       -2.554831       0.919375       0.088838
C       -1.193982       1.083534       0.131136
N       -0.645943      -0.146738       0.032748
N        0.977986       1.969171      -0.356248
N       -1.598217      -1.125580      -0.081672
H        0.593311      -2.504218       0.298300
H        3.060886      -2.835026       0.264066
H        3.580896       1.375973      -0.285433
H        4.545214      -0.872345      -0.028032
H       -3.305190       1.680864       0.143345
H       -0.128066       2.424340       1.396378
H       -0.709994       3.142322      -0.095730
H        1.631046       2.720218      -0.291594
H       -3.854678      -2.288518      -0.238263
H       -4.611339      -0.908405      -1.021454
H       -4.666681      -1.060749       0.723642
