17
Source-verbatim SI 4 CASSCF(6,6)/6-31+G(d) geometry
C 0.08040 0.00000 -0.08922
C -0.02681 0.00000 1.29943
C 1.06329 0.00000 2.16501
C 1.03009 0.00000 3.67450
C -0.34969 0.00000 4.30739
C -0.96915 -1.21708 4.58997
C -0.96915 1.21708 4.58997
H -0.49075 -2.15379 4.37165
H -1.94790 -1.25335 5.03281
H 1.58470 -0.86550 4.03141
H 1.58470 0.86550 4.03141
H -1.01635 0.00000 1.72253
H 1.03837 -0.00000 -0.57766
H 2.05041 -0.00000 1.73023
H -0.49075 2.15379 4.37165
H -1.94790 1.25335 5.03281
H -0.79259 0.00000 -0.71408
