25
TS: 2b (NMe) <--> 18 triplet; source-verbatim CASSCF(14,12) optimized coordinates from JA043988W SI
C       -1.377084       1.145200       0.293728
C       -2.694587       0.813725       0.103561
C       -2.695908      -0.588574      -0.128878
C        0.731126      -0.226950       0.131314
C        1.675269       0.761625      -0.308421
C        3.053782       0.348592      -0.425734
C        3.466709      -0.890840      -0.099040
C        2.526288      -1.847571       0.366959
C        1.189705      -1.512367       0.469776
C       -0.723133       2.420865       0.585380
C       -3.868342      -1.486332      -0.384634
N       -1.473246      -1.061975      -0.098764
N       -0.661708      -0.014674       0.153906
N        1.441105       2.032810      -0.639865
H        4.503802      -1.159144      -0.186938
H        2.849192      -2.836005       0.635439
H        0.471715      -2.238556       0.791419
H       -3.535798       1.473496       0.151229
H        3.740810       1.094836      -0.777628
H       -3.527954      -2.497419      -0.567419
H       -4.543300      -1.499156       0.465571
H       -4.433390      -1.151727      -1.248736
H        0.374232       2.392687      -0.218577
H       -0.243277       2.492374       1.551269
H       -1.301729       3.295897       0.336850
