3329
4-thiothymidine T1S0-MIN; verbatim full 3329-atom QM/MM coordinates from ACS SI
N 0.7269021 -0.4507042 -0.9445446
C -0.2884646 -0.5084919 -1.9582622
C -0.4162940 0.5369035 -2.8105436
C 0.1524867 1.7589408 -2.3710835
N 1.3111191 1.6439653 -1.6374237
C 1.6780720 0.5390499 -0.9803626
C -2.1216989 -1.2513663 1.6791904
H -2.7842746 -1.4019311 0.8252779
H -2.6635529 -1.5138568 2.5887553
C -0.8844576 -2.1488688 1.5589599
H -1.1994104 -3.1587388 1.8031779
O -0.3850998 -2.2258479 0.2084246
C 0.8538446 -1.4927211 0.1238471
H 1.6719983 -2.2135925 -0.1233749
H -1.0353811 -1.2822781 -1.9238861
C -1.3881140 0.4635327 -3.9596236
H -1.8543130 1.4256402 -4.1111712
H -0.9315443 0.1499527 -4.8916057
H -2.1939846 -0.2327830 -3.7918835
H 1.7571820 2.5688096 -1.3360567
O 2.7692956 0.4142595 -0.4136278
C 0.2651001 -1.7278355 2.4510717
H -0.0676098 -1.1539193 3.3125754
C 1.1156341 -0.8847912 1.5242997
H 0.7066137 0.1337961 1.5448527
O 0.9490754 -2.8883078 2.9771454
O 2.5206818 -0.7874906 1.8594793
H 2.8752953 -0.2925783 1.0596641
H 1.0065577 -3.5856619 2.2783627
O -1.8216811 0.1405833 1.7658362
H -2.6173044 0.5280631 2.2090745
S 0.4390971 3.3789125 -4.1276483
O -13.2220037 2.3610007 -3.2990009
H -13.2790037 2.6980008 -4.1580012
H -14.1220040 2.0690006 -3.0750009
O 1.2560004 -15.7570044 -1.4500004
H 0.9160003 -15.7940044 -2.3930007
H 0.5620002 -15.1610042 -1.1050003
O 4.3188636 -3.2523970 0.1699059
H 4.6942689 -3.0768066 -0.7202816
H 4.1173897 -4.1953927 0.0713760
O 3.0790009 2.5840007 16.4080046
H 3.6480010 3.3420009 16.1760045
H 2.2090006 2.9160008 16.3270046
O 1.8570005 19.4680054 -2.9100008
H 1.0590003 18.9360053 -2.9230008
H 2.5190007 18.9570053 -3.4510010
O -15.6390044 0.8660002 -2.5550007
H -16.3330046 0.5060001 -2.0000006
H -16.2250045 0.9490003 -3.3350009
O 3.5110010 -14.7870041 0.0920000
H 2.7030008 -15.1600042 0.4820001
H 3.3340009 -15.1010042 -0.8120002
O 2.2820006 0.2210001 -19.1820054
H 2.3510007 0.7400002 -18.3970051
H 2.0940006 -0.7160002 -18.8820053
O -8.0660023 -16.6670047 1.8350005
H -8.3200023 -17.4640049 1.3500004
H -8.0450023 -15.9360045 1.1740003
O -6.9369531 3.2522850 2.1034173
H -7.1798893 4.0262168 1.5568364
H -6.7083121 3.7027474 2.9378792
O 11.1269155 -0.2632752 0.8792544
H 11.6379799 -0.7320479 1.5782927
H 11.1108203 0.6304702 1.2451523
O -14.4160040 3.3100009 -0.3490001
H -13.4700038 3.5680010 -0.3200001
H -14.8050041 3.4420010 -1.2650004
O 7.3190020 -14.5080041 -1.1390003
H 6.8100019 -14.4100040 -0.3040001
H 7.2660020 -13.5580038 -1.5450004
O 7.9200022 0.9820003 -17.6480049
H 8.0760023 0.0290000 -17.4910049
H 8.8040025 1.3000004 -17.3330049
O 2.2434974 3.9203066 -0.9640910
H 2.7862212 4.2243395 -0.1997349
H 1.8426277 4.7828054 -1.2345869
O 0.9819721 0.3659178 11.3245676
H 0.0971852 0.3796728 11.7385547
H 0.8761319 1.0898711 10.6605517
O -2.3940007 -14.7170041 -1.4440004
H -1.8350005 -15.4330043 -1.8090005
H -1.7480005 -14.1310040 -0.9410003
O -3.6560010 5.1860015 -17.6390049
H -3.6850010 4.3930012 -18.2250051
H -3.7500010 4.9520014 -16.7040047
O -6.4319261 1.9038628 -1.1390870
H -5.9399613 2.6699919 -0.7763801
H -6.2620206 1.2458296 -0.4307951
O 10.8570030 -15.2270043 -2.7490008
H 11.7160033 -15.1520042 -2.2770006
H 10.9020031 -14.5920041 -3.4690010
O 13.3630037 3.8550011 1.6850005
H 13.4890038 2.9280008 2.1630006
H 14.2750040 4.1680012 1.5700004
O -9.1738855 -1.7101635 -5.3444528
H -8.5374153 -1.3017668 -5.9726447
H -9.9336421 -1.8415288 -5.9554785
O -8.9420025 -5.9920017 12.3410035
H -8.6070024 -5.6600016 13.2350037
H -8.5070024 -5.3400015 11.7390033
O 9.7456960 -3.4125239 -5.0019398
H 10.5858941 -3.9038157 -4.9116795
H 9.8106624 -3.1549966 -5.9483855
O 9.7860027 0.1920001 14.5570041
H 8.8640025 0.3450001 15.0050042
H 9.7020027 0.9100003 13.8840039
O -4.5520013 0.3510001 -18.6490052
H -4.7830013 -0.5720002 -18.8840053
H -3.6500010 0.4980001 -19.0090053
O -8.9494745 1.8887793 0.8580200
H -8.2215563 2.3024394 1.3688398
H -8.7996937 0.9464444 1.0331932
O 8.5450024 -1.4890004 -16.5020046
H 9.2190026 -2.2050006 -16.6950047
H 8.2660023 -1.7790005 -15.5900044
O 10.8335361 0.4473567 -1.8971136
H 10.2763657 -0.2557441 -2.2927416
H 10.9324542 0.1375768 -0.9764407
O -18.7610053 -6.3820018 -1.4570004
H -18.3970051 -7.2910020 -1.4930004
H -18.0480051 -5.8470016 -0.9820003
O -11.7151318 4.2101923 -0.6022662
H -11.5129107 3.2534189 -0.4984690
H -11.4129989 4.3445991 -1.5208438
O 1.1033847 -10.5362755 0.1595930
H 0.6946174 -11.1072436 0.8483107
H 1.3669977 -11.1942871 -0.5085979
O 0.7146592 5.4512371 2.2849596
H 0.1775970 5.3085785 1.4747746
H 1.6264772 5.3771229 1.9225919
O 0.6400002 6.1370017 17.3010048
H 0.3720001 6.3830018 18.1220051
H 1.4950004 5.7600016 17.5540049
O -16.8320047 3.3460009 1.1310003
H -17.4500049 3.7350010 0.5020001
H -16.0480045 3.2180009 0.5580002
O 1.8020005 -18.0550051 1.7210005
H 2.0870006 -17.7560050 2.5900007
H 1.6380005 -19.0430053 1.9460005
O 0.1790001 3.1610009 -17.0310048
H 0.0250000 4.0810011 -17.4470049
H 0.7140002 3.4640010 -16.2400045
O -1.0171440 4.8813598 0.1469638
H -1.2655441 3.9287750 0.0878872
H -1.9005509 5.2977903 0.0659121
O 17.7410050 1.7230005 -1.9780006
H 18.3480051 1.1930003 -2.4890007
H 17.0520048 1.1080003 -1.7660005
O -6.5590018 -6.9800020 -12.4030035
H -5.9000017 -6.2920018 -12.4010035
H -6.2540018 -7.6100021 -13.1090037
O -7.7662286 -5.0683581 3.0514301
H -7.3744535 -4.3005209 3.5156925
H -8.3071605 -4.5998704 2.3790662
O -6.9880020 11.7150033 -13.8220039
H -6.9770020 12.4740035 -13.3070037
H -6.1750017 11.7680033 -14.2810040
O -7.5300021 16.3790046 -0.7660002
H -6.8580019 15.8030044 -0.3520001
H -7.4810021 15.8290044 -1.6200005
O 9.3868047 -6.6901473 1.9838689
H 10.2576637 -7.0467988 2.2436362
H 9.2272394 -6.0474284 2.7064462
O 10.9890031 12.2640034 -1.2580004
H 10.7160030 13.1540037 -0.9770003
H 10.6630030 12.2160034 -2.1780006
O -15.0590042 -3.7000010 -1.5480004
H -15.7440044 -3.6270010 -2.2360006
H -15.0710042 -2.6890008 -1.2730004
O 2.2470006 -2.2720006 -18.1530051
H 1.8080005 -3.1660009 -17.9430050
H 2.9350008 -2.5990007 -18.7430052
O 3.2044852 -6.3871841 1.9987554
H 2.9586752 -7.3333012 1.9649626
H 2.3516962 -5.9549247 1.7901758
O -0.0380000 -4.3410012 17.5470049
H 0.2170001 -4.4020012 16.6370047
H -0.8050002 -4.9430014 17.6360049
O 3.5720010 17.8050050 -4.1120012
H 4.5470013 17.7970050 -4.1570012
H 3.4240010 16.9230047 -3.6500010
O -2.7680008 -5.8890016 -17.9160050
H -1.9280005 -5.6120016 -18.3510051
H -2.7260008 -6.8960019 -18.0800051
O -5.4354087 -6.6925585 -1.4696237
H -5.7539735 -6.9020289 -2.3713534
H -5.7840239 -7.4912922 -1.0184925
O -7.7830022 -4.7940013 14.3360040
H -7.4310021 -4.8730014 15.2010043
H -7.2610020 -3.9900011 14.1550040
O -3.8890011 15.0050042 -2.1220006
H -4.1890012 15.9380045 -2.2300006
H -4.2450012 14.5910041 -2.8410008
O 15.2830043 -2.7450008 -4.4390012
H 15.8410044 -1.9120005 -4.3270012
H 14.4610040 -2.5930007 -3.9380011
O -14.7820041 -7.0280020 -2.1460006
H -14.5000041 -6.6220019 -1.3420004
H -14.0330039 -7.5740021 -2.2810006
O -13.0630037 13.3900037 -2.9660008
H -12.4810035 12.9610036 -3.6420010
H -13.2990037 14.1460040 -3.5320010
O 4.4348892 -5.4973156 -1.7809485
H 5.2590749 -5.4883934 -1.2482835
H 4.7068747 -6.0672383 -2.5276076
O 2.8160008 -1.7670005 16.3250046
H 2.9320008 -2.1720006 17.2220048
H 3.2180009 -2.3680007 15.6650044
O 6.1610017 17.4020049 -3.8660011
H 6.4530018 16.6980047 -3.2620009
H 6.3600018 17.0880048 -4.7370013
O -4.9510014 -2.3400007 -18.9020053
H -5.3340015 -3.1830009 -18.9740053
H -4.4070012 -2.4870007 -18.1140051
O -8.4080330 -0.9614097 1.1964052
H -8.2287546 -0.7462314 2.1370037
H -7.5991892 -1.4750000 0.9906043
O -4.1510012 19.0830053 0.4430001
H -3.8220011 19.3080054 -0.4300001
H -5.1130014 19.2780054 0.3800001
O 12.7100036 0.2510001 -4.0510011
H 12.5370035 -0.7410002 -3.7980011
H 12.0320034 0.6590002 -3.5060010
O -2.2080006 -18.0080050 -0.3020001
H -2.7660008 -18.8190053 -0.1540000
H -2.2990006 -17.7980050 -1.3060004
O -3.7225987 -2.3069865 -1.4940362
H -3.6811782 -3.1573234 -1.0071799
H -4.6238716 -2.3770308 -1.8861944
O -7.1420020 -1.3160004 17.3150048
H -6.4210018 -1.6400005 16.8060047
H -7.8430022 -1.1380003 16.5990046
O 18.1500051 -2.2520006 -1.7830005
H 18.9000053 -1.7270005 -1.6350005
H 17.9500050 -1.8280005 -2.6090007
O -7.7920022 -4.1490012 -12.5320035
H -7.8490022 -3.5440010 -13.2920037
H -8.6080024 -4.8160013 -12.6390035
O -9.8213034 -2.5519352 6.5658776
H -10.2833056 -1.7651489 6.2119158
H -10.5898143 -3.0695836 6.8814287
O -9.5630027 13.9430039 2.8650008
H -10.2170029 14.7090041 2.9770008
H -9.9800028 13.2980037 3.4970010
O 9.0130025 -4.6630013 -13.2630037
H 8.4100024 -4.7070013 -14.0780039
H 8.6090024 -5.3950015 -12.7530036
O 9.5432721 -5.1253887 4.2514301
H 8.9819803 -4.6486284 4.8962033
H 9.7557185 -5.9258404 4.7635232
O 8.8020025 16.7050047 4.7590013
H 7.8470022 16.7150047 4.4780013
H 8.9110025 15.7470044 4.8090013
O -3.5270010 -3.7980011 -14.1270040
H -2.6640007 -4.3430012 -14.1830040
H -4.0620011 -4.3400012 -13.5190038
O -4.9114672 -6.5774421 4.1486909
H -4.9150641 -5.6654747 3.7947404
H -5.3466823 -6.4882002 5.0179800
O -7.1440020 13.9400039 1.8020005
H -7.4750021 13.3210037 1.1560003
H -7.9300022 13.9510039 2.4060007
O 13.7900039 -5.3760015 -2.4890007
H 13.2940037 -5.6660016 -1.6650005
H 14.6620041 -5.1250014 -2.1140006
O 14.0230039 13.0250036 0.8850002
H 14.7370041 13.4770038 0.4480001
H 13.9180039 13.6090038 1.6030004
O -15.9460045 4.4580012 -2.4050007
H -16.4020046 3.9350011 -3.1320009
H -15.1900043 4.9850014 -2.7210008
O 2.2180006 -16.9780048 -5.1200014
H 1.8810005 -17.1470048 -6.0190017
H 2.2420006 -17.8190050 -4.6700013
O -0.0560000 -13.6800038 12.4980035
H 0.0220000 -14.4210040 13.1220037
H 0.8500002 -13.2740037 12.7570036
O -0.0309027 3.6392905 12.6679925
H 0.1484916 4.3852943 13.2817543
H -0.9874660 3.5029794 12.7616709
O -18.5520052 2.9300008 3.7940011
H -17.9840050 3.1780009 3.0810009
H -18.0630051 2.1400006 4.1940012
O -4.8240014 -16.7640047 0.4300001
H -4.8370014 -16.2180045 1.2170003
H -4.0400011 -16.4990046 -0.0160000
O -1.8070005 1.5020004 -17.4900049
H -2.0570006 1.2400003 -16.5590046
H -1.0580003 2.1260006 -17.4290049
O -2.5110007 19.0510053 2.6990008
H -3.1350009 19.1360054 1.8620005
H -3.0680009 19.3230054 3.4840010
O 16.4920046 3.9830011 3.3480009
H 17.3590049 3.7670011 2.8630008
H 16.4560046 4.8620014 2.8930008
O -14.8940042 -5.6620016 0.6570002
H -15.1510042 -4.9500014 0.0880000
H -14.7850041 -5.1440014 1.5240004
O 6.6232911 -5.5459187 -0.1527461
H 6.6268878 -5.1107450 0.7332173
H 7.5335277 -5.3207977 -0.4291307
O -5.2010015 -4.9240014 -18.4350052
H -5.4200015 -4.8350014 -17.5020049
H -4.4080012 -5.4010015 -18.3160051
O -6.1100745 -2.5314141 1.0584344
H -5.5946881 -3.0842769 1.6800977
H -6.4383784 -3.2428598 0.4550256
O -3.0720009 14.7530041 0.9880003
H -3.0890009 13.8330039 0.7280002
H -3.0300008 15.1750042 0.1050000
O 13.4170038 -2.4810007 -0.9530003
H 13.3060037 -3.3940009 -0.5410002
H 13.4510038 -1.9040005 -0.1890001
O -5.7220016 -15.3570043 2.6700007
H -6.0890017 -14.4810041 2.6190007
H -6.4090018 -15.8680044 2.2550006
O -4.2250012 5.3950015 -15.0470042
H -4.6400013 4.6080013 -14.5650041
H -3.2600009 5.2460015 -14.8950042
O -3.7835029 3.8555546 2.4107986
H -2.8447626 3.7717071 2.6837169
H -4.0067994 4.7281229 2.8008587
O 11.8810033 -14.1840040 2.1090006
H 11.3470032 -14.9260042 2.4310007
H 12.7990036 -14.5440041 2.0890006
O 16.6280047 8.2530023 3.2120009
H 17.4000049 7.7030022 3.2600009
H 17.1360048 9.0680025 3.3800009
O -6.3993021 3.3299001 -4.4765283
H -5.6508484 3.1871160 -3.8687098
H -6.0346004 3.9890994 -5.0965430
O -9.5660027 6.5370018 12.7180036
H -9.0680025 7.1420020 12.0870034
H -10.4390029 6.5470018 12.2640034
O 12.9370036 -13.8750039 -4.1800012
H 13.7530038 -13.9040039 -3.6610010
H 12.8400036 -12.8940036 -4.3910012
O 10.8956947 2.9589007 -2.9686187
H 11.5841099 3.2038356 -2.3152382
H 10.6621050 2.0729224 -2.6162217
O 7.2780020 3.6230010 15.3510043
H 7.1360020 3.9330011 16.2500045
H 6.9940020 2.6930008 15.4460043
O -14.5390041 -10.2520029 -0.3070001
H -14.8730042 -9.5330027 0.2280001
H -14.9120042 -10.9050031 0.3420001
O -9.6950838 6.1033597 3.7065455
H -10.2528442 6.0256450 2.9012922
H -8.9964851 6.6879762 3.3632453
O 7.7580022 -14.8240041 2.3460007
H 7.1890020 -15.5800044 2.3960007
H 7.0310020 -14.1660040 1.9950006
O 5.9109117 7.1899640 -1.3423328
H 4.9695455 7.2769780 -1.0732734
H 5.9372597 7.7507945 -2.1307817
O -10.9972789 -5.6053535 2.8550320
H -10.5133749 -4.8942933 2.3899590
H -10.3145702 -5.9501447 3.4604392
O -10.3060029 13.4760038 -0.2670001
H -10.6470030 14.0130039 0.4880001
H -9.7410027 12.7630036 0.1930001
O 7.1974664 -8.3956510 2.6812435
H 6.7281572 -8.3372044 1.8248299
H 8.0576144 -8.0041577 2.4280512
O 9.0340025 14.7620041 1.9870006
H 9.9980028 14.9100042 1.8300005
H 9.0750025 14.2920040 2.8740008
O -17.4190049 7.3950021 -0.0480000
H -16.8920047 7.8060022 -0.7210002
H -18.1870051 8.0560023 -0.0930000
O -0.4460001 -9.1550026 -17.4820049
H -0.4360001 -9.8370028 -16.7780047
H -1.3430004 -8.9670025 -17.6490049
O -1.1714132 -8.0800951 1.3578334
H -1.5631096 -7.1832041 1.4113793
H -0.5389315 -8.0233690 2.1032799
O -3.0990009 -9.1880026 16.4430046
H -3.7470010 -8.6730024 15.9640045
H -2.2920006 -9.1510026 15.8820044
O 1.5210004 14.0460039 0.0620000
H 2.4390007 13.8720039 0.3370001
H 1.1920003 14.4860041 0.8540002
O 15.3060043 -8.2090023 2.8280008
H 15.6150044 -9.1660026 2.8620008
H 15.4000043 -7.9880022 3.7690011
O 15.4460043 10.7520030 -0.1100000
H 16.0220045 11.1870031 0.5030001
H 14.6660041 11.3470032 -0.0430000
O -13.5510038 7.8710022 -5.9490017
H -12.6470035 7.4420021 -5.7960016
H -14.0260039 7.0720020 -6.3110018
O 3.4380010 -12.9130036 -4.9810014
H 4.2160012 -13.3870037 -4.6520013
H 3.4340010 -12.1870034 -4.3000012
O 1.6960005 -10.7140030 16.5440046
H 2.3710007 -10.5890030 15.8370044
H 1.9250005 -9.9760028 17.1230048
O 3.7662559 3.2427476 -3.8572547
H 2.8706699 2.9895670 -4.1481041
H 3.6221148 4.1939830 -3.6935818
O 0.6620002 5.4570015 14.6310041
H 1.4770004 6.0670017 14.6520041
H 0.5090001 5.4470015 15.5530044
O -10.9150031 -11.3250032 -0.5910002
H -11.3450032 -12.0570034 -0.9550003
H -11.1880031 -11.3930032 0.3100001
O -11.6732999 1.4872929 -0.6840672
H -11.9619148 1.1288301 0.1845403
H -12.4211308 1.2797505 -1.2636929
O 5.5280015 -14.0410039 -3.8830011
H 5.9610017 -13.2910037 -3.4380010
H 5.2830015 -14.5600041 -3.0940009
O 2.1830006 -12.2310034 12.2510034
H 2.5070007 -11.2960032 12.5190035
H 3.0830009 -12.6880036 12.2720034
O 2.2020006 5.3150015 -17.7290050
H 1.4090004 5.6970016 -18.1560051
H 2.3190006 5.9390017 -16.9560047
O 6.0374695 1.7127346 -2.9229877
H 5.4087233 0.9776689 -2.7484434
H 5.4035718 2.4324048 -3.0929636
O 4.6650013 4.5740013 15.3250043
H 5.4230015 4.8110013 15.8730044
H 4.0990011 5.3860015 15.2970043
O -13.1250037 -12.7670036 3.7570011
H -13.6670038 -12.7800036 4.5140013
H -12.2870034 -13.2400037 4.1270012
O -8.0230022 0.5440002 -16.5310046
H -8.2080023 -0.4560001 -16.4490046
H -8.2920023 0.6250002 -17.4190049
O -12.9070036 5.7040016 4.3420012
H -13.0100036 6.6160019 4.6610013
H -13.0750037 5.7980016 3.3940009
O 7.8080022 2.5930007 -13.0480037
H 7.4150021 1.9830006 -13.7350038
H 7.7250022 3.4740010 -13.4160038
O 3.9840395 4.5124741 5.2616525
H 3.0184366 4.5983638 5.1342111
H 4.1324837 5.2651551 5.8716286
O -17.4810049 3.1720009 -4.0950011
H -17.2990048 2.4780007 -4.7910013
H -18.3520051 2.9010008 -3.7370010
O -0.6370002 -19.4900055 -4.3850012
H -1.4890004 -19.3230054 -3.9520011
H -0.5220001 -18.6040052 -4.8050013
O 2.6777664 0.0106377 -4.8321835
H 3.1415743 -0.0199381 -3.9680046
H 2.5900409 -0.9502000 -5.0148942
O -0.5334968 -2.3896209 12.3624300
H 0.0199905 -2.3174980 13.1647343
H -1.0117994 -1.5444630 12.4022025
O 15.1860043 -1.0580003 9.8340028
H 15.0100042 -0.7410002 8.9340025
H 14.6470041 -0.5070001 10.4560029
O -15.3760043 -1.4580004 -10.2100029
H -14.9430042 -0.5990002 -10.3270029
H -14.7790041 -1.7550005 -9.5160027
O 5.6206406 0.5058973 -8.1207969
H 5.2957294 0.8160482 -7.2481880
H 6.1274388 -0.2862696 -7.8479519
O -0.0964634 -3.7935127 10.1131376
H 0.2747718 -3.1381269 9.4920722
H -0.1766516 -3.2513113 10.9352837
O -10.3819461 2.0963284 6.4985292
H -9.7575336 2.6105556 5.9417247
H -10.4839663 2.6688826 7.2862140
O 5.7860016 1.3240004 -14.8120041
H 5.1400014 2.0170006 -15.1040042
H 6.3240018 1.3390004 -15.5550044
O 8.2686241 2.7419480 1.8469102
H 8.0375908 2.1958079 1.0591875
H 7.4551093 3.2680601 1.9264500
O -9.2652868 0.6357133 -3.9516834
H -9.4585333 0.4085960 -3.0111133
H -9.3447318 -0.2476162 -4.3672711
O 4.1950921 -0.2385500 -2.4840197
H 4.5637864 -1.1328856 -2.3290059
H 3.7906789 -0.0348727 -1.5929018
O 2.6442405 0.4329383 13.4911604
H 3.3026014 1.1505511 13.5756406
H 2.2264769 0.6384846 12.6282356
O -11.1510031 -0.3150001 -14.0320039
H -11.2490031 0.4060001 -14.6780041
H -11.9410033 -0.8500002 -14.3040040
O -14.8860042 0.1630000 2.9420008
H -15.8530044 0.1200000 3.1370009
H -14.4940041 -0.3660001 3.6630010
O 3.1910009 -16.4360046 4.5060013
H 3.4040010 -17.3870049 4.5080013
H 2.3860007 -16.3830046 5.0600014
O 5.2320015 -3.3520009 -14.8320042
H 5.0230014 -2.4060007 -14.7610041
H 4.4230012 -3.8390011 -14.6980041
O 4.7536327 -1.9567638 5.4137012
H 5.2858773 -1.2569806 4.9788248
H 4.4276844 -2.4077279 4.6074218
O -2.9520008 -17.9980050 -3.3370009
H -3.9040011 -18.0270050 -3.5310010
H -2.7520008 -17.1140048 -3.6600010
O -3.5290170 0.4773496 -1.3619208
H -3.5415414 -0.4927552 -1.4985422
H -4.2171386 0.5204222 -0.6641411
O 15.2030043 0.2980001 -5.2660015
H 14.8930042 0.5390002 -6.1010017
H 14.3110040 0.1440000 -4.8250014
O 12.3990035 -0.6230002 14.9750042
H 11.4190032 -0.3930001 14.9410042
H 12.4560035 -1.4670004 14.4680040
O -0.1460000 -13.7020038 -0.3430001
H 0.3940001 -13.1370037 -0.9680003
H 0.1420000 -13.2930037 0.4610001
O -1.2270003 6.6530019 -15.5920044
H -0.7210002 6.2200017 -14.9090042
H -0.9150003 7.5990021 -15.4790043
O -0.6295162 8.0238267 2.6859879
H 0.0537975 8.7067746 2.8620159
H -0.0961066 7.2099336 2.6319158
O 14.9960042 -8.3460023 -2.4940007
H 14.3790040 -9.1540026 -2.5750007
H 14.8970042 -8.1580023 -1.5010004
O 16.4060046 3.9830011 -1.4080004
H 15.6720044 3.7760011 -1.9390005
H 16.8300047 3.0720009 -1.4430004
O -5.4520015 0.8830002 -15.7750044
H -6.3210018 0.7800002 -16.1870045
H -5.0180014 0.5610002 -16.6070046
O 15.2660043 -0.4270001 -1.3780004
H 14.6800041 -1.1510003 -1.6490005
H 15.2620043 -0.4920001 -0.3600001
O -15.6860044 -8.2440023 1.4930004
H -15.3520043 -7.5590021 0.9070003
H -16.6100046 -7.9390022 1.7500005
O -13.2690037 9.3680026 0.8700002
H -14.2360040 9.4020026 0.9040003
H -13.1410037 8.4720024 0.6320002
O 0.1191886 -12.3393849 1.9981913
H -0.6746055 -12.8448655 2.2695901
H 0.6315181 -12.3731129 2.8345418
O 2.7280008 6.8740019 -15.5300043
H 3.7220010 6.9520019 -15.5790044
H 2.4020007 7.6210021 -14.9180042
O 4.5182616 1.7776284 0.8456856
H 5.0939599 0.9911710 0.8208152
H 3.7772322 1.3519264 0.3274049
O 18.1660051 5.8390016 -2.2490006
H 18.1290051 6.4940018 -1.4960004
H 17.6840049 5.0560014 -1.8200005
O -3.7130010 -15.7530044 -10.3330029
H -3.1880009 -16.1640045 -11.0710031
H -3.1930009 -16.0270045 -9.5500027
O -3.8460011 -16.0270045 4.6380013
H -4.4780013 -16.3200046 5.3410015
H -4.5150013 -15.5820044 3.9800011
O -2.1879655 0.5244083 -11.3363019
H -1.3487808 0.7738217 -10.8926850
H -2.4288131 1.3631728 -11.7822803
O -2.3480088 2.2612069 7.1533321
H -2.8520052 3.0163986 6.7876372
H -1.7978862 1.9876562 6.3884640
O -0.2950001 18.6790052 4.3190012
H -0.6480002 18.4000051 5.1700014
H -1.1730003 18.7250052 3.7710011
O 15.3150043 3.2070009 5.6350016
H 15.7300044 3.2660009 4.7690013
H 14.6130041 2.6240007 5.3120015
O -12.3620035 0.5440002 -7.8660022
H -13.3290037 0.8050002 -7.8110022
H -12.0380034 1.2490003 -7.2880020
O -15.5090043 -0.7790002 11.4150032
H -15.3490043 -1.4120004 10.7110030
H -15.0710042 -1.1920003 12.2390034
O 7.2835912 -1.3404756 -6.8582357
H 8.1351265 -1.7464012 -7.1067750
H 7.5459048 -0.7567165 -6.1154183
O 0.6264993 2.3821132 9.5859193
H -0.1912664 2.9143496 9.6231560
H 1.0713488 2.7723650 8.8107852
O -2.9570731 1.2801359 -14.6352407
H -3.8690633 1.2482514 -14.9915704
H -3.0522785 1.9105913 -13.8952960
O -6.6540650 4.9610649 4.2985995
H -5.7805235 5.3569858 4.0998486
H -6.8662630 5.4288719 5.1315292
O -4.3990012 16.5470046 5.4800015
H -4.5430013 16.0690045 4.6210013
H -5.3920015 16.6770047 5.6990016
O 9.6932694 1.8508132 4.1364496
H 9.3384774 2.4698750 4.8074952
H 9.2394362 2.1579834 3.3252182
O -13.6570038 5.6980016 -3.5030010
H -12.9960036 6.3340018 -3.7740011
H -13.9460039 5.2900015 -4.3330012
O 1.4660004 -12.3200034 -1.9990006
H 1.0270003 -11.8670033 -2.7730008
H 2.4040007 -12.0420034 -2.1590006
O 3.3947391 7.6264872 -0.3685547
H 2.7838011 7.9809358 -1.0518099
H 3.3142575 8.3282446 0.3145889
O -1.0910003 7.8050022 15.6270044
H -0.4980001 7.2150020 16.1290045
H -0.5700002 8.0020022 14.8010041
O -3.3280009 -11.7420033 -13.2320037
H -3.1460009 -11.4460032 -12.3520035
H -3.4140010 -10.8770030 -13.7060038
O -5.9520017 -13.6930038 6.5220018
H -6.3660018 -12.7940036 6.3720018
H -6.7990019 -14.2520040 6.6080018
O -3.2266501 2.9021399 -12.3092077
H -2.6829876 3.7172474 -12.2173799
H -4.0291037 3.1854488 -11.8245793
O -3.8553062 4.4994611 6.5666265
H -4.6426391 3.9104771 6.4783815
H -4.2212427 5.1661171 7.1840178
O 14.1310040 5.9080017 -11.9960034
H 14.2920040 5.9910017 -11.0520031
H 13.4300038 5.2050015 -12.0440034
O 14.1570040 7.5580021 3.9630011
H 14.5940041 6.9160019 4.5260013
H 14.9370042 7.9000022 3.5040010
O -12.2070034 -10.7100030 -6.8700019
H -11.5750032 -11.4460032 -6.7060019
H -11.9490033 -10.0620028 -6.1740017
O -12.7310036 -11.2510031 7.6670021
H -13.3770037 -11.3480032 8.3710023
H -12.3880035 -10.3550029 7.9180022
O -8.1370023 10.1770028 -2.6820008
H -7.4000021 10.6770030 -3.0430009
H -8.6900024 11.0070031 -2.5310007
O 5.6020016 -11.0070031 -8.4050024
H 4.7170013 -11.4730032 -8.2520023
H 5.5260015 -10.6520030 -9.2830026
O 6.1864427 -5.9642224 9.7108776
H 5.4453103 -5.4519388 9.3340129
H 5.8956410 -6.8655418 9.5133586
O 7.2602319 10.5407929 -6.1981533
H 6.9864714 10.1108953 -5.3649202
H 8.1466562 10.8643432 -5.9340377
O 5.7160016 13.2040037 12.0880034
H 4.9180014 13.4300038 12.6230035
H 5.2740015 12.9030036 11.2440031
O -3.7936087 -1.7331177 -5.5464726
H -4.4662528 -1.0424295 -5.7131544
H -3.3747194 -1.8184727 -6.4229937
O -4.5940013 1.8110005 14.8890042
H -4.2610012 1.2970004 15.6630044
H -5.3440015 2.3450007 15.1810042
O 15.6680044 0.4620001 -8.5420024
H 15.6040044 -0.4250001 -8.9570025
H 15.1020042 1.0870003 -9.0310025
O 11.6590033 2.6950008 11.8360033
H 10.7470030 2.3800007 12.1020034
H 11.7810033 3.2680009 12.5980035
O -10.3930029 -13.1260037 -6.5510018
H -9.7610027 -13.4480038 -5.8340016
H -9.9820028 -13.3590037 -7.4090021
O -10.9890031 -11.8530033 10.6610030
H -11.7020033 -12.4180035 10.2330029
H -11.5280032 -11.1860031 11.2030031
O -10.0010028 8.0530023 -8.0560023
H -9.8620028 7.6750021 -7.2150020
H -9.1740026 8.4140024 -8.1720023
O -12.9030036 5.0150014 7.0770020
H -12.8850036 5.1970015 6.1150017
H -13.6990038 5.3540015 7.4210021
O 11.5190032 -12.6940036 -8.2620023
H 10.8850030 -13.1220037 -7.7420022
H 10.9010031 -11.9900034 -8.5940024
O 6.6470019 -9.5540027 11.6620033
H 6.6750019 -10.2250029 12.4160035
H 7.6260021 -9.5820027 11.4440032
O 8.7358312 5.4964583 -8.8817507
H 9.2483940 6.3262556 -8.8742658
H 8.4009285 5.4934565 -7.9688062
O 8.2106072 6.2177622 7.8071153
H 8.1837059 6.1347899 6.8314419
H 9.1214322 6.5562648 7.9394046
O -8.8730025 -15.2040043 4.0870011
H -8.8990025 -14.3900040 3.5520010
H -8.6300024 -15.8630044 3.4230010
O -7.1759047 6.4210982 6.6487501
H -7.0884377 7.3242860 7.0275125
H -6.5358497 5.9689994 7.2334843
O 11.2520031 4.1300012 -15.6760044
H 10.5260029 4.6500013 -16.0550045
H 11.0990031 3.2770009 -16.1750045
O 9.9512437 4.2919853 0.2712482
H 9.1547654 4.5630666 -0.2288035
H 9.5313077 3.6925368 0.9210033
O -8.6640024 -9.5580027 -14.7320041
H -7.7770022 -9.9310028 -14.5880041
H -8.5040024 -8.6110024 -14.8890042
O -8.7700025 -12.6810035 3.0200008
H -7.8520022 -12.4880035 2.7990008
H -8.9810025 -11.7750033 3.1840009
O -5.8050016 6.9870020 -17.7680050
H -5.1110014 6.3140018 -17.8590050
H -5.2790015 7.7730022 -17.5660049
O -4.6469276 3.8406539 -0.2283032
H -4.2493506 4.7355021 -0.2731502
H -4.4956004 3.6633820 0.7251089
O 8.6020024 -16.7130047 -1.8570005
H 9.2420026 -16.0780045 -2.3150006
H 8.0480023 -16.0750045 -1.4410004
O 7.3950021 4.6560013 -14.5760041
H 8.0500023 5.0610014 -15.2450043
H 6.5860018 5.0650014 -14.9680042
O 11.6040246 7.1447155 -1.6860346
H 12.0808052 7.9466074 -1.3681979
H 10.7246051 7.3984858 -1.3419943
O -10.3120029 -11.9100033 6.3330018
H -11.1180031 -11.9670033 6.8060019
H -10.3590029 -10.9730031 6.0470017
O -8.7850025 5.0080014 -13.4550038
H -8.7190024 4.3340012 -14.1980040
H -8.9020025 5.8580016 -13.8040039
O -9.9060028 9.5040027 5.7030016
H -10.8300030 9.7960027 5.8150016
H -10.1180028 8.5080024 5.9710017
O 7.9020022 -12.7240036 8.5810024
H 7.8950022 -13.6060038 8.1620023
H 7.2710020 -12.2310034 8.0330022
O 9.9870028 5.2490015 -11.6770033
H 9.6680027 4.7340013 -10.9250031
H 9.3150026 5.9700017 -11.7230033
O 7.9633465 5.7817165 5.0775320
H 8.5229090 6.1909959 4.3788050
H 7.0935182 5.8353175 4.6635236
O 0.1590000 -13.2930037 -14.1310040
H 0.3560001 -12.4260035 -13.7110038
H -0.3970001 -13.6290038 -13.4270038
O -1.4910004 -14.8980042 5.5800016
H -2.0240006 -14.1940040 5.9490017
H -2.1530006 -15.6180044 5.3190015
O 2.1940265 1.0246251 -11.1720165
H 1.3053890 1.1576026 -10.7806235
H 2.1208397 0.0793110 -11.4272942
O -1.4804055 5.3765582 5.5093946
H -1.6864836 6.3327771 5.4280412
H -2.2999111 5.0743849 5.9604040
O 15.7830044 5.4940015 0.9350003
H 16.2160045 5.1390014 0.1040000
H 15.3810043 6.2900018 0.5780002
O -14.9660042 8.6900024 -1.5750004
H -15.8570044 8.8240025 -2.0170006
H -14.5230041 9.5650027 -1.7910005
O 2.2968053 -8.8920822 -4.1231329
H 1.9746311 -7.9683120 -4.1730030
H 2.1945570 -9.1725650 -5.0537187
O 0.0350000 -11.0440031 11.0450031
H -0.6740002 -11.1730031 10.4110029
H 0.0600000 -11.8970033 11.5290032
O 1.7933385 8.9450568 -2.2217178
H 2.1036061 9.3766503 -3.0479568
H 0.8972029 8.6494757 -2.4918350
O 0.0150000 7.6320021 11.1670031
H -0.9190003 7.4600021 11.2370031
H 0.2120001 7.8650022 12.0950034
O -5.3110015 -15.0220042 -1.6750005
H -5.6190016 -14.0870039 -1.7840005
H -4.3420012 -14.9340042 -1.9200005
O -4.0750590 2.9026064 -2.7480266
H -4.3073874 3.3272348 -1.8940216
H -3.9584519 1.9820937 -2.4418595
O -5.7810016 6.2460017 16.3830046
H -5.9470017 6.4520018 17.3130048
H -6.6050018 6.4950018 15.9140045
O 13.2810037 -10.4440029 -1.7990005
H 14.0060039 -11.0530031 -1.5890004
H 12.5760035 -11.1300031 -1.7170005
O 14.2670040 7.0230020 -2.5910007
H 14.7850041 7.1500020 -1.7530005
H 13.3500037 6.8040019 -2.2880006
O -14.5530041 -8.8390025 -6.8440019
H -13.8960039 -9.4220026 -7.3410021
H -14.5370041 -9.2200026 -5.9890017
O -11.0440031 9.3140026 11.1830031
H -10.8320030 9.0340025 10.2630029
H -10.3570029 9.9090028 11.4420032
O 3.4090010 -11.8860033 -7.4740021
H 3.0930009 -11.1060031 -7.0240020
H 3.4600010 -12.4940035 -6.7430019
O 2.0509945 -9.9446303 9.5772554
H 1.3318094 -10.2462141 10.1636317
H 1.7061753 -9.0856261 9.2690543
O 5.1867421 7.2121285 -6.8834231
H 4.7732006 7.4185834 -6.0196109
H 4.3858814 7.1174595 -7.4486673
O 2.8030008 9.1880026 11.3370032
H 3.6540010 8.7800025 11.5150032
H 2.4500007 9.2910026 12.2620034
O -14.2470040 -10.1500028 -4.3180012
H -14.0600039 -11.1130031 -4.0830011
H -13.3650037 -9.7120027 -4.1310012
O -15.6110044 9.9300028 -5.2900015
H -15.3270043 10.2290029 -4.3570012
H -14.7550041 9.4570026 -5.4920015
O -14.6430041 7.0770020 10.7770030
H -15.1190042 6.3810018 11.2910032
H -14.5760041 6.6880019 9.8620028
O 3.6039966 -10.9950672 -3.0166522
H 4.0974053 -10.4549445 -2.3728306
H 3.0967448 -10.2701044 -3.4538238
O 0.6770002 -8.8780025 12.5090035
H 1.5930004 -8.7060024 12.7050036
H 0.7570002 -9.7360027 12.1340034
O 3.3593015 12.8054054 -1.8895157
H 3.9300779 12.0742834 -2.2155967
H 3.7809587 12.9804984 -1.0248547
O 0.0510000 8.9590025 13.5990038
H 0.9530003 9.1110025 13.7460038
H -0.4840001 9.7170027 14.0220039
O -11.8190033 -2.2580006 -11.6470033
H -11.3130032 -1.8410005 -12.3960035
H -12.0570034 -3.0470009 -12.1200034
O -14.3210040 -3.2050009 10.3560029
H -13.5610038 -3.1730009 10.9660031
H -13.9120039 -3.9060011 9.7360027
O 7.6070021 -6.9860020 -12.1660034
H 7.2490020 -7.8740022 -12.1920034
H 7.9310022 -6.9890020 -11.2180031
O 5.8744699 -3.2602919 7.5838316
H 5.4934022 -2.7357837 6.8452490
H 5.0965298 -3.7927040 7.8561742
O 5.1670014 16.0490045 7.2770020
H 5.6440016 16.5010046 7.9590022
H 4.3080012 16.6110046 7.3420021
O -7.6550021 -15.8090044 6.5100018
H -6.9340019 -16.4110046 6.1460017
H -8.1250023 -15.5900044 5.7080016
O -5.7180016 3.4910010 -13.9580039
H -5.5340015 2.7290008 -13.4190038
H -6.4600018 3.0490009 -14.5340041
O -5.9672129 2.8054705 6.6930525
H -6.4737666 3.0225143 7.5067956
H -6.2075316 1.8735578 6.5463609
O 11.4880032 -12.1060034 3.7520011
H 11.8090033 -12.4800035 4.5900013
H 11.7610033 -12.8000036 3.1540009
O 12.1730034 3.7020010 -13.3150037
H 11.3020032 3.8760011 -12.9170036
H 11.9340033 3.9340011 -14.1990040
O 11.5541805 6.0167825 1.6956675
H 12.2354127 5.3409617 1.8840818
H 10.9764408 5.5008510 1.0976631
O -3.3940009 -9.1400026 -14.1780040
H -2.9130008 -8.5620024 -13.6380038
H -4.0980011 -8.5600024 -14.6410041
O -3.4132636 -4.9651682 -0.6852871
H -2.7927428 -5.2728016 -1.3787291
H -4.1634886 -5.5774506 -0.8553046
O -5.2770015 -6.7170019 17.0740048
H -6.0510017 -7.3190020 16.8490047
H -4.9820014 -7.1100020 17.9340050
O -2.5090007 9.6440027 -13.7350038
H -2.5800007 9.5430027 -14.6670041
H -2.6270007 10.6520030 -13.5730038
O -3.7730011 12.0210034 0.2040001
H -2.9660008 11.4660032 0.1700000
H -3.9030011 12.1610034 -0.7580002
O 17.2670048 -6.2800018 1.5500004
H 16.5510046 -5.6420016 1.5700004
H 16.8230047 -7.0980020 1.6770005
O -17.4310049 -2.4460007 4.9520014
H -17.1650048 -3.3950010 4.6550013
H -16.7400047 -2.4070007 5.5620016
O 1.7054691 -6.9599004 -10.0867895
H 1.4759308 -7.8432506 -9.7219952
H 1.2475047 -6.3846847 -9.4437104
O -0.8946086 -5.9315355 5.3857969
H -0.3013304 -6.2902328 4.6949063
H -1.5398089 -6.6736489 5.4177467
O 2.8050008 11.9890034 -11.0020031
H 2.6600007 11.3520032 -10.2760029
H 2.5890007 12.8020036 -10.6130030
O 2.3290007 15.2780043 2.7610008
H 1.8680005 14.8110041 3.4970010
H 1.7620005 16.0670045 2.7160008
O -12.5950035 -4.5360013 -12.7470036
H -13.1010037 -4.8940014 -11.9280033
H -13.1470037 -4.7490013 -13.4420038
O -13.6480038 -1.3910004 4.8870014
H -13.9720039 -2.0160006 5.4800015
H -12.8420036 -1.0100003 5.2930015
O 7.5570021 -5.0600014 -15.6130044
H 6.9850020 -4.4060012 -15.2240043
H 6.8980019 -5.6980016 -15.9830045
O 1.6685755 -5.1872335 6.6482928
H 1.3878786 -4.3202107 6.2890835
H 0.8344095 -5.6730697 6.5397986
O 5.9320017 16.0170045 4.7230013
H 5.5560016 15.9300045 5.6560016
H 5.9270017 16.9830048 4.7090013
O -11.3067343 2.9419606 -7.0086883
H -10.9227201 3.4061641 -7.7853635
H -10.5216052 2.9022609 -6.4259720
O -14.6530041 -0.2880001 8.3190023
H -14.4090040 0.3590001 7.5950021
H -15.1620042 0.2840001 8.8950025
O 4.1024561 -2.5890731 -10.6079539
H 4.7565043 -1.8604865 -10.7028561
H 4.6269903 -3.3540359 -10.9077152
O 4.6228377 0.3114912 8.8454673
H 4.3880206 1.2222956 9.1260863
H 4.2196224 -0.2265950 9.5529907
O 4.4250012 -8.5980024 -10.3310029
H 4.2610012 -7.8110022 -10.8910030
H 5.2650015 -9.1080025 -10.5760030
O 0.9990290 -1.9831301 8.2176873
H 0.8577025 -2.4818772 7.3833065
H 1.5917433 -1.2908849 7.8461981
O 0.4300094 11.9773645 -4.3789874
H 0.4338413 12.3967905 -5.2611991
H -0.4908666 11.6622896 -4.3008412
O -0.6720002 15.5460044 10.7860030
H 0.1620000 15.0540042 10.5560030
H -0.7680002 15.3170043 11.7760033
O -3.4040010 -2.2010006 -16.7250047
H -3.6370010 -2.2340006 -15.8120044
H -2.5390007 -2.6470007 -16.7910047
O -4.2205979 1.1763635 2.8773988
H -4.1926199 2.1416252 2.6885181
H -4.6102205 1.1753823 3.7612302
O -0.2500001 16.6230047 1.3770004
H -1.1300003 17.0220048 1.5520004
H -0.2680001 16.7100047 0.4480001
O 12.4480035 -5.1930015 0.0900000
H 12.3970035 -6.1390017 0.2170001
H 11.8490033 -4.9150014 0.8280002
O -4.9997163 -4.6487042 -4.3844668
H -5.8912035 -4.8958186 -4.6961310
H -5.2097205 -3.8343847 -3.8807928
O -8.8980025 -1.6510005 15.3000043
H -8.6730024 -1.2080003 14.4670040
H -9.5580027 -2.3640007 15.1210042
O -2.1740006 16.9150047 -6.5670018
H -2.5900007 17.4640049 -5.8890016
H -2.3570007 17.4950049 -7.3520021
O 17.4300049 -0.7820002 -4.3570012
H 16.7540047 -0.2330001 -4.8310014
H 18.2570051 -0.5430002 -4.8640014
O 12.7380036 -3.1410009 13.6830038
H 12.1430034 -3.7730011 13.2280037
H 13.4540038 -3.0880009 13.0100036
O -13.0890037 -0.4790001 -4.2080012
H -12.4790035 0.1370000 -4.6740013
H -13.5270038 -0.8840002 -4.9910014
O 2.6165589 -2.6843038 -5.2915744
H 3.5027445 -2.8872886 -5.6625861
H 2.6223461 -3.1997826 -4.4533072
O -1.5810004 -0.6090002 15.1950043
H -0.5700002 -0.7360002 15.0600042
H -1.6670005 -0.2550001 14.3020040
O 3.3130009 14.4290040 -6.0850017
H 3.3180009 15.0780042 -6.7960019
H 2.6360007 13.7900039 -6.4140018
O -17.2580048 0.6430002 4.6940013
H -17.3130048 -0.2610001 4.4270012
H -16.9860048 0.6040002 5.6270016
O 2.9082530 -1.5911674 -8.2044390
H 3.6046152 -1.9839516 -7.6427763
H 3.1956040 -1.9151482 -9.0781251
O -1.7606974 -1.3249442 5.2153578
H -1.4461072 -0.4171145 5.0072370
H -2.5083686 -1.0888561 5.7995994
O -0.0980000 15.9520045 8.1770023
H 0.7750002 15.5650044 8.4000024
H -0.5750002 15.7770044 9.0310025
O 17.6160049 -4.0290011 7.7500022
H 17.5400049 -3.2940009 8.4490024
H 17.4600049 -4.8100013 8.2780023
O -13.8010039 -1.0060003 -1.5750004
H -14.6110041 -0.4600001 -1.5780004
H -13.3990037 -0.7980002 -2.4230007
O 0.2500289 -4.6005200 -1.3099208
H -0.4324200 -5.1319562 -1.7748137
H -0.2618394 -3.8333552 -1.0086647
O 0.8350002 -1.4380004 14.5470041
H 1.2820004 -0.8150002 13.9080039
H 1.4770004 -1.3290004 15.2500043
O 0.5640002 16.0110045 -4.7950013
H 0.5120001 15.1770042 -5.2630015
H 1.1920003 15.9160045 -4.0210011
O -5.5250015 -4.4190012 -15.7350044
H -6.3240018 -3.9870011 -15.3920043
H -4.8450014 -3.9740011 -15.1890043
O -11.2554952 -0.3423252 5.7034603
H -10.9968682 0.4531739 6.2211351
H -10.9374107 -0.0329785 4.8278464
O -2.5020007 14.9500042 -9.7500027
H -2.4200007 15.8820044 -10.1460028
H -3.3070009 15.1570042 -9.1430026
O -4.7840013 15.3660043 3.1330009
H -5.4260015 14.7330041 2.7940008
H -4.1390012 15.3130043 2.3490007
O 11.2748217 -4.1983034 2.3074868
H 11.4202504 -3.2468309 2.4782818
H 10.6605044 -4.4341765 3.0372822
O 13.5450038 13.6440038 3.4620010
H 14.2580040 12.9990036 3.8480011
H 13.1830037 13.9230039 4.3860012
O 0.2518720 -5.5071517 -8.2824699
H 0.1704747 -4.5886566 -7.9658340
H -0.5280458 -5.6093703 -8.8619562
O -5.0523805 -4.0327131 9.7077792
H -4.1997135 -4.2998802 10.1215682
H -4.8821709 -4.2563510 8.7721188
O -0.1550000 13.3830037 -9.5350027
H -0.9360003 14.0040039 -9.5800027
H 0.6530002 13.8660039 -9.8440028
O -0.7620002 12.2300034 7.6840022
H -1.1640003 12.8800036 7.0030020
H 0.0660000 12.7570036 7.9630022
O 15.1710042 -4.3760012 6.2870018
H 15.9690045 -3.9480011 6.5310018
H 14.5120041 -3.9430011 6.8450019
O -8.5922709 -6.7954598 -0.6804123
H -8.1275044 -7.6466031 -0.7224029
H -9.3721447 -6.9473106 -1.2542545
O -9.2370026 12.7670036 -2.6620007
H -10.0120028 12.6300035 -3.2230009
H -9.6350027 13.1240037 -1.9180005
O 10.3767397 -6.2454120 -2.2998891
H 10.0594020 -5.6606113 -1.5694936
H 10.8881068 -5.6212227 -2.8415978
O 6.9150019 -2.8570008 16.1870045
H 6.7520019 -3.4000010 16.9180047
H 7.8480022 -2.7380008 16.2890046
O 9.3280026 13.4410038 -3.1740009
H 9.6050027 14.1780040 -3.7570011
H 8.6210024 13.8190039 -2.5750007
O -7.4867118 -5.2171220 -5.5902796
H -7.3626977 -4.3493220 -6.0462546
H -7.2979171 -5.7743775 -6.3773071
O -7.5277369 -4.2123826 10.8605552
H -6.7044019 -4.1397345 10.3314686
H -8.1477892 -3.6372106 10.3907574
O -5.9540017 16.3770046 -5.7620016
H -6.0190017 17.1600048 -5.2000015
H -6.5090018 16.6240047 -6.5460018
O 10.1030028 -5.8530016 -7.5080021
H 10.9850031 -6.3800018 -7.5780021
H 10.1960029 -5.3020015 -8.3040023
O 12.4440035 -3.8350011 10.2750029
H 11.9740034 -3.0480009 9.8280028
H 11.7670033 -4.4940013 10.2160029
O 9.7250027 15.3230043 -5.1600014
H 10.3230029 14.8590042 -5.7220016
H 9.2020026 15.7920044 -5.8510016
O -17.6530049 -0.9360003 -1.0040003
H -18.6760052 -0.8670002 -1.0980003
H -17.5280049 -0.5510002 -0.1360000
O 2.3890007 -18.2730051 -0.9480003
H 2.1690006 -17.3260048 -1.3030004
H 2.4110007 -18.1830051 0.0730000
O 2.9410008 -0.5280001 -15.8100044
H 3.7040010 -0.8090002 -16.2980046
H 3.3140009 -0.4650001 -14.8740042
O 3.9885600 -2.9343115 2.9435817
H 4.2232971 -3.1107826 2.0097610
H 3.3163088 -2.2351703 2.7970145
O -0.3900001 -2.0270006 18.6680052
H -0.0300000 -1.2580004 18.1970051
H -0.0220000 -2.7890008 18.2050051
O 2.1300006 18.8340053 0.1270000
H 2.4510007 19.4190054 -0.5660002
H 2.1160006 17.9840050 -0.3110001
O 18.1510051 -1.2260003 3.3700009
H 18.4080052 -1.8380005 2.6110007
H 18.0860051 -1.9480005 4.0470011
O 1.3660004 -4.8160013 -17.7050050
H 0.6050002 -5.2830015 -18.1710051
H 1.7560005 -5.5650016 -17.1920048
O -2.1603136 -2.7562502 -3.6728113
H -2.7909496 -2.4294663 -4.3568827
H -2.7339204 -2.7253590 -2.8829426
O -2.6140007 -5.4430015 16.6760047
H -3.4940010 -5.7160016 17.0050048
H -2.8130008 -4.4600012 16.3510046
O -1.4400004 15.6000044 -1.4120004
H -2.3410007 15.3370043 -1.7520005
H -0.9260003 14.7790041 -1.5190004
O 16.0680045 -4.1350012 -1.6470005
H 16.7230047 -4.7930013 -1.9660006
H 16.5920046 -3.2920009 -1.7140005
O -6.0393078 -2.4675009 -2.9212911
H -6.9446215 -2.7970306 -2.7536765
H -6.2215475 -1.5276739 -3.1382957
O -7.8800022 -1.1860003 12.7690036
H -8.0720023 -1.6440005 11.9560033
H -7.0140020 -0.6690002 12.6070035
O -4.7340013 17.5420049 -2.4170007
H -5.4110015 18.1370051 -2.7590008
H -4.0650011 18.2100051 -2.2900006
O 12.1770034 -2.4110007 -3.3700009
H 12.2830034 -3.3220009 -3.5960010
H 12.3000034 -2.4570007 -2.3600007
O -17.3010048 0.4350001 -4.8700014
H -17.7980050 -0.3010001 -4.4690013
H -17.2360048 0.0490000 -5.7610016
O -0.5768470 -4.5488892 -4.8882265
H -0.2052735 -4.0645987 -5.6516289
H -1.0798274 -3.8231445 -4.4510237
O -4.9220014 -2.7900008 15.6770044
H -3.9140011 -2.8990008 15.6080044
H -5.1920015 -2.9000008 14.7340041
O 0.6960002 13.5120038 -6.8050019
H -0.1360000 13.9920039 -6.7370019
H 0.8070002 13.6400038 -7.7720022
O 14.8240041 -3.5160010 11.1820031
H 15.2270043 -2.8360008 10.6400030
H 13.8940039 -3.5850010 10.8680030
O -17.5800049 -4.0380011 0.4240001
H -17.5020049 -3.1310009 0.3910001
H -18.4780052 -4.2710012 0.1560000
O 2.5240007 -5.3990015 -14.3900040
H 2.5640007 -5.8310016 -13.5260038
H 2.4930007 -6.1180017 -15.0570042
O 6.1119042 -8.2167728 0.1224284
H 5.2790335 -8.2971368 -0.3985526
H 6.2607697 -7.2455388 0.0602713
O 7.1090020 16.1620045 0.6600002
H 7.9640022 15.7490044 1.0420003
H 6.4380018 15.7850044 1.2470003
O -16.8870047 -0.7860002 -7.1630020
H -17.1720048 -1.7110005 -7.0890020
H -17.2710048 -0.5910002 -8.0390022
O -2.1530381 -2.3797401 -7.6567857
H -2.1891173 -2.7163188 -8.5799790
H -1.2168156 -2.5828164 -7.4399376
O -5.3176069 -1.3287042 10.0868343
H -6.2569671 -1.1794532 9.8673024
H -5.2507564 -2.3033258 10.0418844
O 15.3670043 -1.8230005 -9.8670028
H 14.6530041 -2.4120007 -9.6100027
H 15.8600044 -2.3360007 -10.4330029
O 13.8450039 -2.2550006 7.3320021
H 12.9310036 -2.2880006 7.6180021
H 14.0480039 -1.4620004 6.9320019
O -11.3280032 -9.1880026 -9.5670027
H -10.7050030 -8.9270025 -10.2730029
H -10.9710031 -10.0310028 -9.2530026
O -11.9760034 -8.6760024 8.4280024
H -12.2530034 -8.6880024 9.3390026
H -11.1400031 -8.1420023 8.4750024
O -12.5660035 9.3310026 -10.7020030
H -11.9880034 10.1110028 -10.7160030
H -11.9990034 8.6250024 -11.0080031
O -12.3210034 10.1150028 6.5980018
H -11.8380033 10.6630030 7.2940020
H -13.1450037 9.9330028 7.0510020
O 4.7003960 -9.2931773 6.9319728
H 4.4192943 -8.3962754 6.6312402
H 5.1718598 -9.0760267 7.7668001
O 6.0733388 8.8605626 -11.0175015
H 5.9843626 9.0122025 -10.0572993
H 6.3307514 9.7499669 -11.3163993
O 6.7760019 7.8680022 9.4080026
H 7.2050020 8.6830024 9.1750026
H 7.3580021 7.3200020 8.8640025
O -6.5527118 1.0215217 -12.6504522
H -7.3540447 0.4721334 -12.7104484
H -6.0953564 0.6058447 -11.9073339
O -7.8950022 7.3520021 10.5790030
H -7.1600020 7.8060022 10.1000028
H -8.3030023 6.8790019 9.8110027
O 10.8420030 -14.6440041 5.7740016
H 10.0450028 -14.6990041 6.2830018
H 10.6220030 -15.0420042 4.9170014
O 12.8790036 2.1070006 5.5830016
H 13.0910037 2.0090006 6.5370018
H 11.8810033 2.1100006 5.4890015
O -0.5650002 -3.3180009 -16.2490045
H 0.3230001 -3.5310010 -16.5020046
H -0.5250001 -2.3740007 -16.0220045
O -1.9746294 -5.5004559 1.6436725
H -2.6108910 -5.2523997 0.9387630
H -2.3182699 -5.0073720 2.4093422
O -3.3790009 0.3310001 17.0170048
H -3.3590009 -0.3490001 17.6640049
H -2.7730008 -0.1810001 16.4340046
O -1.0110003 17.9290050 -3.3620009
H -0.5150001 17.3120048 -3.9410011
H -1.4410004 17.3130048 -2.7340008
O -6.3757656 -7.5959566 -3.9322866
H -6.7197594 -8.5028404 -4.1240154
H -7.0624426 -7.0665939 -4.3596537
O -5.5560016 -4.1340012 12.9760036
H -6.1940017 -4.4080012 12.3060034
H -4.8510014 -4.7830013 12.7710036
O -2.2884594 10.9002989 -4.1308913
H -2.2064640 10.8790514 -5.1052615
H -2.5720245 9.9876915 -3.9187407
O 12.1690034 -4.9550014 -4.6280013
H 12.8990036 -5.2750015 -4.0230011
H 12.2470034 -5.5590016 -5.4110015
O 10.5240029 -4.7060013 13.0740037
H 10.1480028 -3.8550011 12.7050036
H 9.7100027 -5.2650015 12.9190036
O 12.6400035 11.5500032 -3.3930009
H 13.6250038 11.4220032 -3.2070009
H 12.4510035 10.6350030 -3.6160010
O 10.8630030 7.1210020 14.6950041
H 10.4390029 7.0680020 13.7410038
H 10.4250029 6.3240018 15.0410042
O -1.5830004 -5.7960016 -15.1960043
H -2.2730006 -6.1040017 -15.8330044
H -1.3250004 -4.9150014 -15.6030044
O -6.7840591 -2.8525050 4.4042918
H -6.9058041 -2.7473162 5.3684600
H -7.1684088 -2.0045752 4.0903899
O -6.7260019 -4.3980012 17.1410048
H -6.2300017 -5.2080015 16.8280047
H -6.1550017 -3.7310010 16.8450047
O 1.9780006 16.4530046 -1.3700004
H 1.8170005 15.6310044 -0.9220003
H 2.4860007 16.1430045 -2.1250006
O 17.8070050 -2.9750008 1.2190003
H 17.4540049 -2.9810008 0.3430001
H 18.7650053 -3.1210009 1.0210003
O -0.7520002 -17.1290048 -5.9010017
H -1.4950004 -17.3320049 -6.5000018
H -0.0140000 -17.2430048 -6.5950018
O 1.0497775 0.3158054 -7.3525699
H 1.6476217 -0.3367017 -7.7849905
H 1.5541420 0.4677333 -6.5332151
O -1.5297952 0.2971375 12.5586073
H -2.0811749 0.1341420 11.7560773
H -1.8812956 1.1845773 12.8011014
O -10.2255295 0.9200981 3.4903216
H -10.9025477 0.8775781 2.7819049
H -10.0339789 1.8733682 3.5253271
O 6.2440017 -16.7970047 3.7920011
H 5.3940015 -17.1920048 3.6970010
H 6.1110017 -16.2740046 4.6550013
O 4.5340013 2.9500008 -16.7930047
H 3.6180010 3.1260009 -16.8280047
H 4.7160013 2.3500007 -17.4890049
O 5.8389083 4.1656652 1.0170250
H 6.4275874 4.3079811 0.2479719
H 5.4402208 3.2877906 0.8203358
O 1.6280005 1.9530005 19.1370054
H 1.3400004 1.3040004 18.5300052
H 0.9000003 2.6290007 18.8830053
O -15.1260042 -4.4050012 -7.2470020
H -15.9240045 -3.7480010 -7.2500020
H -15.1430042 -4.8930014 -6.3530018
O 5.6300016 -8.5420024 -6.2630018
H 5.3050015 -7.8600022 -6.8680019
H 4.9570014 -9.2040026 -6.3070018
O 2.2060529 -4.8562598 12.7228237
H 2.1480853 -5.2893223 11.8466601
H 2.9842278 -4.2856031 12.5644901
O 4.2368762 11.2154288 -6.5247319
H 3.7336165 11.1246203 -7.3563834
H 5.0952503 10.8625229 -6.8160726
O -16.1750045 3.9660011 5.9950017
H -15.8320044 3.1400009 6.2200017
H -17.1540048 4.0380011 6.0730017
O -0.6140002 -13.8930039 -11.4460032
H -0.2170001 -14.2860040 -10.6680030
H -1.0360003 -14.7140041 -11.7060033
O -0.6770002 -18.7140052 6.2110017
H 0.1540000 -18.4190052 6.4800018
H -0.8660002 -18.2750051 5.3740015
O 4.8350014 -0.9180003 -13.6690038
H 5.0680014 -0.9600003 -12.7890036
H 5.3490015 -0.1410000 -14.0230039
O -0.9988971 1.3292260 4.8922390
H -0.0149900 1.2289860 4.9108728
H -1.0860365 2.0405489 4.2258933
O 3.4610010 19.3370054 2.4380007
H 2.9510008 18.9450053 1.6390005
H 4.3590012 18.9500053 2.3870007
O -14.2500040 -1.4810004 -6.4920018
H -14.9420042 -0.9020003 -6.8740019
H -13.9180039 -2.0430006 -7.2300020
O -11.4710032 12.6340035 -4.9380014
H -10.9130031 13.2590037 -5.3840015
H -11.4940032 11.9060033 -5.5980016
O 5.5958614 -2.6038586 -2.1974059
H 6.0075019 -3.1525712 -2.9032176
H 6.3906233 -2.1572377 -1.8459464
O 4.3869328 -3.2852175 11.6541476
H 3.8390042 -2.5965345 11.2238100
H 5.2220159 -3.1719384 11.1615652
O 2.9740008 16.3710046 -8.1520023
H 2.1730006 16.9750048 -8.3040023
H 3.5980010 17.0310048 -8.5090024
O -0.5720002 -16.6810047 1.4560004
H 0.3030001 -17.1390048 1.4520004
H -1.0050003 -17.1690048 0.7060002
O -5.3749557 0.1010017 0.6197482
H -5.5904402 -0.8378175 0.8093229
H -5.0834913 0.4223218 1.5002007
O 13.6800038 1.4760004 2.9460008
H 14.5200041 1.3490004 3.3760009
H 13.1030037 1.6930005 3.7180010
O -14.9700042 1.3950004 -7.9430022
H -15.5410043 1.8840005 -8.5920024
H -15.4350043 1.5840004 -7.1340020
O 1.1780003 -14.3580040 -4.9820014
H 1.9080005 -13.8760039 -4.5220013
H 1.6190005 -15.2060043 -5.0350014
O 4.6611634 1.6090215 -5.8311040
H 4.5843868 2.2088041 -5.0604425
H 3.9509759 0.9752322 -5.5960021
O -2.8250008 2.6630007 13.0670037
H -3.5140010 2.4270007 13.7290038
H -3.3230009 3.3510009 12.6010035
O -6.0430017 -1.3960004 -14.1140040
H -6.0240017 -1.3880004 -13.1380037
H -5.8450016 -0.4420001 -14.3150040
O -10.1370028 0.5840002 10.0780028
H -10.8720030 0.0570000 9.6680027
H -10.5720030 1.4480004 9.9420028
O 12.6370035 0.8320002 -13.5610038
H 12.3670035 1.6860005 -13.1910037
H 12.8850036 0.2780001 -12.7700036
O 8.8585614 -0.4716487 5.4065001
H 8.1259639 -0.2245373 6.0179172
H 9.0495261 0.3853565 4.9705557
O 1.8151689 -1.6106519 -11.7134090
H 1.7175143 -1.9631118 -12.6238125
H 2.6347736 -2.0590231 -11.4116141
O -1.8168638 -1.7126821 8.3901713
H -1.9898618 -2.6196215 8.0430128
H -0.8424529 -1.6827272 8.3501538
O -3.9920011 15.1030042 8.9760025
H -4.8330014 14.6470041 8.8050025
H -3.4640010 14.2790040 9.0930025
O 16.2790046 0.5810002 4.1550012
H 16.8490047 -0.1870001 4.0630011
H 16.7780047 1.2380003 3.6600010
O -12.2330034 5.8710016 -12.3480035
H -11.6360033 5.0890014 -12.3900035
H -12.0540034 6.3000018 -11.5180032
O -14.6460041 10.6040030 4.3230012
H -15.2150043 10.8920030 3.5380010
H -14.9710042 11.1730031 5.0250014
O 3.4240010 -12.8380036 -13.2910037
H 3.8360011 -11.9680033 -13.5290038
H 3.1520009 -12.6540035 -12.3640035
O 1.1700003 -16.1410045 6.3610018
H 0.3060001 -15.7400044 6.0950017
H 0.8410002 -16.5740046 7.2200020
O 3.2752424 2.9627538 -12.7299025
H 2.8212054 2.2328813 -12.2552933
H 4.1902597 2.7992575 -12.4318970
O 1.2394430 4.9907049 5.0894817
H 1.1644361 5.1987565 4.1404231
H 0.3262267 5.1963690 5.3824420
O 18.9190053 1.3450004 2.7960008
H 18.5880052 0.5060001 3.1380009
H 19.4080054 1.1390003 2.0280006
O -11.2510031 -1.8240005 -7.0430020
H -11.5870032 -2.5470007 -7.6080021
H -11.3390032 -0.9440003 -7.5190021
O -11.9940034 -3.2150009 12.6320035
H -11.6630033 -3.6260010 13.5390038
H -12.6100035 -2.5090007 12.9330036
O -9.5260027 14.5750041 -5.4300015
H -9.3330026 15.3360043 -4.8460014
H -9.2890026 15.1210042 -6.2060017
O 10.0230028 -2.4520007 -7.5720021
H 10.2910029 -3.0280008 -8.3040023
H 10.5580030 -1.6290005 -7.7030022
O 7.6630021 -0.7490002 11.8860033
H 7.4320021 -1.3310004 11.1830031
H 6.7700019 -0.6330002 12.3780035
O -8.6940024 -0.9460003 -13.0360036
H -8.5800024 -1.7190005 -13.6520038
H -9.5110027 -0.5070001 -13.4220038
O -9.3029592 5.5958772 8.8262539
H -9.9535371 4.8607750 8.8648377
H -9.5000375 5.9667176 7.9480106
O 9.9750028 -15.7950044 3.2190009
H 9.5520027 -16.6400047 3.0560009
H 9.3040026 -15.2240043 2.8940008
O 10.1600028 1.6750005 -11.6550033
H 9.2650026 2.0010006 -11.9770034
H 10.2650029 0.7650002 -12.1790034
O 9.1528986 7.0574554 2.9575747
H 8.6657278 7.2246137 2.1233551
H 10.0493009 6.8524711 2.6202367
O -12.3840035 -12.3370035 -3.5350010
H -12.0670034 -12.9850036 -2.9040008
H -13.3080037 -12.8110036 -3.4830010
O -9.2697073 5.5052237 -6.1738355
H -9.1733484 4.5465517 -5.9779369
H -8.7581629 5.5779280 -7.0074981
O -13.9110039 3.9780011 12.1700034
H -13.8440039 3.3780009 12.9340036
H -14.8240041 4.2540012 12.1490034
O 8.0550023 -15.4260043 -5.0740014
H 7.2670020 -15.1690042 -4.5250013
H 7.6290021 -15.5270043 -5.9350017
O 8.3552607 7.1210199 -4.4874579
H 8.8533407 6.4868981 -3.9239390
H 8.0913106 6.5258328 -5.2161178
O 7.3280021 5.6620016 13.3570037
H 8.1830023 5.7730016 12.8460036
H 7.4210021 4.7990013 13.8110039
O -15.2290043 -12.5620035 2.1650006
H -14.3700040 -12.8650036 2.5610007
H -15.5400043 -11.8540033 2.7220008
O -12.3815190 0.3453405 1.7129153
H -13.2583673 0.4346060 2.1423612
H -12.3868659 -0.5994685 1.4589417
O 6.1580017 -17.4430049 0.7700002
H 6.0520017 -16.9440047 -0.0270000
H 5.7690016 -18.2550051 0.5710002
O 5.6076401 -0.8007555 0.8540004
H 4.9966344 -1.5386023 0.6634031
H 6.3123363 -0.9660793 0.1995878
O -3.5310010 2.3260007 18.9870053
H -3.5340010 1.7450005 18.1130051
H -4.4610012 2.1330006 19.1840054
O -18.0120050 4.9980014 -0.8700002
H -17.1890048 4.9210014 -1.4510004
H -17.8310050 5.9040017 -0.4810001
O -0.7020002 -15.9480045 -3.4170010
H -0.3280001 -15.2040043 -3.8870011
H -1.0260003 -16.4980046 -4.1420012
O -0.6510002 5.7120016 -17.9450050
H -0.8290002 6.1470017 -17.0860048
H -1.5210004 5.8240016 -18.2750051
O 0.6411735 5.9497384 -1.7501308
H 0.0125695 5.6263580 -1.0675508
H 0.1261361 6.7043184 -2.1135430
O -0.9320003 3.1660009 18.5590052
H -1.1990003 3.7740011 17.8970050
H -1.7000005 2.6190007 18.6220052
O 14.4080040 2.2360006 -2.3870007
H 14.4040040 1.3890004 -1.8580005
H 13.7480038 2.8710008 -2.0000006
O 12.0960034 4.2730012 14.1200040
H 12.8830036 4.8190013 14.2540040
H 11.3160032 4.7170013 14.5650041
O -4.5195128 3.3177241 -8.1881890
H -4.1616959 2.9819169 -7.3343931
H -4.4451397 2.4644846 -8.6819186
O -6.1110017 0.7540002 12.7640036
H -6.7210019 1.5580004 12.7370036
H -5.4660015 0.9900003 13.4390038
O 12.1580034 -0.5230001 -8.3250023
H 12.7650036 0.0570000 -7.7830022
H 11.6440033 0.2290001 -8.6380024
O 9.9930028 0.5320001 9.6150027
H 9.0020025 0.5370002 9.5700027
H 10.1960029 1.1810003 10.3220029
O -3.5270010 -15.4840043 -4.3260012
H -4.4260012 -15.0780042 -4.2400012
H -3.0370008 -14.7480041 -4.6760013
O -1.7004096 2.2249178 -0.0421803
H -2.3283168 1.7408853 -0.6097278
H -1.5577138 1.5578101 0.6565544
O 0.5330001 2.1110006 15.0860042
H 1.1340003 2.0040006 14.3240040
H -0.1240000 2.7900008 14.7510041
O 16.0470045 2.8360008 -4.6070013
H 15.4890043 2.6630007 -3.7780011
H 16.0120045 1.8850005 -5.0290014
O -17.1730048 8.2340023 4.0720011
H -17.0830048 8.2160023 5.0830014
H -16.6610047 7.4640021 3.9020011
O 0.1730000 -10.6150030 -13.2690037
H 0.8270002 -10.0750028 -12.8660036
H -0.5750002 -10.5040029 -12.5230035
O -0.5790358 -11.3446817 5.7833908
H -0.0950261 -11.8396181 5.0991941
H -0.4917690 -11.9560996 6.5382888
O 0.2535442 6.2142540 -13.3019548
H 1.1660579 5.9191016 -13.0981885
H 0.3677939 7.1902358 -13.2908020
O -2.4296510 7.8764909 4.8179078
H -2.4515612 8.7122912 5.3230880
H -1.8238125 8.0937906 4.0797176
O -2.6001239 -10.6724630 -2.4005688
H -3.2531911 -10.6233424 -1.6648952
H -1.9114791 -10.0706822 -2.0469738
O -8.3480023 -9.0120025 13.4690038
H -8.0380022 -9.9170028 13.6630038
H -8.3550023 -8.8790025 12.4720035
O -0.6272684 7.9390288 -3.0844340
H -0.5049357 7.8489275 -4.0566312
H -1.5888130 8.1197454 -3.0408471
O -2.7680008 8.6140024 13.8640039
H -2.3270007 8.3740023 14.6720041
H -2.1430006 9.2530026 13.5890038
O 11.7250033 -9.1760026 -6.4400018
H 11.4530032 -9.0900025 -5.4770015
H 12.0870034 -10.1140028 -6.3890018
O 16.7530047 7.9590022 -3.4810010
H 17.1170048 7.0770020 -3.1870009
H 15.7900044 7.6120021 -3.3390009
O 9.5980027 4.9270014 15.4950043
H 8.6650024 4.7290013 15.3320043
H 9.5500027 5.0250014 16.4620046
O -13.9880039 5.6310016 1.9490005
H -13.7670039 6.0490017 1.0430003
H -14.2560040 4.7650013 1.7790005
O 3.8260011 -13.9840039 3.3100009
H 4.3010012 -14.4810041 2.6340007
H 3.5660010 -14.7580041 3.8680011
O 1.9910006 4.0360011 -15.0200042
H 2.3340007 3.6180010 -14.2200040
H 2.5240007 4.8580014 -15.0180042
O -1.2288873 3.6796217 3.4001594
H -0.4933872 4.1253993 2.9451292
H -1.3253162 4.2584989 4.1885599
O -13.6280038 3.8050011 -5.6880016
H -13.0410036 3.5950010 -6.4430018
H -14.5150041 3.6620010 -6.1430017
O -15.7790044 2.1920006 9.2170026
H -16.3500046 2.5960007 9.9080028
H -16.4730046 1.8460005 8.5420024
O 4.6620013 -15.8140044 -5.9060017
H 3.9260011 -16.3930046 -5.6440016
H 4.6700013 -15.0780042 -5.2240015
O 4.8160013 -13.5550038 8.1700023
H 5.1050014 -12.8590036 7.5570021
H 3.9010011 -13.1700037 8.3720023
O 5.4117629 3.6334618 -7.5382168
H 4.6809934 3.3732551 -8.1338502
H 5.2857733 2.9476650 -6.8516269
O 3.8499414 2.9607547 9.2701146
H 4.5931101 3.5789684 9.1247842
H 3.1889788 3.3018251 8.6305299
O -9.9100028 8.3690023 -11.7480033
H -10.5100029 8.8210025 -12.2890034
H -9.0760025 8.8580025 -11.9710034
O -12.4860035 10.9560031 2.8690008
H -12.6410035 10.3110029 2.1880006
H -13.2630037 10.9860031 3.4070010
O 1.4773167 -12.6255757 4.3454869
H 1.9169724 -11.8972244 4.8337521
H 2.2498753 -13.1405000 4.0481821
O 2.7974409 5.6354598 -12.3383459
H 3.7616053 5.8378112 -12.3786580
H 2.8744506 4.6599962 -12.3992852
O 4.0924694 9.4903816 4.8474828
H 4.6034619 9.4064185 5.6812103
H 3.1880527 9.3938627 5.2121993
O -8.5900024 -13.7090038 -4.1450012
H -8.7930025 -14.4100040 -3.4720010
H -8.8920025 -12.9170036 -3.7590011
O -8.5070024 9.3220026 -5.3120015
H -8.4910024 8.4690024 -4.8180013
H -7.5590021 9.3650026 -5.5630016
O -11.2390031 11.4530032 8.5570024
H -10.3610029 11.3530032 8.7840025
H -11.6200033 11.4490032 9.4080026
O 8.3870023 -13.8100039 -8.8040025
H 8.3470023 -13.3350037 -7.9140022
H 7.4170021 -13.9130039 -8.8390025
O 5.7640016 -7.7810022 13.9260039
H 6.3880018 -8.0210022 13.2950037
H 6.0700017 -6.8940019 14.2700040
O 9.9460028 7.9440022 -8.0430023
H 10.4100029 8.2360023 -8.7970025
H 9.6950027 8.7650025 -7.5970021
O 7.5950021 9.5270027 11.4730032
H 8.4920024 9.1400026 11.2070031
H 7.0330020 8.8480025 11.0970031
O -5.1331949 -4.7305590 -12.1023381
H -6.0530646 -4.3994599 -12.1728169
H -4.9994405 -4.7045711 -11.1304767
O -6.1926217 -7.1056340 6.6395227
H -6.0413449 -7.6389478 7.4408120
H -6.7967788 -7.7275787 6.1787442
O -0.8640002 11.3890032 -11.3040032
H -0.6370002 12.1010034 -10.7090030
H -0.7510002 10.5740030 -10.7490030
O -3.8320011 13.5570038 6.6310019
H -3.3480009 13.4620038 5.7560016
H -3.4510010 14.4090040 6.9800020
O 11.5400032 -3.7070010 -12.6990036
H 10.6040030 -3.9610011 -12.9290036
H 11.8450033 -4.5940013 -12.5620035
O 11.5890032 -6.0850017 7.1840020
H 11.2780032 -6.8000019 6.6080018
H 12.5230035 -6.4300018 7.4250021
O 8.2550023 9.9150028 -13.4280038
H 8.4780024 10.5770030 -14.1100039
H 7.8210022 10.4450029 -12.7210036
O -11.2920032 -13.7810039 -1.4470004
H -10.7430030 -13.9600039 -0.6600002
H -10.9410031 -14.5080041 -2.0360006
O -10.8535625 4.2310184 -3.2298195
H -10.1005077 3.7063463 -2.8775588
H -11.5293076 3.5395654 -3.3572432
O 3.7790011 -16.0220045 -2.8370008
H 4.4970013 -16.6150047 -2.7730008
H 3.2210009 -16.4950046 -3.5420010
O 4.4920013 -13.5820038 12.4550035
H 4.6770013 -14.5510041 12.4000035
H 5.3490015 -13.1360037 12.2210034
O 7.8073942 0.5222381 -4.8289354
H 7.1818400 0.9154454 -4.1855087
H 8.0998934 1.3345504 -5.2954000
O 2.8445439 -1.3778429 10.3381345
H 2.2825919 -1.7531812 9.6385792
H 2.1996277 -0.7770865 10.7728144
O -6.0810017 -11.3940032 -14.3630040
H -5.6080016 -12.1820034 -14.0670039
H -6.1250017 -10.8960030 -13.5330038
O -5.9500017 -12.5750035 2.4990007
H -5.1240014 -12.4470035 2.9780008
H -5.6210016 -12.7070036 1.6270005
O -6.0927161 5.8134317 -12.4613706
H -5.7648242 5.2013700 -11.7686939
H -6.2196979 5.1502926 -13.1673488
O -8.1256036 7.9715651 2.2155451
H -8.0876533 8.2274541 1.2680825
H -8.8394997 8.5798776 2.5260440
O 10.0330028 -9.8010027 2.7220008
H 10.5860030 -10.4510029 3.2050009
H 10.7630030 -9.3260026 2.2040006
O 12.3600035 8.6370024 2.1880006
H 13.0810037 8.3910023 2.7880008
H 12.3030034 7.7080022 1.8180005
O -14.6590041 5.0770014 -9.7970027
H -15.0810042 5.3540015 -10.6530030
H -14.3980040 4.1800012 -10.1200028
O -3.3740009 -13.1960037 7.5540021
H -3.8080011 -12.3560035 7.7590022
H -4.0980011 -13.7130038 7.1560020
O -0.0894121 1.4560258 -9.7738501
H 0.2891596 1.1902561 -8.9137626
H -0.2055924 2.4247755 -9.6627646
O 0.0713989 7.7231299 6.9797287
H 0.2827272 6.9567101 7.5383821
H -0.8028677 7.9447187 7.3733711
O -3.1600009 -15.7620044 -7.2070020
H -2.7870008 -16.6180047 -7.5130021
H -3.5760010 -16.1660045 -6.4320018
O -2.6140007 -15.4080043 9.1790026
H -2.6600007 -15.0780042 10.0460028
H -2.6750007 -14.5120041 8.7740025
O 1.3562523 5.3568910 -6.1187212
H 1.0749399 4.4976015 -5.7343503
H 1.6526850 5.0574265 -7.0050665
O -2.1370006 4.3900012 15.9180045
H -3.0390009 4.1240012 15.6300044
H -1.9080005 5.0710014 15.2760043
O 16.2560045 5.2620015 -5.6980016
H 15.7270044 4.6150013 -5.1550014
H 17.0300048 4.6200013 -5.8070016
O 15.3040043 5.2850015 9.3830026
H 15.9800045 4.6950013 8.9500025
H 14.9580042 4.5410013 9.8260028
O -5.2650015 -17.5070049 -6.0490017
H -5.9320017 -17.0750048 -6.5540018
H -5.6990016 -17.3060048 -5.1950015
O -5.4168730 0.4793302 -5.8428047
H -5.7759310 0.5193208 -4.9290384
H -4.7693450 1.2130125 -5.8363114
O -7.7280022 2.7990008 13.5460038
H -8.6610024 3.0640009 13.6810038
H -7.3980021 2.6710007 14.4500040
O 13.2130037 1.2870004 -6.6200019
H 12.7800036 0.7990002 -5.8370016
H 12.9760036 2.1930006 -6.3990018
O 9.2330026 1.6670005 12.3760035
H 8.8520025 0.9170003 12.0270034
H 8.4260024 2.2380006 12.3440035
O 3.7363717 -6.3074924 -11.8319316
H 4.3805424 -5.5764788 -11.7619020
H 3.1073757 -6.1409332 -11.1031741
O 0.8130047 -5.1352505 1.3089479
H -0.1028987 -5.4034157 1.5211827
H 0.7657877 -5.0799235 0.3322824
O 3.4850010 12.0140034 3.8290011
H 2.5430007 12.2110034 3.9410011
H 3.5940010 11.0880031 4.1260012
O 18.4580052 -5.9760017 4.1250012
H 17.7280050 -6.4310018 4.5680013
H 18.0960051 -6.0240017 3.2450009
O -12.6760035 -6.2990018 -4.8780014
H -12.6070035 -5.3350015 -4.6060013
H -13.5020038 -6.4650018 -4.4100012
O 2.4240208 -4.1416796 -2.9732388
H 3.2000822 -4.4973522 -2.4814145
H 1.7204703 -4.2218423 -2.2971886
O 0.7920002 -5.0050014 15.0740042
H 1.2700004 -4.8510014 14.2040040
H 0.8580002 -5.9960017 15.0940042
O 5.1856389 10.7880923 -2.2501193
H 5.7585475 10.7311552 -1.4578809
H 5.6886230 10.2427757 -2.8891094
O 3.1070009 13.0990037 13.7850039
H 3.8380011 13.0890037 14.3960040
H 2.9160008 14.0590039 13.8710039
O -16.2080045 3.6790010 -6.5310018
H -16.6130046 3.6240010 -7.4440021
H -16.9370047 3.7800011 -5.9110017
O 0.1942394 -11.3187193 -4.2260126
H -0.5517731 -11.9130567 -4.4139058
H -0.2045109 -10.4353344 -4.3389550
O -2.7420008 -13.7770039 11.6760033
H -3.0430009 -13.6220038 12.5290035
H -1.7960005 -13.7920039 11.8560033
O 4.1633145 7.9065592 -4.4480334
H 3.6276748 7.1625118 -4.0910973
H 3.5122091 8.6402760 -4.4514317
O 0.2833207 5.8551787 9.0623093
H -0.4571017 5.2118600 9.1512608
H 0.1048280 6.4297892 9.8408908
O -16.8740047 -2.8900008 -3.5400010
H -16.6110046 -2.9760008 -4.5020013
H -17.4800049 -2.0970006 -3.5510010
O 0.4568861 -3.0116383 -6.9940943
H 0.7088168 -2.5992893 -7.8548088
H 1.2637668 -2.8069053 -6.4659323
O -2.3080006 -3.1550009 15.2930043
H -2.0230006 -2.2570006 15.2470043
H -1.4340004 -3.6290010 15.1480042
O -2.0230006 14.2850040 -6.1270017
H -2.0460006 15.2990043 -6.3200018
H -2.6740007 14.1120039 -5.3880015
O 18.1760051 -4.0540011 -5.0550014
H 17.4960049 -3.4180010 -4.8300014
H 18.0030050 -4.6610013 -4.3130012
O 13.4520038 0.2040001 11.4890032
H 12.9010036 1.0440003 11.6310033
H 12.8100036 -0.4630001 11.7050033
O -17.1540048 0.6530002 1.0540003
H -17.2540048 1.5760004 1.4240004
H -16.2150045 0.7060002 0.8970003
O 1.5420004 -2.7040008 -14.2210040
H 1.9070005 -2.2090006 -15.0060042
H 1.8390005 -3.5890010 -14.5070041
O -3.6127747 -0.1855127 6.9615586
H -3.1218319 -0.7222558 7.6178118
H -3.2539868 0.7058681 7.1630182
O 4.9720014 15.3230043 2.2750006
H 4.0290011 15.3380043 2.3560007
H 5.2340015 15.6800044 3.1440009
O 18.3110051 -3.2280009 5.1360014
H 18.0690051 -3.5260010 6.0690017
H 18.3200051 -4.1730012 4.8750014
O -16.2400045 -5.6370016 -4.1580012
H -15.7280044 -5.9630017 -3.3530009
H -16.7990047 -4.9410014 -3.8100011
O 1.5166300 -6.2561531 -4.4510737
H 1.9673213 -5.5694537 -3.9169648
H 0.6613622 -5.8022438 -4.6046484
O -0.5350001 -9.1820026 15.0460042
H 0.3530001 -9.3950026 15.4680043
H -0.1380000 -8.9430025 14.2170040
O 2.9800008 15.1970043 -3.4600010
H 3.1060009 14.3820040 -2.8840008
H 3.0610009 14.9090042 -4.2870012
O 1.6400005 14.0600039 11.1830031
H 2.4950007 14.1170040 11.5510032
H 1.2960004 13.1410037 11.1990031
O -2.1020006 -12.9230036 -3.8630011
H -2.0650006 -13.4840038 -3.0990009
H -2.1480006 -12.0500034 -3.4750010
O -4.3040012 -11.8100033 10.5040029
H -3.6470010 -11.2450031 10.0890028
H -3.6390010 -12.5580035 10.6190030
O 2.5979445 5.8283803 -3.7121267
H 2.0938791 5.7535146 -4.5536356
H 1.8944381 6.0089907 -3.0564222
O -5.2940015 10.1460028 13.0180036
H -4.6740013 9.5180027 13.4160038
H -6.2090017 10.0860028 13.4690038
O 11.7260033 5.5120015 10.2270029
H 12.2020034 5.9080017 9.4500026
H 11.7310033 4.5950013 9.8980028
O -3.6994456 -7.1017374 -4.2198729
H -4.5488388 -7.5553494 -4.0262624
H -4.0416422 -6.1795787 -4.2532175
O -3.6790010 -6.0560017 13.9640039
H -3.9410011 -5.7930016 14.8810042
H -2.7110008 -5.9930017 14.0530039
O -0.1894433 7.5794314 -5.7479319
H 0.4184820 6.8419090 -5.9863703
H 0.1021407 8.2782470 -6.3736865
O -1.5200004 12.7580036 11.8640033
H -1.6410005 12.2990034 12.7080036
H -1.8440005 13.6610038 12.1180034
O 15.3740043 -3.7410010 -7.0980020
H 16.1390045 -3.2840009 -7.4550021
H 15.5010043 -3.8020011 -6.1710017
O 11.6910033 -7.0420020 14.1090039
H 11.4510032 -6.3050018 13.5100038
H 11.2680032 -6.7480019 14.9610042
O -10.1200028 -5.7340016 -12.8480036
H -10.8760030 -5.1350014 -12.9340036
H -10.6630030 -6.4300018 -12.4240035
O -13.4110038 -5.8020016 4.1060011
H -13.7420038 -4.8980014 4.2450012
H -12.5770035 -5.6210016 3.6180010
O 7.7370022 -7.9650022 -15.3460043
H 7.8530022 -7.4420021 -14.5070041
H 7.8470022 -7.3720021 -16.0660045
O 3.6997297 -6.9410807 5.9841453
H 2.9314916 -6.3909673 6.2287834
H 4.1022879 -6.3964747 5.2841172
O 8.6640024 13.8340039 4.8770014
H 8.8590025 12.9460036 5.1340014
H 7.6770021 13.7700039 4.8180013
O -12.4770839 -2.1894096 0.5264619
H -12.9385452 -1.8039369 -0.2511353
H -11.6821346 -2.5542564 0.0920933
O 5.2710015 -0.6120002 -17.1120048
H 6.1820017 -0.9200003 -17.2510048
H 5.1890015 0.0900000 -17.8420050
O 4.8050398 -5.3803540 3.9162707
H 4.4646081 -4.4738122 3.7554130
H 4.3050503 -5.8474798 3.2023296
O 0.8620002 0.0750000 17.2950048
H 0.5690002 0.4880001 16.4330046
H 1.7950005 -0.2040001 17.1350048
O -6.2560018 -15.0960042 -5.1210014
H -6.7670019 -15.4110043 -5.8610016
H -6.8550019 -14.4200040 -4.7160013
O -6.8160019 -12.6300035 9.4980027
H -6.5340018 -13.5350038 9.2440026
H -5.9580017 -12.3000034 9.7500027
O -3.3265034 2.2969891 -6.0404571
H -2.8500446 2.9867903 -5.5381695
H -2.6128127 1.7202415 -6.3879399
O -3.7500010 5.8580016 14.4070040
H -3.9570011 6.6620019 13.9740039
H -4.2100012 5.9780017 15.2290043
O 13.6450038 5.9820017 -6.8240019
H 13.9170039 6.9330019 -6.9800020
H 14.5010041 5.7200016 -6.4580018
O 12.6590035 5.5020015 7.6250021
H 13.5260038 5.1100014 7.5490021
H 12.0090034 4.7590013 7.4360021
O -6.8643365 -3.1454873 -7.2201852
H -7.0440905 -2.1910391 -7.1236014
H -6.9911340 -3.2466531 -8.1826603
O -7.9681791 -1.1090519 9.4087222
H -8.3603743 -0.2153385 9.4235398
H -8.7310578 -1.5877748 9.8041923
O -4.6130013 15.3070043 -8.2400023
H -4.7760013 14.3420040 -8.1250023
H -4.8820014 15.6310044 -7.4000021
O 12.9740036 -3.2220009 -8.6030024
H 12.9720036 -2.3080006 -8.3350023
H 13.8640039 -3.5180010 -8.2260023
O 11.4550032 -1.6760005 8.9320025
H 10.8350030 -0.8840002 9.0730025
H 11.0630031 -2.2210006 8.1780023
O -8.5140024 -6.7220019 -14.7730041
H -7.6530021 -6.2660018 -14.4690040
H -9.1510026 -6.3090018 -14.0810039
O -11.4000032 -11.5590032 1.9900006
H -11.3070032 -10.5920030 2.2300006
H -12.0930034 -11.7870033 2.5660007
O -8.9450025 7.4990021 -14.4200040
H -9.4030026 7.9110022 -13.6710038
H -7.9730022 7.6060021 -14.2640040
O -10.6102029 6.0203474 1.1415287
H -11.1395880 5.3830511 0.6135757
H -10.8506999 6.8726501 0.7206376
O 5.6270016 -13.4880038 1.3180004
H 4.8150013 -13.6820038 0.7740002
H 5.6480016 -12.4950035 1.3490004
O 9.6825522 5.4164519 -2.8192578
H 10.4885940 5.8917909 -2.5303636
H 10.0498479 4.5209503 -2.9848469
O 4.7860013 8.3970024 15.4090043
H 4.4380012 8.9900025 16.0940045
H 5.7840016 8.4870024 15.5570044
O -6.6416828 -9.1110357 -0.8771594
H -7.3076740 -9.7577454 -1.1936324
H -5.8657190 -9.6962751 -0.7912145
O -5.7363435 7.4590076 -1.2856489
H -6.5282422 7.8967842 -0.9200299
H -6.1671666 6.6762455 -1.6800994
O 14.0010039 -7.6470021 0.2760001
H 14.4100040 -8.0470023 1.0370003
H 13.1430037 -8.0550023 0.2510001
O 13.6640038 13.8370039 -2.1020006
H 13.0480037 13.2360037 -2.5640007
H 13.0090036 14.0550039 -1.4090004
O -7.4650021 -14.6890041 0.0900000
H -7.3240020 -13.9910039 -0.5440002
H -6.4870018 -14.9990042 0.0700000
O -8.1215096 6.9091566 -4.0686286
H -8.5492261 6.2751635 -4.6790563
H -8.0502121 6.3772273 -3.2424678
O -6.5420018 3.4810010 16.1020045
H -7.1540020 3.3990010 16.8760047
H -6.4290018 4.4420012 15.9940045
O 11.4930032 -11.3860032 -4.7570013
H 11.2430031 -11.2030031 -3.8610011
H 10.8170030 -12.0570034 -4.9050014
O 11.2317919 3.1637518 -5.6637641
H 11.2129772 3.1161796 -4.6856430
H 11.2163365 4.1341710 -5.8146591
O 4.5840013 7.1010020 12.3450035
H 4.6050013 6.4410018 11.6120032
H 5.4470015 6.9570019 12.7390036
O -7.1920020 -10.0870028 -7.5660021
H -6.5600018 -9.4480026 -8.0450023
H -7.8090022 -10.3560029 -8.3390023
O -8.8400025 -10.4340029 9.5220027
H -9.4960027 -11.1360031 9.7950027
H -7.9720022 -10.8180030 9.7900027
O -7.5853852 6.0463670 -8.3253985
H -7.4428055 7.0083359 -8.4465078
H -7.8271431 5.7884441 -9.2402859
O -6.8644309 8.8035824 7.9447385
H -7.2116149 9.6196285 8.3703638
H -6.3258068 9.1967885 7.2272129
O 8.3067226 -7.0371990 7.3076163
H 9.0409294 -7.3286504 6.7389682
H 7.5801340 -7.1010842 6.6435292
O 11.7040033 8.1810023 -11.4610032
H 11.6700033 7.2600020 -11.1870031
H 12.0390034 8.6080024 -10.7040030
O 9.7120027 8.7640025 10.2080029
H 9.8920028 8.2150023 9.3680026
H 10.6330030 8.7280024 10.5970030
O -5.4270015 -13.9120039 -9.0610025
H -5.0970014 -14.4470040 -8.3220023
H -4.6260013 -14.0350039 -9.5650027
O -4.6701553 -10.8157978 6.8348030
H -4.0399797 -10.1114356 7.0843155
H -5.5015479 -10.4835797 7.2073139
O -2.6113555 5.2863121 -8.5679981
H -2.6047908 5.6858635 -7.6745302
H -3.3129485 4.6151551 -8.4879212
O -2.6400068 6.8944995 10.9043991
H -3.4389984 7.4415584 11.0474223
H -3.0231661 5.9989683 10.9744618
O 14.1850040 7.9000022 9.8470028
H 14.4640040 6.9670019 9.9260028
H 14.4370040 8.1330023 8.9400025
O -16.3750046 7.3470021 6.8350019
H -15.9250045 6.4780018 7.0370020
H -15.7180044 7.9680022 7.1240020
O 0.1410000 -13.2470037 -7.0790020
H 0.4840001 -13.6840038 -6.2700018
H 0.4700001 -12.3290035 -6.8340019
O -0.2680001 -13.1780037 7.7790022
H -0.7530002 -13.8480039 7.2530020
H 0.0530000 -13.7540038 8.5020024
O 1.6203824 7.5805966 -10.7852169
H 1.9915462 6.7986264 -11.2506485
H 1.9877510 8.2932513 -11.3549495
O 1.6108644 9.6928305 6.0134813
H 1.0811533 8.9148788 6.3229058
H 1.5526248 10.2597306 6.7938904
O 15.6070044 6.0500017 5.7300016
H 15.4580043 5.0880014 5.7680016
H 16.3620046 6.1260017 6.3180018
O -15.2710043 5.1690014 8.7660025
H -16.2210045 5.3430015 8.8880025
H -15.2500043 4.2520012 8.6470024
O 0.9770003 -14.6990041 -9.2740026
H 0.7320002 -14.3090040 -8.4130024
H 0.8380002 -15.6540044 -9.0990025
O 0.9520003 -14.4110040 10.0040028
H 0.7140002 -14.3190040 10.9110031
H 1.6930005 -13.8380039 10.0620028
O 2.9062609 7.1374321 -8.4055581
H 2.7111917 6.1782021 -8.4102130
H 2.4375519 7.3896270 -9.2265219
O 2.6260257 7.3488641 9.2053821
H 1.8159290 6.8080379 9.1695108
H 2.4522225 7.8785060 10.0039660
O -12.4230035 9.9530028 -8.0140022
H -13.2360037 9.5120027 -7.6680021
H -12.2080034 9.4620026 -8.8100025
O -11.7250033 7.6260021 8.3140023
H -11.2190031 7.4390021 7.4490021
H -11.5950032 6.7870019 8.8390025
O 5.8370016 -15.0540042 -9.3020026
H 4.9440014 -15.4680043 -9.4010026
H 6.3730018 -15.3650043 -10.0810028
O 2.5150007 -12.3870035 8.5100024
H 2.4110007 -11.5200032 8.9900025
H 1.8460005 -12.4430035 7.8090022
O 7.2240193 5.4343563 -6.5108412
H 6.6241619 4.7128201 -6.8015948
H 6.5996360 6.1816375 -6.6543261
O 2.6101065 3.0660328 11.8542586
H 2.7376430 2.9770644 10.8910037
H 1.6516321 3.2616217 11.9189623
O -7.6299666 2.6546735 -9.5718334
H -7.7191924 1.7051732 -9.7969332
H -7.9805624 2.6734870 -8.6764038
O -10.3430029 3.0870009 13.9330039
H -10.4670029 2.1570006 13.6770038
H -11.0110031 3.5800010 13.4700038
O 8.5340024 -14.0870039 11.1190031
H 9.3920026 -13.9460039 10.7030030
H 7.9600022 -13.9680039 10.3170029
O 13.4720038 2.4850007 -9.8160027
H 13.1860037 2.2640006 -10.6770030
H 12.6050035 2.3540007 -9.3570026
O 10.9130031 3.4250010 7.7140022
H 11.1500031 2.4940007 7.6930022
H 9.9600028 3.4030010 7.5120021
O -5.9470017 -15.3160043 9.2960026
H -5.5590016 -15.7310044 10.0780028
H -6.0090017 -16.0230045 8.7190024
O -3.7827072 0.9136505 -9.1362659
H -3.3497214 0.6584428 -9.9745499
H -3.0767211 0.6967645 -8.4991180
O -4.1678230 4.5574027 10.7146053
H -4.9607348 4.8154893 11.2440938
H -4.3652961 3.5930624 10.6087886
O 15.9570045 3.8590011 -9.0000025
H 15.0670042 3.3780009 -9.0380025
H 16.3160046 3.4720010 -9.8530028
O 12.9490036 1.0800003 8.3090023
H 13.3990037 0.8770002 7.4410021
H 12.4590035 0.2190001 8.4820024
O -3.3344521 -1.8931847 -11.9200886
H -2.8209467 -1.0554664 -11.8474896
H -3.1703467 -2.1469844 -12.8478154
O -1.6781991 3.9168925 9.2860098
H -2.5190158 4.0857786 9.7438028
H -1.9562655 3.2786731 8.5931035
O 16.9400047 3.7350010 7.8500022
H 16.4300046 3.5710010 7.0440020
H 17.4120049 2.9150008 7.8020022
O -14.9530042 5.9690017 -7.1940020
H -14.9910042 5.7650016 -8.1200023
H -15.3510043 5.1730014 -6.9080019
O 1.5860004 -17.0670048 -7.7650022
H 1.8060005 -17.9600050 -8.1010023
H 2.3970007 -16.6000046 -8.2100023
O 2.0806891 4.4884740 -8.5940038
H 1.2622404 4.3673773 -9.1210624
H 2.5868034 3.6790459 -8.8224133
O 1.8404420 4.0213451 7.6957060
H 1.3443449 4.7538172 8.1130601
H 1.6917292 4.2052469 6.7480007
O -8.4450024 3.0300008 -15.4250043
H -8.2830023 3.2890009 -16.3380046
H -8.3900023 2.0800006 -15.3540043
O -15.9150045 5.7330016 3.8540011
H -15.1350042 5.5520016 3.2590009
H -15.8970044 4.9860014 4.5390013
O 5.5250015 -15.5120043 6.3300018
H 4.9810014 -16.2570045 6.6260019
H 5.1430014 -14.8170041 6.9370019
O 5.7104700 2.1674436 -11.3800960
H 5.8406346 2.9216813 -10.7682356
H 6.4885894 2.3134085 -11.9567979
O 4.0109048 1.9954861 3.6069869
H 4.0823877 2.0808627 2.6334262
H 4.0996527 2.9135953 3.9138831
O 2.6840008 4.9850014 18.4910052
H 2.8150008 3.9660011 18.7090052
H 3.5380010 5.2100015 18.8230053
O -5.9187931 -1.4938262 -11.2152112
H -6.2061067 -2.2568661 -10.6787038
H -4.9585141 -1.6860901 -11.3355233
O -10.2490029 0.4360001 12.7550036
H -10.2470029 0.3830001 11.7650033
H -9.3490026 0.1040000 12.9850036
O -6.5390018 13.0630037 7.5350021
H -6.9970020 12.5880035 6.8040019
H -5.7720016 13.3510037 7.0430020
O 13.3100037 -0.0550000 -11.1490031
H 12.8120036 -0.4940001 -10.4370029
H 14.2360040 -0.3310001 -11.0060031
O 11.4684778 -1.2553367 5.4422645
H 10.5491213 -0.9144675 5.4499909
H 11.3379292 -2.0955182 5.9268164
O -1.7170818 0.3619864 -7.3246626
H -0.7350035 0.3801772 -7.3654748
H -1.8733253 -0.5944493 -7.4539616
O -4.6932149 1.9386268 10.6611925
H -5.2438116 1.3528529 11.2141151
H -3.9951209 1.3067413 10.3954926
O 18.1280051 0.7850002 -7.3650021
H 18.1940051 1.7400005 -7.3850021
H 17.2130048 0.6080002 -7.7400022
O 13.7240038 3.1080009 10.1180028
H 13.3150037 2.5850007 9.4570026
H 13.0480037 3.1820009 10.8670030
O -1.5968534 -1.0831359 -14.2913194
H -2.1241439 -0.2563791 -14.3033654
H -0.9504046 -0.8619484 -14.9860153
O -7.8242172 -0.3777162 3.8284821
H -8.6621342 0.1345913 3.8619014
H -7.3159469 0.0242165 4.5625828
O 2.2490006 19.2120054 4.9780014
H 1.2800004 19.1560054 4.7410013
H 2.7090008 19.2380054 4.1380012
O 12.2873176 -1.6841392 2.8968109
H 12.0420849 -1.4273102 3.8174776
H 13.1886757 -2.0418867 3.0477933
O 0.1762742 -2.2743900 -9.6153157
H -0.5316704 -2.6897367 -10.1298400
H 0.7556582 -1.9403256 -10.3316279
O -2.9337099 -0.1551228 10.3161240
H -2.4384320 -0.6866212 9.6567600
H -3.8026102 -0.6249847 10.2892140
O -3.7830011 17.7080050 7.7200022
H -3.7680011 17.0290048 8.4610024
H -3.9590011 17.2650048 6.8820019
O 15.0910042 0.3330001 6.5720018
H 15.4340043 0.3620001 5.6620016
H 15.9000044 0.6300002 7.0550020
O -13.6630038 2.3210006 -12.4830035
H -12.8010036 2.8260008 -12.2130034
H -13.7360038 1.5710004 -11.8880033
O -17.5570049 0.5350001 7.5420021
H -18.0520051 -0.3370001 7.5200021
H -18.3290051 1.2030003 7.4180021
O 0.2640001 -16.9500047 8.6390024
H 0.0750000 -17.5670049 9.3200026
H 0.2360001 -16.1520045 9.1420026
O 3.5934713 2.2177237 -9.1038510
H 3.1951780 1.8163641 -9.9045680
H 4.2546466 1.5285777 -8.8859884
O 1.6848595 0.9912211 4.8855612
H 2.0927777 0.4773604 5.6109817
H 2.4763241 1.2588924 4.3786126
O 17.6860049 1.0920003 7.6100021
H 18.5560052 1.1930003 7.2600020
H 17.8830050 0.9560003 8.5580024
O -13.3170037 0.3970001 -10.6440030
H -12.8220036 -0.4460001 -10.7740030
H -12.8060036 0.7380002 -9.9310028
O -12.9680036 2.3580007 9.8740028
H -13.0390036 2.7070008 10.8130030
H -13.8830039 2.0980006 9.6020027
O 8.5003814 -0.7385477 -10.1826090
H 9.2018982 -0.6048073 -10.8487761
H 8.5848666 0.0664900 -9.6293982
O 5.9055507 2.9134787 6.4817913
H 5.1835171 3.2987844 5.9435312
H 5.8395432 3.4648103 7.2879784
O -0.8128939 -3.4078335 -12.9203496
H -1.2071729 -2.6126235 -13.3319252
H 0.0867626 -3.3184331 -13.2820729
O -7.1983223 -2.4647590 7.1101743
H -8.1561651 -2.5916698 6.8891182
H -7.3139519 -2.0212851 7.9771695
O -1.2040003 14.3800040 5.9260017
H -1.0100003 14.6260041 5.0270014
H -0.8760002 15.0750042 6.4680018
O 13.0860037 -5.3680015 4.1080011
H 13.8910039 -4.9900014 4.4130012
H 12.9270036 -4.8110013 3.3710009
O -0.1440000 -6.9190019 -13.0190036
H -0.4570001 -6.8150019 -13.9740039
H -0.4550001 -6.0520017 -12.6850036
O -4.7283506 -3.9691647 3.0513355
H -3.8647009 -3.8218215 3.4949199
H -5.3521092 -3.4913522 3.6406991
O -3.1610009 -2.2470006 18.8060053
H -3.3000009 -3.2080009 18.8580053
H -2.2360006 -2.1130006 18.9310053
O -0.8300002 14.3160040 2.7940008
H -1.5790004 14.1840040 2.2200006
H -0.5190001 15.2170043 2.4980007
O 14.7390041 -2.9160008 2.9810008
H 15.6960044 -3.0840009 3.2480009
H 14.7550041 -3.4660010 2.1980006
O -1.6950005 -17.7210050 3.7530011
H -1.4630004 -17.4100049 2.8870008
H -2.4310007 -17.1480048 3.9440011
O 0.1260000 -0.6260002 -16.5090046
H 1.0950003 -0.5770002 -16.2560045
H -0.0440000 0.2570001 -16.8770047
O -6.1989611 0.0338962 6.0929457
H -5.2540703 -0.0236172 6.3638642
H -6.5429807 -0.7677667 6.5228831
O 15.0120042 -0.4680001 1.3810004
H 14.5440041 0.1290000 1.9830006
H 15.2890043 -1.2090003 1.9600005
O -13.0720037 -2.5770007 -9.1920026
H -12.7000036 -3.4040010 -8.9100025
H -12.7930036 -2.5370007 -10.0570028
O -16.0450045 -2.4250007 7.4830021
H -15.5990044 -1.7000005 7.9770022
H -16.8830047 -2.4960007 8.0020022
O 4.9880189 -2.8781927 -6.7673632
H 5.4522121 -3.6818281 -7.0767579
H 5.7682190 -2.2913686 -6.6708077
O 2.9156143 -0.5309843 6.8761340
H 3.5239370 -1.0929144 6.3489830
H 3.5509320 -0.1424174 7.5145860
O 5.4160015 13.4160038 -9.4260026
H 5.9380017 13.9540039 -10.0290028
H 5.8870016 13.5270038 -8.5480024
O -10.7890030 3.6840010 -11.6840033
H -10.0600028 3.9800011 -12.3230034
H -10.3770029 3.4100010 -10.8080030
O -12.6142777 2.8299407 4.9252033
H -11.7444352 2.7124947 5.3440694
H -12.5966491 3.7573336 4.6297378
O 5.8970767 -0.6027904 -11.1460102
H 5.7359039 0.3623373 -11.0485435
H 6.7918246 -0.6783483 -10.7491477
O 5.7410448 -0.2091250 3.5270937
H 5.5854774 -0.3787925 2.5726510
H 5.1733087 0.5764915 3.6652792
O -2.2427867 -3.6803721 -10.1188378
H -1.9016596 -4.5258207 -10.4855618
H -2.4992302 -3.1898388 -10.9327724
O -5.1305590 -4.5690546 6.9949428
H -5.6034125 -5.4241153 6.9007035
H -5.8604548 -3.9226874 6.9528129
O -1.8456043 11.4580201 -6.7878585
H -2.5534864 11.2715107 -7.4392675
H -1.8597163 12.4332138 -6.7481638
O -4.9350014 14.2060040 12.3870035
H -5.3340015 13.5080038 11.8600033
H -5.1890015 13.8840039 13.2750037
O 10.8071813 -3.4291538 6.9454157
H 9.8569147 -3.6518260 6.8278227
H 11.1915911 -4.3326179 6.9543232
O -1.3977744 -6.3173789 -10.4358456
H -0.7120283 -6.8021161 -10.9222236
H -2.0331151 -7.0510715 -10.2692882
O -2.7314595 -7.9243415 5.1407846
H -3.5210851 -7.4957032 4.7450243
H -2.5804145 -8.6331463 4.4734788
O -1.9210005 12.6190035 -13.3620037
H -1.6630005 12.3260034 -12.5290035
H -2.3360007 13.5160038 -13.1920037
O 0.9260003 12.7590036 4.0350011
H 0.9110003 12.9460036 5.0230014
H 0.0790000 13.1300037 3.7510010
O 15.7240044 -7.0860020 5.2250015
H 15.5690044 -6.3680018 5.8750016
H 15.2440043 -7.7880022 5.7230016
O -16.5510046 -5.4540015 5.7230016
H -17.4590049 -5.4030015 6.0180017
H -16.6340047 -5.5240015 4.7390013
O 2.3588508 -6.6644190 -6.9933379
H 2.1587551 -6.4687861 -6.0522970
H 1.5814558 -6.2492293 -7.4267426
O -2.3537691 -4.1345274 7.2377267
H -3.2870576 -4.3511276 7.0422015
H -1.8684400 -4.8211108 6.7515751
O 2.1660006 14.7020041 -10.1390028
H 1.7740005 15.5310043 -10.5040029
H 2.7280008 15.2720043 -9.5560027
O 1.6750005 13.6550038 8.3440023
H 2.2260006 13.8080039 9.1020025
H 2.4150007 13.5810038 7.6520021
O -14.6220041 -3.6110010 5.7160016
H -15.1600042 -4.4270012 5.5850016
H -15.1620042 -3.1350009 6.4150018
O 5.9340017 -4.5560013 -11.5360032
H 6.4140018 -5.3850015 -11.4730032
H 6.5150018 -3.7630011 -11.1940031
O 0.5118512 -2.8753728 5.6976589
H -0.2764470 -2.3033123 5.5953082
H 0.8336344 -2.8839657 4.7699044
O 4.9720014 13.9570039 -12.2350034
H 4.4650012 13.4030038 -11.6050032
H 4.3670012 14.0120039 -13.0330036
O 0.8310002 16.4030046 5.3400015
H 0.5090001 17.2060048 4.8720014
H 1.3730004 16.7580047 6.0630017
O -13.7390038 -5.3720015 -10.1660028
H -13.5450038 -6.2090017 -9.6480027
H -14.0780039 -4.8520014 -9.4310026
O -16.2260045 -7.3690021 7.5970021
H -16.4310046 -6.4490018 7.6820021
H -15.2950043 -7.2550020 7.2750020
O 4.7465300 -6.8185945 -8.2861957
H 4.5645275 -7.5188609 -8.9501401
H 3.8497659 -6.6657292 -7.9157446
O 0.5865735 -7.7492497 8.6226333
H 0.5799437 -8.0824941 7.6981043
H -0.3471240 -7.4812238 8.7391799
O 7.2020020 13.6600038 -7.2990020
H 7.2480020 13.3700037 -6.3840018
H 7.3720021 14.5830041 -7.1320020
O 3.8870011 13.1170037 6.5870018
H 4.5820013 12.4740035 6.7860019
H 4.4490012 13.8990039 6.7250019
O -3.5430660 -7.4007595 -6.9705738
H -3.6044130 -7.4354343 -5.9956192
H -3.4943090 -6.4280768 -7.0910003
O -6.0140017 -9.0390025 8.7960025
H -6.4960018 -8.6510024 9.4870027
H -5.1380014 -9.0530025 9.1850026
O -5.2320015 12.7280036 -7.2940020
H -6.1480017 12.5170035 -7.0590020
H -4.8090013 11.8840033 -7.6780021
O -5.4490015 12.1400034 3.1830009
H -5.8190016 12.9810036 2.8370008
H -6.0080017 11.4710032 2.7620008
O 9.5610027 -9.0370025 11.4920032
H 9.7750027 -9.7290027 10.8540030
H 10.2750029 -8.4190024 11.2570032
O 11.4400032 11.9390033 -10.2840029
H 11.2990032 11.2850032 -9.6250027
H 12.1270034 11.5240032 -10.8150030
O 10.6200030 13.4320038 7.4690021
H 9.7340027 13.0290036 7.3610021
H 10.9330031 12.8650036 8.1280023
O -17.0490048 -5.0560014 3.1780009
H -17.2880048 -5.9660017 2.8730008
H -17.4790049 -4.5570013 2.4140007
O -3.0970009 -11.1220031 -9.0500025
H -2.9730008 -12.0960034 -8.8630025
H -3.3090009 -10.9030031 -8.1040023
O -2.7907966 -9.0291877 7.6202271
H -2.6837759 -8.6647755 6.7114472
H -2.5241491 -8.2486695 8.1514497
O -0.7232926 8.8893042 -10.0487635
H 0.0526838 8.3487233 -10.3194551
H -1.4448016 8.4323860 -10.5284986
O -5.6415323 8.7069228 3.0531392
H -5.5125590 9.3266415 2.3136942
H -6.5453484 8.3794600 2.8584993
O 0.6078707 -9.2683205 -8.9933606
H 0.2796100 -9.8996884 -9.6674761
H -0.1558618 -9.2347170 -8.3745809
O -2.0143912 -7.0672335 9.2922874
H -2.1986617 -7.6075000 10.0889007
H -2.2545308 -6.1758821 9.6231433
O 0.1668689 9.6488617 -7.5701192
H -0.2281556 9.3792483 -8.4285431
H -0.4574043 10.3431807 -7.2784102
O -2.9760008 12.7120036 9.3800026
H -2.2220006 12.3110034 8.9330025
H -2.4160007 12.9800036 10.1810028
O -2.3480007 -13.5580038 -8.2350023
H -1.4580004 -13.4730038 -7.7760022
H -2.6660007 -14.3400040 -7.7330022
O -1.1440003 -6.1330017 12.7720036
H -0.7690002 -7.0120020 12.6740035
H -0.3620001 -5.6060016 12.6140035
O -0.4240253 4.1840870 -9.7646863
H -0.7303204 4.4619481 -10.6498851
H -1.1288347 4.6206273 -9.2358289
O -2.1584425 8.0592815 8.4362872
H -2.7339709 8.8340654 8.5581825
H -2.2484575 7.6017819 9.2934190
O 13.9540039 8.6430024 -6.8040019
H 13.6650038 8.8690025 -5.9270017
H 14.6100041 9.2920026 -6.9930020
O -7.5180021 -16.0440045 -7.3960021
H -7.3800021 -16.3280046 -8.3410023
H -8.1950023 -15.3480043 -7.5530021
O -5.7781143 5.1124664 -6.5144450
H -5.3381359 4.4943743 -7.1311710
H -6.4478450 5.4919886 -7.1236480
O -6.5170018 5.0580014 11.9770034
H -7.0730020 5.8570016 12.0020034
H -6.9490019 4.4130012 12.5660035
O 12.8380036 5.6510016 -9.3620026
H 13.2030037 5.9290017 -8.4960024
H 12.4480035 4.8530014 -9.0790025
O 9.9130028 6.4610018 12.1490034
H 10.6070030 5.9170017 11.7100033
H 9.4290026 6.8810019 11.4150032
O -8.5090024 -10.9290031 -1.7730005
H -9.3500026 -11.0870031 -1.2580004
H -8.9870025 -10.6650030 -2.6120007
O -5.4216370 7.1268735 -4.6502089
H -5.3480685 6.3722268 -5.2745481
H -6.3299641 6.9932307 -4.3113857
O 10.3010029 -10.7320030 -1.9200005
H 9.4890027 -10.2780029 -1.6380005
H 10.2890029 -11.5210032 -1.3120004
O 10.1129193 9.2044182 -3.4721869
H 9.8966351 9.0336427 -2.5346407
H 9.5486913 8.5470439 -3.9163243
O -4.8450014 -11.8810033 -3.6070010
H -4.8610014 -11.7770033 -4.6100013
H -4.0750011 -11.3940032 -3.3800009
O -7.9271439 5.5177289 0.8983681
H -7.7272221 6.2754908 1.4756461
H -8.9071041 5.5173244 0.9625180
O 6.9180019 -12.0940034 -2.3150006
H 6.3620018 -11.6730033 -1.6250005
H 7.5830021 -11.3460032 -2.4780007
O 12.4196024 3.6403546 -0.8496323
H 11.5257799 3.9156070 -0.5520971
H 12.8761339 3.7036763 0.0145378
O -8.3814555 -9.8459379 2.9991342
H -9.2946116 -9.5692856 2.7721956
H -7.8765517 -9.0813375 2.6509861
O -5.9500017 8.0080022 -14.3920040
H -5.1030014 8.1000023 -14.8900042
H -5.8050016 7.0420020 -14.2130040
O -8.1326719 8.6431738 -0.4457571
H -8.1088978 9.1762917 -1.2729246
H -9.1027984 8.5065643 -0.3617727
O 8.6570024 -11.1900031 0.8070002
H 9.1690026 -10.6160030 1.4730004
H 9.1840026 -11.9970034 0.6090002
O 9.3760026 10.4250029 1.1300003
H 8.6990024 10.8910030 1.6340005
H 10.2310029 10.8270030 1.4840004
O -9.0570025 -9.2070026 -11.7240033
H -9.3330026 -8.7900025 -12.5550035
H -9.1300026 -10.1230028 -11.9730034
O -11.1320031 -14.0880039 5.0540014
H -10.5250029 -13.3560037 5.3530015
H -10.5290029 -14.7000041 4.5240013
O -8.6660024 5.5860016 -10.8490030
H -8.9840025 6.4650018 -11.0070031
H -8.3810023 5.3760015 -11.7500033
O -9.9021997 6.8060042 6.3282510
H -10.0724826 6.4560710 5.4231046
H -8.9235299 6.7016650 6.3481953
O 9.0200025 -10.2270029 5.5240015
H 8.7220024 -10.7890030 4.7120013
H 8.2480023 -10.2960029 6.1330017
O 8.4620024 7.5410021 -11.8220033
H 7.5150021 7.7260022 -11.6440033
H 8.7550025 8.3090023 -12.3230034
O 7.7780100 9.0492073 4.3410850
H 8.3790457 8.3781384 3.9574566
H 7.0483048 9.0409220 3.6998755
O -9.0040025 -14.0890039 9.4230026
H -8.3330023 -13.3780037 9.4250026
H -9.7110027 -13.4770038 9.7710027
O -10.1960029 4.2740012 -9.1590026
H -10.8370030 4.7880013 -9.6700027
H -9.3150026 4.4640012 -9.5100027
O -11.2120031 3.6370010 8.5920024
H -11.7440033 3.0840009 9.2770026
H -11.9220033 4.0920011 8.1000023
O 6.8330019 -16.6130046 -7.2560020
H 5.9480017 -16.5600046 -6.8430019
H 6.6060018 -15.9600045 -7.9390022
O 6.3340018 -15.3370043 9.7070027
H 5.7840016 -14.7640041 9.0960025
H 5.7440016 -15.4750043 10.4430029
O 8.1469602 1.5220855 -8.5448605
H 7.1927524 1.3111745 -8.5450478
H 8.2170300 2.0238053 -7.7053747
O 5.8633564 4.7612324 8.5137536
H 6.7507350 5.1730000 8.4741694
H 5.3258794 5.4754375 8.1091868
O -9.7860027 -15.7380044 -2.7630008
H -9.9170028 -16.2920046 -3.5220010
H -9.5540027 -16.4610046 -2.1290006
O -8.9033654 2.8547304 -5.5135893
H -9.1290967 2.0630574 -4.9729791
H -7.9950928 3.0030696 -5.1620526
O 8.5631104 2.8362105 -6.1753120
H 8.3237819 3.7770550 -6.1123674
H 9.5411020 2.8850338 -6.0675352
O 4.6640013 2.5050007 13.4810038
H 4.5250013 3.2810009 14.0940039
H 4.0210011 2.7230008 12.7690036
O -6.5627193 0.2532177 -3.3442766
H -7.4920628 0.4599410 -3.5653556
H -6.4397024 0.8439590 -2.5702806
O 5.6510016 -17.9360050 -2.4890007
H 5.2880015 -18.8140053 -2.7450008
H 6.5570018 -18.0650051 -2.8280008
O 7.4991583 1.5295775 -0.4881176
H 7.5901091 0.5743914 -0.6525663
H 7.0855416 1.8107953 -1.3267398
O 6.7560019 0.8760002 15.3770043
H 5.9020017 0.8220002 14.8660042
H 6.4240018 0.6070002 16.2550045
O -10.0710028 -14.0290039 0.8400002
H -9.1460026 -14.3240040 0.7170002
H -9.9160028 -13.2600037 1.4380004
O -7.6243966 5.4550928 -1.8174380
H -8.0260017 4.5695359 -1.9398609
H -7.6673162 5.4984456 -0.8366221
O 7.5874795 5.0157535 -1.0517592
H 8.2096525 5.1232127 -1.8014166
H 6.9791828 5.7662976 -1.2127019
O 4.5550013 0.4670001 17.4120049
H 4.2240012 -0.3190001 17.0650048
H 3.9160011 1.0710003 17.0500048
O -14.7900041 -8.5760024 3.9190011
H -14.0980039 -7.8890022 3.9930011
H -15.0050042 -8.6430024 2.9920008
O -9.1039551 3.5621175 4.5851962
H -9.4257287 4.4218342 4.2443331
H -8.1448712 3.7385223 4.5552214
O 8.5360024 -12.5340035 3.8600011
H 8.2790023 -13.3890037 3.5150010
H 9.4600026 -12.6890036 3.8230011
O 4.9670014 5.3870015 -15.9340045
H 5.0950014 6.0170017 -16.7010047
H 4.8040013 4.5080013 -16.3940046
O 7.3326942 7.7620853 0.9592090
H 6.6995772 8.3069755 1.4636814
H 6.7734670 7.4523396 0.2179801
O -7.5590601 -0.5153729 -7.2003246
H -6.7707966 -0.0323708 -6.8619668
H -7.6131371 -0.2173552 -8.1300419
O -12.5660035 -0.9320003 13.8530039
H -12.8280036 -0.5410002 14.7160041
H -11.9100033 -0.2760001 13.5400038
O 8.0900023 -14.8850042 6.8390019
H 8.4810024 -15.7460044 7.0230020
H 7.2300020 -15.2080043 6.4750018
O 10.8500030 1.7360005 -9.0400025
H 10.7060030 1.8080005 -9.9810028
H 9.9540028 1.8780005 -8.7000024
O 6.9690020 3.1440009 11.9030033
H 6.1710017 3.0740009 12.4060035
H 6.7450019 3.9030011 11.4440032
O -9.5560027 -5.0690014 -8.9100025
H -10.4360029 -5.0160014 -8.5200024
H -9.6180027 -5.8300016 -9.5090027
O -9.9760028 -2.4400007 10.6080030
H -10.4180029 -2.7540008 11.4270032
H -10.6950030 -2.4560007 9.9530028
O -7.7610022 15.0020042 9.5160027
H -8.4170024 15.5970044 9.0430025
H -7.5340021 14.2580040 8.9100025
O 8.2130023 -3.5050010 -10.1450028
H 8.3190023 -2.4940007 -9.9980028
H 9.1320026 -3.7610011 -10.1510028
O 6.7583180 -2.7885573 10.1711538
H 7.4533704 -3.4584795 10.1559184
H 6.4684802 -2.7983921 9.2333632
O -9.5354517 -0.1492467 -1.3692537
H -10.2075745 0.4776412 -1.0317529
H -9.1873762 -0.5244489 -0.5420977
O 7.6573906 -1.2354771 -1.0062590
H 8.2255538 -1.2683289 -1.8122506
H 8.2319676 -1.7166900 -0.3666415
O 5.2480015 -0.5880002 13.2170037
H 5.1800014 -1.5190004 13.5770038
H 4.2860012 -0.4540001 13.1810037
O 9.9820028 16.3910046 -2.3540007
H 9.8660028 16.6380047 -3.2340009
H 9.0000025 16.1660045 -2.1850006
O -5.6650016 -17.2870048 -3.1200009
H -5.5430016 -16.5250046 -2.4950007
H -5.9640017 -17.9870050 -2.4690007
O -8.8898563 3.0178003 -1.6716147
H -8.0419489 2.5281286 -1.7081826
H -9.1923882 2.6789724 -0.8002620
O 9.2420161 -2.3134425 0.8964270
H 8.8051494 -2.2191135 1.7720500
H 9.9198639 -1.6081914 0.9398610
O -7.8742038 -0.0505932 -9.9530322
H -8.5959432 -0.4753859 -10.4371130
H -7.1116435 -0.5360620 -10.3339892
O -7.2758202 3.6795963 8.9542379
H -6.9787229 3.6991690 9.8708099
H -7.9319652 4.4015146 8.9393167
O 3.5890010 -17.0990048 7.9110022
H 2.7640008 -16.6180047 7.6460021
H 3.4100010 -17.3370049 8.8200025
O 10.1690028 -0.9610003 -12.5460035
H 10.8010030 -1.6940005 -12.5440035
H 9.3430026 -1.3570004 -12.9730036
O 3.2705275 5.3074327 1.1311422
H 4.1940807 5.0110083 1.2822944
H 3.4159687 6.1531856 0.6545554
O -7.6324634 -3.3963753 -9.8954470
H -8.3843661 -3.8815536 -9.4858849
H -7.7576058 -3.6564887 -10.8308201
O -12.0430034 -1.0570003 8.9840025
H -12.9490036 -0.8400002 8.7670025
H -12.0330034 -1.8260005 8.3530023
O 10.7390030 -4.4290012 -9.6380027
H 10.9140031 -4.9360014 -10.4730029
H 11.6280033 -4.0750011 -9.5440027
O 6.7723622 0.3589910 7.0225291
H 6.1232218 0.1483609 7.7207806
H 6.4339572 1.2320066 6.7395810
O -11.7880033 -4.6510013 -7.5880021
H -11.8370033 -4.6750013 -6.6330019
H -11.9460033 -5.6150016 -7.6880022
O -13.3110037 -5.5620016 9.1120026
H -12.8740036 -6.3110018 9.6840027
H -13.6320038 -6.0550017 8.4220024
O -10.6420030 12.9240036 -9.1070025
H -10.0680028 12.3840035 -8.4330024
H -10.8300030 13.7510038 -8.6870024
O 6.6440280 -4.8921170 -7.8523964
H 7.1088047 -4.5814923 -8.6500341
H 6.0132469 -5.5625942 -8.1965154
O 3.8153092 -4.8564029 8.5236287
H 3.1732590 -4.9894262 7.7993319
H 3.2464285 -5.1127499 9.2784839
O 8.2150023 11.3410032 -9.4320026
H 7.6250021 11.8030033 -8.8030025
H 8.8580025 10.9710031 -8.8150025
O 4.4000012 13.6380038 9.4960027
H 4.6980013 14.4510040 9.0560025
H 4.9390014 13.0030036 9.0300025
O -8.6600924 -3.4654121 -3.3242982
H -8.8927920 -2.7944803 -4.0040240
H -8.3767312 -4.2040129 -3.8817440
O -8.7230024 16.5410046 -3.7780011
H -8.1680023 15.9040045 -3.3440009
H -8.0920023 17.2570048 -4.0160011
O 7.1795663 -3.9719104 -4.0623318
H 7.0763681 -4.7412366 -4.6386041
H 8.0772308 -3.6864888 -4.3278353
O 4.8460014 -2.8390008 14.5830041
H 5.4870015 -2.7300008 15.3260043
H 5.2360015 -3.4460010 13.9320039
O -14.1130039 -3.5230010 2.5330007
H -13.4790038 -3.0120008 1.9700006
H -14.2210040 -2.9430008 3.3090009
O 6.9316181 -4.3943413 2.2866154
H 7.2936517 -3.5762179 2.6823225
H 6.3452119 -4.7142768 2.9914956
O 4.0090011 -6.3100018 17.3370049
H 4.9890014 -6.1510017 17.4520049
H 3.5980010 -5.4850015 17.3630049
O -8.0480023 -2.9720008 -14.8710042
H -8.3590023 -2.7550008 -15.7740044
H -7.2660020 -2.2690006 -14.9330042
O -14.5860041 1.4840004 6.2340017
H -14.6100041 0.7720002 5.5710016
H -13.7870039 1.9780006 5.9790017
O 7.6150021 -1.5980004 -13.4520038
H 6.9060019 -2.2450006 -13.4780038
H 7.1220020 -0.7370002 -13.3990037
O 7.8935728 -1.9633338 3.2961177
H 7.1219501 -1.3592184 3.3160016
H 8.3571633 -1.6298439 4.0932258
O -4.7195112 -4.6027870 -9.3657062
H -3.8409296 -4.2569912 -9.6225276
H -4.5695299 -4.6679662 -8.3995466
O -12.1970034 -3.5130010 7.5250021
H -12.2790034 -4.3650012 8.0670023
H -12.9770036 -3.6080010 6.9170019
O -9.7840027 13.2470037 6.7570019
H -10.3240029 13.3530037 5.9600017
H -9.1750026 12.5720035 6.4440018
O 11.9160033 -6.2570018 -11.2350031
H 11.8690033 -7.1860020 -11.2020031
H 12.8450036 -6.1400017 -11.5510032
O 8.2262589 -4.2904570 6.5580117
H 8.0340181 -5.1854459 6.8874414
H 7.4277655 -3.8087576 6.8659459
O -10.2760029 -11.8380033 -9.2220026
H -9.2900026 -12.0050034 -9.2440026
H -10.5570030 -12.1030034 -10.1500028
O -9.0670025 -8.0200022 8.4920024
H -8.7780025 -8.9550025 8.5210024
H -8.5270024 -7.7570022 9.2340026
O -7.2600020 8.7910025 -8.5890024
H -6.5690018 8.7260024 -9.3020026
H -6.9790020 9.5050027 -8.0830023
O -7.9340022 11.2740032 5.8970017
H -7.2030020 10.7290030 5.5680016
H -8.5710024 10.4940029 5.9940017
O 10.6740030 -9.4060026 -8.7570025
H 11.3760032 -9.1130026 -9.3790026
H 11.1640031 -9.4320026 -7.9000022
O 6.3720018 -8.9250025 9.0580025
H 6.4760018 -9.1380026 10.0390028
H 7.1770020 -8.4310024 8.8880025
O 7.7740022 9.9060028 7.4440021
H 8.4740024 10.3460029 6.9020019
H 7.2080020 9.5390027 6.7460019
O -10.8670030 -7.0520020 -2.2560006
H -11.5920032 -6.3990018 -2.0660006
H -11.3510032 -7.9280022 -2.3890007
O -6.8980019 14.5230041 -2.5090007
H -7.5640021 13.7950039 -2.5240007
H -6.2120017 14.1630040 -3.1120009
O 7.9910022 -6.3160018 -5.8430016
H 7.4650021 -5.9570017 -6.6020018
H 8.8880025 -6.1280017 -6.2350017
O 6.6340019 -5.3830015 14.1920040
H 6.9640019 -5.1720014 13.2980037
H 6.8690019 -4.6150013 14.7450041
O 9.6020027 11.4600032 -5.0760014
H 10.0820028 10.9310031 -4.3720012
H 9.3540026 12.2400034 -4.4800013
O -5.3700015 -7.4170021 -15.2640043
H -5.9770017 -7.8040022 -15.8850044
H -5.1670014 -6.4840018 -15.5930044
O -6.9508576 -4.6307334 -0.4194551
H -6.3056494 -5.2470459 -0.8123663
H -7.7257383 -5.2326864 -0.4164740
O -5.9697025 10.5122148 0.8352942
H -5.8004191 9.9249565 0.0865519
H -5.2198374 11.1464898 0.7341366
O 9.3139006 -4.9099200 -0.1695015
H 9.3558972 -4.0168285 0.2378114
H 9.3298205 -5.4823579 0.6277713
O -9.3640026 -4.7870013 -16.9110047
H -8.7830025 -5.2130015 -16.2570045
H -9.9560028 -4.2460012 -16.3680046
O -9.5098562 -3.5995962 1.5265380
H -9.3187306 -2.6451948 1.5387725
H -9.7411365 -3.7042943 0.5776770
O 9.1811973 -1.2837657 -3.2407904
H 9.5240719 -2.0054163 -3.8115961
H 8.7416790 -0.7068306 -3.9032714
O 11.5960032 14.9860042 -0.5270001
H 10.9700031 15.4230043 -1.1890003
H 11.8800033 15.6830044 0.1380000
O -6.9360671 -6.0584397 -8.1900443
H -7.8236041 -5.9512646 -8.5856467
H -6.4183742 -5.4084634 -8.7001649
O -11.0440031 -6.1870017 6.7710019
H -10.5720030 -5.9080017 5.9870017
H -10.3270029 -6.7530019 7.1180020
O -7.9100022 12.4600035 -6.5980018
H -8.7670025 12.0270034 -6.8770019
H -8.3230023 13.2510037 -6.2500017
O -11.6400033 13.2120037 4.6160013
H -12.1340034 13.5660038 3.8270011
H -12.3260034 12.6730035 4.9060014
O 6.8060038 -6.9892983 5.0552177
H 6.1083962 -6.3844223 4.7389062
H 6.9213201 -7.5534200 4.2644088
O 9.3460026 11.0550031 5.3520015
H 8.6900024 10.4630029 4.8570014
H 10.1530028 10.9060031 4.9280014
O -12.6810035 -3.5610010 -4.9410014
H -13.2700037 -3.2750009 -5.6570016
H -12.0710034 -2.7900008 -5.0460014
O -12.8010036 -7.5120021 11.1000031
H -12.0790034 -7.4020021 11.8190033
H -13.6080038 -7.4470021 11.6060032
O -6.5110018 11.4920032 -4.4060012
H -6.2080017 10.6830030 -4.9430014
H -7.0120020 11.8810033 -5.1340014
O 8.6790024 -7.5080021 -9.7740027
H 9.3230026 -8.2350023 -9.6440027
H 8.5830024 -7.2010020 -8.8670025
O 9.6930027 -5.3660015 9.3480026
H 10.5060029 -5.6990016 8.8710025
H 8.9550025 -5.8210016 8.8700025
O 6.5060018 12.4570035 7.3910021
H 7.2840020 12.8340036 7.8330022
H 6.6620019 11.5030032 7.3670021
O -10.3843392 -3.4717825 -1.0568608
H -10.9372076 -4.1489302 -1.4816201
H -9.7023051 -3.3388172 -1.7493652
O -11.0630031 -7.6730021 13.2180037
H -11.0080031 -7.9920022 14.1470040
H -10.3470029 -7.0150020 13.2100037
O -4.6220013 14.1770040 -4.7490013
H -5.1250014 14.9280042 -4.9980014
H -4.8810014 13.5120038 -5.4680015
O 8.2220023 -9.7200027 -5.1260014
H 8.8390025 -8.9660025 -4.8560014
H 7.3920021 -9.3290026 -5.4560015
O 8.1690023 -5.5450016 11.6100032
H 8.7480024 -5.5720016 10.7880030
H 7.3920021 -5.6580016 11.0620031
O 12.7150036 11.9090033 -6.2800018
H 12.7210036 11.8650033 -5.3210015
H 12.3000034 12.8250036 -6.3560018
O -12.6170035 -9.4280026 -1.9850006
H -13.4090038 -9.7800027 -1.4920004
H -11.9170033 -9.9870028 -1.5710004
O -10.6460030 8.7860025 -2.7820008
H -9.6340027 8.8370025 -2.9380008
H -10.9010031 8.2410023 -3.5520010
O 6.0432782 -10.9969670 0.1797565
H 5.9115164 -10.0348749 0.2522433
H 7.0069726 -11.0582515 0.3823625
O 4.6130013 -9.0710025 15.8540044
H 5.0620014 -8.3710023 15.3110043
H 3.9440011 -8.4340024 16.1230045
O 6.9168581 11.1926520 -0.1494089
H 6.8810634 11.6224740 0.7258705
H 7.8130019 10.8133195 -0.1216518
O 3.0280008 6.6770019 14.5070041
H 3.4710010 6.6380019 13.6560038
H 3.6350010 7.3720021 14.9370042
O -8.5880024 -6.9760020 -10.5810030
H -9.0560025 -7.7180022 -10.9950031
H -7.8320022 -6.8870019 -11.2430031
O -9.1926605 -6.7167289 4.6975612
H -8.6993253 -7.5116746 4.9726038
H -8.5122182 -6.2172260 4.1984652
O -6.8010019 14.0990039 -10.7370030
H -7.4730021 14.1820040 -11.4360032
H -6.8170019 14.9680042 -10.3550029
O -8.6200024 11.6500033 0.8800002
H -7.7970022 11.2520031 0.5000001
H -8.7190024 10.8950030 1.5330004
O 11.9500033 -9.1310026 -11.1190031
H 11.3620032 -9.4300026 -11.7920033
H 12.6280035 -9.8430028 -11.1400031
O 10.1420028 -7.7520022 5.2070015
H 9.7170027 -8.6100024 5.1360014
H 10.6530030 -7.7420022 4.3690012
O 11.5510032 11.9160033 1.3970004
H 11.2650032 12.1610034 0.4450001
H 12.4810035 12.1780034 1.3520004
O -7.4430021 -11.9530033 -9.6600027
H -7.3130020 -12.3150034 -10.5920030
H -7.0970020 -12.6830035 -9.1850026
O -7.6130021 -11.5940032 6.8910019
H -8.4330024 -11.8790033 6.6160019
H -7.5160021 -11.7710033 7.8410022
O -5.4155032 3.8039975 -10.7462241
H -6.2897361 3.3951166 -10.5606594
H -5.0598715 3.8190905 -9.8387943
O -5.0904390 6.0596721 8.5160791
H -5.1090685 6.9309270 8.9420923
H -4.8041057 5.4937653 9.2576727
O 11.8130033 -10.5700030 6.7920019
H 11.3510032 -10.4420029 7.6490021
H 11.1410031 -10.4400029 6.0890017
O 10.7620030 6.5770018 -14.1690040
H 10.6030030 5.8820016 -13.5110038
H 11.3530032 7.2040020 -13.7250038
O 8.5851228 3.3373120 6.1371991
H 7.6582966 3.0559108 6.2862207
H 8.4386527 4.2428333 5.7920413
O -0.8580002 -10.9610031 -10.7280030
H -1.6670005 -10.8770030 -10.1560028
H -0.8370002 -11.9430033 -10.8780030
O -3.9339296 -11.9123137 4.2579831
H -3.2602967 -11.2353642 4.0721014
H -4.1847970 -11.7015923 5.1775379
O -1.8532626 5.2401937 -11.9425910
H -2.2629216 6.0986263 -11.7125833
H -1.0961437 5.5490234 -12.4919860
O -4.3472561 6.3164392 3.5953634
H -4.7734356 7.1458947 3.2969283
H -3.6305721 6.7089579 4.1374152
O 12.9150036 -12.8120036 5.9410017
H 12.2900034 -13.4230038 6.3210018
H 12.7130036 -12.0760034 6.4840018
O 14.9660042 8.3950023 7.2770020
H 15.8770044 8.6920024 7.0880020
H 14.8080041 7.6300021 6.6950019
O 2.5000007 -12.6320035 -10.4220029
H 3.0510009 -12.6090035 -9.6020027
H 1.9140005 -13.3260037 -10.1130028
O 0.5374385 -8.9045661 6.1091452
H 1.3933250 -9.3693860 5.9856725
H -0.0652015 -9.6777414 6.0151426
O 2.5840007 9.5970027 -12.3290035
H 2.7760008 10.3440029 -11.6890033
H 3.3340009 9.7540027 -12.9740036
O 1.1116887 10.0324094 3.3599915
H 0.9146042 10.9896112 3.3806196
H 1.2519812 9.8670020 4.3186403
O 6.3760018 -9.8690028 -12.0080034
H 5.4280015 -10.0060028 -12.4270035
H 6.8960019 -10.5800030 -12.4650035
O 0.4405264 -7.7066514 3.6167551
H 0.4723051 -8.1556654 4.4870827
H 1.2153406 -8.1128234 3.1739310
O 2.6143072 10.3021019 -8.7533753
H 3.1074269 9.4660484 -8.7236482
H 1.7945934 10.0557368 -8.2749278
O 5.0700014 9.2110026 7.3730021
H 5.7230016 9.0370025 8.0830023
H 4.4010012 9.7270027 7.9060022
O -11.8910033 -7.6650021 -12.2760034
H -12.8380036 -7.4200021 -12.3680035
H -12.0420034 -8.6050024 -12.2620034
O -10.8830030 -8.7860025 2.7030008
H -11.2550031 -8.0410023 2.2300006
H -10.9270031 -8.4810024 3.6310010
O -11.0880031 11.4200032 -11.4590032
H -10.5360029 11.8270033 -12.2040034
H -10.9720031 12.0270034 -10.6850030
O -9.9790028 9.7930027 2.9440008
H -10.8190030 10.1990029 2.6590007
H -10.0090028 9.9110028 3.8940011
O 6.4623877 -10.7841809 3.8833142
H 6.7755819 -9.9402429 3.4845470
H 7.1950131 -11.3968047 3.6602735
O 6.7760019 11.4560032 -11.7330033
H 6.1630017 12.2320034 -11.7080033
H 7.2490020 11.6470033 -10.8720030
O 7.3030020 11.6440033 2.6210007
H 6.8080019 12.1090034 3.3270009
H 6.8400019 10.7820030 2.5310007
O -5.7540016 -10.2110029 -11.8610033
H -6.0360017 -9.4190026 -11.3940032
H -5.6020016 -10.8440030 -11.1620031
O -5.2203391 -9.8184065 2.0857170
H -5.8350983 -9.0544496 2.0955128
H -5.7749900 -10.5169226 2.4776983
O -5.7970016 8.0190022 -10.8860030
H -6.1460017 7.2960020 -11.4680032
H -6.3360018 8.6960024 -11.3610032
O -5.5519813 9.7104210 5.6439866
H -5.5304086 9.2878974 4.7599724
H -4.6317381 10.0142798 5.7186252
O 11.5790032 -8.2730023 -0.5820002
H 11.5090032 -9.1210026 -1.0440003
H 11.0400031 -7.5960021 -1.0500003
O 11.7530033 10.8030030 4.1460012
H 11.7630033 11.5460032 3.4660010
H 11.5940032 10.0710028 3.5030010
O -3.1200009 -8.4340024 -10.1370028
H -3.2480009 -9.0860025 -9.5080027
H -4.0560011 -8.1790023 -10.3170029
O -2.6741085 -9.6813789 3.0774712
H -3.5650621 -9.7309220 2.6688360
H -2.1439677 -9.3111062 2.3453957
O -2.8748722 7.8671040 -11.5597893
H -3.8379928 7.8855245 -11.4172591
H -2.7726183 8.4489754 -12.3436949
O -2.9312966 12.3590460 4.1989577
H -3.8394761 12.2593871 3.8268531
H -2.5551307 13.0389357 3.6301528
O 11.8690033 -7.6170021 2.9740008
H 12.4680035 -6.8630019 3.1810009
H 12.5430035 -8.3490023 2.6890008
O 13.4720038 10.7990030 6.1760017
H 13.0670037 10.8480030 5.3130015
H 14.0280039 10.0380028 6.0280017
O -15.8470044 8.9020025 1.6530005
H -16.4250046 8.2570023 1.1150003
H -16.2540045 8.7150024 2.5390007
O 1.9040005 -8.5840024 -12.3950035
H 2.2860006 -7.9500022 -11.7340033
H 1.0940003 -8.1060023 -12.4210035
O -2.2529099 -3.8452527 4.1088526
H -1.6760742 -4.4679731 4.5970793
H -2.0555433 -3.0023422 4.5699184
O 2.0240006 13.4070038 -13.3950037
H 1.9780006 12.7280036 -14.1940040
H 2.2760006 12.8670036 -12.6300035
O 3.0874956 9.6345358 1.4599851
H 2.6649806 10.2768062 0.8496024
H 2.4565216 9.6894832 2.2077685
O -13.7560038 -6.9130019 6.4590018
H -13.8890039 -6.6340019 5.5430016
H -12.7600036 -6.7030019 6.6220019
O -15.2230043 12.0830034 1.8070005
H -15.4620043 11.1670031 1.7550005
H -14.6620041 12.2900034 1.0720003
O 3.9400011 -10.0760028 -13.2540037
H 3.1540009 -9.5340027 -13.0520037
H 4.3300012 -9.5300027 -13.9240039
O 2.3709495 -9.0385386 2.1224563
H 1.9499930 -9.4740569 1.3512826
H 2.9585029 -9.7614741 2.4293111
O 4.7270013 9.2660026 -14.4390040
H 4.8180013 10.2050029 -14.7900041
H 5.6740016 9.0520025 -14.3520040
O 5.6093038 9.3570694 2.5680202
H 4.8412007 9.5237313 1.9780398
H 5.1096392 9.3383774 3.4176132
O -14.8510042 -10.0700028 6.0640017
H -14.2080040 -9.4560026 6.4050018
H -15.0470042 -9.5110027 5.2100015
O -7.4090021 9.3760026 -12.6130035
H -7.3800021 10.2840029 -12.9810036
H -6.6260019 8.9770025 -13.0970037
O -13.3520037 12.9590036 -0.0480000
H -12.4370035 13.0170036 0.1390000
H -13.3200037 13.1620037 -1.0200003
O 3.9090011 -8.8700025 -16.3320046
H 4.5320013 -9.2130026 -16.9830048
H 3.5810010 -9.7440027 -16.0590045
O 3.9032012 -11.1712195 3.1095040
H 4.8454518 -11.0025275 3.3346194
H 3.9060796 -12.1504012 3.0590845
O 5.5257246 5.4531075 -12.3402402
H 6.3250592 5.4200459 -12.8823206
H 5.8734673 5.2078140 -11.4591237
O 6.1330017 13.0420037 4.5460013
H 5.2580015 12.6690035 4.6640013
H 5.8700016 14.0000039 4.3810012
O -4.3090631 -10.6738617 -0.3017014
H -4.5480112 -10.2867905 0.5673816
H -4.2057081 -11.6142496 -0.0457392
O -4.4610012 -11.8770033 14.4810041
H -3.9880011 -11.0380031 14.3200040
H -3.7200010 -12.4300035 14.8540042
O -3.8910011 8.0070022 -16.2830046
H -2.9990008 8.3400023 -16.4600046
H -3.7370010 7.0400020 -16.2350045
O -3.4298723 6.3130584 -0.2938374
H -4.2446619 6.7363986 -0.6363643
H -2.9643030 7.1196527 0.0291887
O 10.0350028 -13.0860037 -0.5340001
H 10.4080029 -13.6520038 0.0940000
H 9.8260028 -13.6880038 -1.2330003
O 12.3770035 9.4940027 -0.6120002
H 12.1200034 10.4290029 -0.7690002
H 12.2560034 9.4610026 0.4060001
O -3.7390010 -13.2150037 0.6890002
H -3.4530010 -13.8580039 0.0080000
H -2.9590008 -13.3020037 1.3260004
O -1.3590004 9.0370025 -16.8340047
H -1.0550003 9.0140025 -17.7900050
H -1.0780003 9.9220028 -16.5890046
O -2.2343757 8.6137431 0.4977219
H -1.7184557 8.4431164 1.3125657
H -1.8414365 9.4558157 0.1946621
O 15.1340042 7.8960022 -0.0410000
H 15.8700044 7.9910022 0.5700002
H 14.9230042 8.8550025 -0.1290000
O -18.5280052 6.2630018 2.4970007
H -17.6520049 6.1360017 3.0200008
H -18.1290051 6.2530018 1.6270005
O -1.0920003 -11.0120031 -15.7360044
H -0.9120003 -11.8220033 -15.2410043
H -0.8310002 -10.4110029 -15.0750042
O -1.8140005 -14.2830040 2.5960007
H -1.3320004 -15.1050042 2.1650006
H -1.8130005 -14.4940041 3.5190010
O 0.3570001 8.9070025 -13.5840038
H -0.4500001 9.4460026 -13.6630038
H 1.0830003 9.4770027 -13.2750037
O 1.6592936 10.9894391 -0.4334389
H 1.7283694 10.2768721 -1.1048155
H 2.1184648 11.7228230 -0.8844750
O 12.9570036 -10.0560028 2.3720007
H 12.6290035 -10.8280030 2.8550008
H 13.7710039 -10.4290029 1.9990006
O 1.8820005 -7.0700020 -16.4330046
H 1.2320003 -7.7590022 -16.6700047
H 2.6680007 -7.6500021 -16.5910046
O -1.7675919 -5.8115562 -2.7353386
H -1.3552241 -5.4438076 -3.5449876
H -2.4038024 -6.4314903 -3.1432381
O 4.0790011 13.1720037 0.8580002
H 4.7820013 13.7710039 1.0330003
H 3.6250010 13.0380036 1.7080005
O 15.0380042 -4.6540013 0.8590002
H 15.2720043 -4.4620012 -0.0140000
H 14.3770040 -5.2910015 0.7770002
O -12.6030035 -5.1850015 -1.4830004
H -12.6020035 -5.0810014 -0.5460002
H -13.3480037 -4.5910013 -1.7730005
O -10.8540030 8.4970024 -0.1070000
H -11.0580031 8.5790024 -1.1010003
H -11.3940032 9.2610026 0.2450001
O 5.4700015 -6.5940018 -16.5050046
H 5.1370014 -7.4710021 -16.2600046
H 4.8370014 -6.3650018 -17.2230048
O 7.9539571 -9.3615866 -1.7071666
H 7.4108112 -8.9815163 -0.9932620
H 7.8981596 -8.6525086 -2.3802673
O 7.4230021 15.6750044 -2.1520006
H 6.9910020 14.7950041 -2.1810006
H 7.2850020 15.8850044 -1.1540003
O -6.8249010 -7.6411228 2.5056847
H -7.2392862 -6.7758341 2.3222241
H -6.0712302 -7.3408581 3.0575340
O -4.3679620 11.7996687 -2.4958312
H -3.5700163 11.6087450 -3.0295058
H -5.0703257 11.7310957 -3.1646720
O 7.9046713 -7.0911012 -3.2723008
H 7.9922877 -6.8329578 -4.2220722
H 8.6822441 -6.6411147 -2.8920456
O 9.8130027 -2.0280006 12.7670036
H 9.0650025 -1.5500004 12.3180034
H 9.7580027 -1.5340004 13.6710038
O 9.3486564 8.4869506 -0.8222166
H 9.5872897 9.2152381 -0.2089807
H 8.6287113 8.0905338 -0.2961643
O -6.4850018 -12.6270035 -1.4980004
H -7.3370021 -12.1580034 -1.6780005
H -5.9750017 -12.4050035 -2.3240007
O -7.3780021 -7.9480022 15.9800045
H -7.7090022 -8.8570025 15.8840044
H -7.9140022 -7.6400021 15.2910043
O -3.3735503 8.4232351 -3.3058974
H -3.9728473 7.8772278 -3.8595584
H -3.8597739 8.3937110 -2.4678165
O -7.8410022 9.2650026 14.2530040
H -7.8790022 9.4620026 15.1970043
H -7.8640022 8.2950023 14.3040040
O 10.4430029 -8.6420024 -3.7960011
H 10.4460029 -9.2780026 -3.0840009
H 10.3850029 -7.8080022 -3.3560009
O 12.9460036 8.6840024 -4.3160012
H 12.0610034 8.5070024 -4.0430011
H 13.4290038 8.0440023 -3.7950011
O -9.8060027 -6.8160019 -5.4200015
H -9.0520025 -6.1820017 -5.4030015
H -10.4060029 -6.5170018 -4.7250013
O -7.4190021 -7.8320022 10.9260031
H -6.5220018 -7.8810022 11.2720032
H -7.7930022 -7.2770020 11.5720032
O -5.7670528 9.4124832 -6.0360681
H -5.5775202 8.6405960 -5.4538303
H -5.1817469 9.1630473 -6.7808462
O -7.6260021 11.2030031 9.0480025
H -7.3410021 11.8850033 8.3460023
H -7.2380020 11.6220033 9.8260028
O 12.8000036 -6.6760019 -6.8830019
H 13.7730039 -6.9340019 -6.8100019
H 12.4150035 -7.5870021 -6.6120019
O 10.5330029 10.7380030 -7.5680021
H 11.3300032 11.2270031 -7.8300022
H 10.3610029 10.9930031 -6.6430019
O 8.4060024 12.9940036 9.4440026
H 9.2060026 12.5560035 9.8910028
H 8.3760023 13.7000038 10.0700028
O -13.3720037 6.6340019 -0.5010001
H -13.9190039 7.2090020 -1.1490003
H -12.7400036 6.1660017 -1.0230003
O -0.7316980 -9.0086816 -1.2645591
H -1.0334673 -8.5568704 -0.4500081
H 0.0196940 -9.5008664 -0.8770819
O -2.3570007 -10.6970030 13.4100038
H -2.0530006 -11.6290033 13.5500038
H -1.7030005 -10.0890028 13.7720039
O -1.1428042 11.0834019 -0.2368436
H -1.0531405 11.7930802 -0.9051298
H -0.1922063 10.9659734 -0.0377163
O -1.5900004 11.1710031 14.4090040
H -0.9930003 11.7810033 14.8080041
H -2.2520006 10.9010031 15.1770042
O 15.3930043 10.3240029 -2.8200008
H 15.7090044 9.3920026 -2.9950008
H 15.5840044 10.4430029 -1.8650005
O -17.0060048 -8.4730024 -2.0390006
H -17.0330048 -8.5470024 -3.0050008
H -16.0980045 -8.0500023 -2.0280006
O -13.4830038 10.5850030 -2.9220008
H -12.5260035 10.4120029 -2.9750008
H -13.6250038 11.5390032 -3.0810009
O 4.0677754 -8.6257289 -1.6190833
H 4.4141870 -8.1931426 -2.4315271
H 3.1338965 -8.3859693 -1.6727031
O 2.0040006 -7.6460021 15.7080044
H 2.6630007 -6.9610019 15.9030045
H 1.3120004 -7.6910022 16.3690046
O 6.4750018 13.3350037 -1.8570005
H 6.4480018 12.6170035 -1.2110003
H 6.0380017 12.8680036 -2.6220007
O -11.4830032 -8.8050025 -5.0370014
H -12.0610034 -8.0510023 -4.9750014
H -10.6880030 -8.3000023 -5.4380015
O -10.2100029 10.9980031 -6.8950019
H -10.8920030 10.4410029 -7.2530020
H -9.6730027 10.3950029 -6.3840018
O 5.2582820 -7.3385103 -3.7076698
H 5.3121313 -7.7009587 -4.6137916
H 6.2160696 -7.2363718 -3.5136573
O 1.7782348 -5.7813800 10.1620194
H 1.0429460 -5.1386997 10.0610631
H 1.4472017 -6.5355549 9.6290526
O 5.3390015 13.2920037 -4.8190013
H 5.0880014 12.4900035 -5.2750015
H 4.7640013 13.9100039 -5.3040015
O 2.3180006 10.2840029 14.0620039
H 2.5490007 11.1390031 13.6690038
H 2.7610008 10.3700029 14.9140042
O -7.4860021 -9.9090028 -4.8330014
H -7.5680021 -9.9240028 -5.8070016
H -7.9290022 -10.7490030 -4.6030013
O -8.8970025 -12.0910034 12.6900036
H -9.7970027 -12.0580034 12.2850034
H -8.3750023 -12.2250034 11.8810033
O -2.6719844 6.5015107 -6.1460886
H -2.6841523 5.8050943 -5.4491317
H -1.8100017 6.9288966 -5.9475143
O -8.1780023 6.6270019 15.1950043
H -8.8730025 6.6060018 15.8090044
H -8.7100024 6.5110018 14.3940040
O 7.5790021 -11.9280033 -6.7680019
H 6.8250019 -11.5260032 -7.2030020
H 7.7770022 -11.2220031 -6.1330017
O 10.8580030 5.8230016 -6.1080017
H 10.2840029 6.5110018 -6.4670018
H 11.7480033 6.0070017 -6.3890018
O -3.6834794 -4.6551662 -6.8248290
H -4.1345197 -4.5019028 -5.9670120
H -3.1365355 -3.8531100 -6.8925967
O -5.0800014 -7.7070022 12.0540034
H -4.3330012 -8.0290022 11.4460032
H -4.5720013 -7.3000020 12.7540036
O -3.8769887 10.7379775 -8.4998393
H -3.8409019 9.7600619 -8.5642861
H -3.8457948 11.0312968 -9.4327231
O -5.9090017 12.0580034 11.0460031
H -5.8470016 11.4150032 11.7990033
H -5.0770014 11.9600033 10.5520030
O 15.9380045 -6.9120019 -8.1570023
H 15.7880044 -6.3230018 -8.9230025
H 16.6370047 -6.4960018 -7.6310021
O 11.8990033 -7.6500021 10.8090030
H 11.8190033 -7.8810022 9.8870028
H 12.7600036 -7.2190020 10.8010030
O 10.9910031 11.9890034 9.6780027
H 11.3290032 11.1290031 9.4020026
H 11.3310032 12.0300034 10.5990030
O -1.1454195 -8.7740094 -4.2461472
H -2.0433872 -8.4233939 -4.1303024
H -0.7807940 -8.6474047 -3.3503496
O -2.6250572 -4.8281312 10.7372753
H -2.3502136 -5.1468898 11.6206700
H -1.8263686 -4.3249024 10.4734170
O -0.2127255 13.1550615 -1.8555430
H 0.5349083 13.3725039 -1.2536749
H 0.2424961 12.8107582 -2.6478246
O 15.9160045 -6.6980019 -4.6690013
H 15.4380043 -5.8180016 -4.8200013
H 15.3830043 -6.9350019 -3.8810011
O 9.2150026 -8.5960024 14.5960041
H 9.0730025 -9.4510026 14.2750040
H 9.3310026 -8.1740023 13.7020038
O -17.0560048 7.9180022 -6.1490017
H -16.4260046 7.3550021 -5.7440016
H -16.6480047 8.8070025 -6.1490017
O 2.3879670 -9.3755516 -6.8685138
H 1.8428456 -9.5335114 -7.6692938
H 2.4657594 -8.4012693 -6.9405149
O -1.9001209 -11.1826390 9.1197876
H -1.6011039 -11.8615642 8.4847974
H -2.1354816 -10.4477104 8.5125482
O 2.5466569 10.1652414 -4.5518839
H 1.8352678 10.8388658 -4.5087160
H 3.1527977 10.5859151 -5.1992192
O 1.2840004 11.4190032 11.1520031
H 0.5900002 11.1570031 11.7820033
H 1.8410005 10.6000030 11.1210031
O -10.1590028 -10.9930031 -3.8910011
H -10.9080031 -11.6380033 -3.8370011
H -10.7320030 -10.2350029 -4.1600012
O -11.3070032 6.6050018 -4.7410013
H -10.7060030 6.1910017 -5.4150015
H -11.1660031 5.8980017 -4.0990011
O -12.2470034 5.9810017 11.6920033
H -12.8640036 5.2250015 11.8720033
H -12.8070036 6.7470019 11.4460032
O 9.2770026 -12.9260036 -4.6940013
H 8.6780024 -12.5130035 -5.3030015
H 8.9000025 -13.7660039 -4.7150013
O 3.3390009 -9.7610027 12.7000036
H 4.0020011 -10.1450028 12.1090034
H 3.9620011 -9.2610026 13.2640037
O 6.5363735 9.0662173 -3.9272211
H 5.7261281 8.5921913 -4.2211465
H 7.2286474 8.3878057 -4.1013802
O 7.9660022 11.7810033 12.8410036
H 7.0690020 12.1630034 12.6700035
H 7.7870022 11.0550031 12.1820034
O -5.5155613 -8.3025438 -8.7092039
H -6.1070012 -7.5255905 -8.5896286
H -4.7856388 -8.0446667 -8.1046049
O -7.7614281 -9.0889283 5.5623861
H -7.9472268 -9.4783546 4.6805510
H -7.6226329 -9.9112354 6.0770863
O -4.3060012 12.6650035 -10.5150029
H -3.8570011 13.4720038 -10.1190028
H -5.2240015 12.9370036 -10.5240029
O -3.8992874 10.2082118 8.6374706
H -3.7808141 11.1496985 8.8809798
H -3.7478720 10.2701682 7.6745354
O 13.5740038 -8.3370023 7.2710020
H 12.9980036 -8.9180025 6.6880019
H 13.8640039 -8.9530025 7.9410022
O 10.6730030 7.5020021 8.1240023
H 11.2130031 6.9390019 7.6040021
H 11.0630031 8.4060024 8.0900023
O -1.3419144 -9.1028322 -7.0559711
H -1.1339923 -9.0004783 -6.1074777
H -2.0879584 -8.4800917 -7.1525566
O -2.3170006 -8.9610025 11.2540031
H -1.4110004 -9.1560026 11.0030031
H -2.3860007 -9.5790027 12.0440034
O -4.1310894 8.0583084 -7.9259691
H -4.0662808 7.4529352 -8.6799188
H -3.6365882 7.5476096 -7.2465695
O -2.7022029 10.4419985 6.1065454
H -2.7719626 11.1503460 5.4231291
H -1.9637478 10.7920608 6.6376310
O 14.2380040 -6.1100017 10.3710029
H 15.0380042 -6.1350017 10.9100031
H 14.0000039 -5.1690014 10.2130029
O 12.2030034 9.8900028 8.5920024
H 12.4180035 10.1900029 7.6800021
H 13.0350036 9.5570027 9.0790025
O -5.3120015 -11.8790033 -6.7480019
H -5.0120014 -12.3440035 -7.4980021
H -5.9740017 -11.2950032 -7.1990020
O -5.7920016 -13.6140038 12.4840035
H -5.1840015 -13.4260038 11.7520033
H -5.4840015 -12.8670036 13.0970037
O -2.4928486 4.4406180 -4.3566215
H -3.0409865 3.9717933 -3.6869682
H -1.5812120 4.3078148 -4.0075140
O -4.8950014 8.4260024 10.5160029
H -4.5230013 8.9270025 9.7600027
H -5.3150015 9.0860025 11.0520031
O 9.9370028 -11.0980031 9.4260026
H 10.5550030 -11.8210033 9.4730027
H 9.1310026 -11.6300033 9.1330026
O 13.0860037 9.2060026 -9.4280026
H 12.9400036 8.9830025 -8.5150024
H 14.0260039 9.0670025 -9.4880027
O 11.9690033 8.7900025 11.8260033
H 12.3960035 8.0680023 11.4240032
H 12.4010035 8.7940025 12.6940036
O -12.5720035 -7.1800020 -7.9840022
H -13.3660037 -7.5500021 -7.5330021
H -12.1830034 -8.0230022 -8.3260023
O -14.1610040 8.7110024 8.0260022
H -14.2950040 9.1020025 8.9490025
H -13.3070037 8.2040023 8.0930023
O 9.1500026 -10.3610029 -10.8170030
H 8.2560023 -10.1020028 -10.4610029
H 9.7320027 -10.0960028 -10.1320028
O 2.7182163 -10.4676717 5.5064073
H 3.4058873 -10.0985130 6.1067347
H 3.2087765 -10.4871104 4.6604290
O 5.8617473 9.4467121 -8.2939957
H 5.7151199 8.5752759 -7.8748340
H 6.5645419 9.8093819 -7.7208022
O 3.5910010 10.6670030 8.9460025
H 3.0740009 11.3470032 9.3850026
H 3.2510009 9.9020028 9.4070026
O -10.7540030 -9.3790026 5.9810017
H -11.4240032 -9.1310026 6.6350019
H -10.0170028 -8.9930025 6.5080018
O -11.6120032 6.6380019 -9.8680028
H -10.9440031 7.2240020 -9.4600026
H -12.1320034 6.4380018 -9.0910025
O -13.4140038 8.3310023 4.5310013
H -14.2630040 8.8130025 4.4260012
H -12.8510036 9.0370025 4.8320014
O 6.1541385 -11.5644841 6.6246187
H 5.6383746 -10.7461864 6.8028549
H 6.2262910 -11.5032432 5.6532756
O 6.4953080 4.4050253 -9.9748032
H 6.1501738 4.2428187 -9.0765913
H 7.3617680 4.8123432 -9.7486367
O 4.2823238 6.5579137 7.1705069
H 4.6432289 7.4564476 7.0449520
H 3.6214880 6.7600248 7.8710478
