21
Exact ACS SI CASSCF/6-31G* geometry for TS31-32; DOI 10.1021/ja906679g
H       -0.688525      -1.117678       1.950580
C       -0.222873      -0.987639       0.988807
C        1.161127      -0.864607       1.003600
C       -0.972892      -1.567667      -0.188448
H        1.662175      -0.630040       1.928253
C        1.896928      -0.452262      -0.110916
C       -1.861144       0.680057      -0.680020
H       -0.337928      -1.564007      -1.070013
H       -1.199681      -2.609880       0.025458
C       -1.113185       1.210763       0.519063
H       -2.750982       1.284226      -0.843208
H       -1.240933       0.777149      -1.563506
C        0.136409       1.827535       0.442295
H       -1.721717       1.476187       1.369360
H        0.436509       2.443934       1.281435
N        1.018472       1.504076      -0.489508
H        1.869528       2.027601      -0.383663
O        2.733169      -0.615318      -0.900015
C       -2.246654      -0.784822      -0.483829
H       -2.940188      -0.879047       0.349713
H       -2.749217      -1.182578      -1.361040
