19
TS: 13a (NH) <--> 2a (NH) (diradicaloid) singlet; source-verbatim CASSCF(14,12) optimized coordinates from JA043988W SI
C        2.533745       0.973251      -0.375817
C        3.052250      -0.266776      -0.504676
C        2.295237      -1.456316      -0.081257
C        0.994847      -1.404742       0.225435
C        0.321747      -0.125494       0.086620
C        1.183352       1.062831       0.207181
C       -3.043826      -0.797368       0.019726
C       -3.120437       0.531875      -0.478753
C       -1.824023       0.959895      -0.500571
N       -1.056372      -0.073137      -0.040724
N        0.726808       1.787172       1.134213
N       -1.805317      -1.140949       0.279632
H        4.050646      -0.406261      -0.876935
H        2.817692      -2.394674      -0.039812
H        0.435633      -2.281235       0.484926
H       -3.838127      -1.493416       0.192755
H       -3.992291       1.078139      -0.769135
H       -1.390380       1.896432      -0.769893
H        3.087849       1.863773      -0.605831
