19
14a (NN); source-verbatim CASSCF(14,12) optimized coordinates from JA043988W SI
C       -2.145166       1.142506       0.164085
C       -3.069332      -0.845145      -0.035370
C       -3.369134       0.532631       0.132226
C        0.176313       0.277704      -0.046892
C        0.885893       1.415515      -0.245426
C        2.356457       1.422971      -0.204011
C        3.115186       0.367442       0.191428
C        2.422468      -0.886506       0.564670
C        1.047688      -0.879784       0.125256
N        1.753089      -1.667435      -0.558259
N       -1.211020       0.160113       0.018851
N       -1.774383      -1.049410      -0.100927
H        4.181572       0.468026       0.286826
H        2.832935       2.350081      -0.467416
H        0.388233       2.346064      -0.445939
H       -3.744184      -1.672768      -0.103413
H       -4.329487       0.992814       0.226879
H       -1.869316       2.165819       0.293626
H        2.750308      -1.456600       1.415045
