46
VERBATIM heavy-atom coordinates for the full VASP-optimized pSb1 precursor from jp046147k SI; hydrogens were not included in the source table; precursor was truncated/reduced for the reported CASSCF/CASPT2 model; heavy-atom formula C35N4O7
C -6.727930 1.286780 1.981310
C -7.868170 0.909380 2.954120
C -7.354510 0.242120 4.227550
C -6.657780 -1.058320 3.854540
C -5.710600 -0.928130 2.685800
C -5.715360 0.141450 1.847610
C -4.770970 0.262600 0.734970
C -3.439010 0.012680 0.799200
C -2.505000 0.109450 -0.290270
C -1.175720 -0.133600 -0.002430
C -0.078750 -0.037130 -0.897440
C 1.260780 -0.295190 -0.702370
C 1.985560 -0.745800 0.449280
C 3.345600 -0.955600 0.271660
C 4.209590 -1.413020 1.287340
N 5.487250 -1.666760 1.125070
C -7.394690 1.620830 0.626680
C -6.001890 2.542680 2.520280
C -4.812550 -2.128000 2.516310
C -2.999600 0.472180 -1.657290
C 1.287890 -0.970300 1.761230
C 3.773640 -6.324630 3.855500
C 3.966050 -7.777730 4.267960
C 5.122340 -5.681510 3.454270
C 4.977740 -4.243770 2.936540
C 6.308660 -3.691280 2.402620
C 6.350330 -2.163710 2.207230
N 3.052380 -5.519850 4.842610
O 4.189920 -8.707150 3.516830
C 10.941900 -1.971050 -2.095180
C 12.251200 -2.155060 -1.323930
C 9.784240 -2.564630 -1.216040
N 11.031200 -2.598310 -3.408950
O 12.736200 -1.310310 -0.595670
O 9.303440 -1.566640 -0.317420
C 10.143000 -3.819080 -0.431430
C 6.028840 -1.271840 -5.372660
C 4.631670 -1.086810 -4.760530
C 7.035330 -0.330880 -4.688360
C 7.488660 -0.746440 -3.294800
C 6.441890 -0.698570 -2.187740
N 5.982220 -1.104070 -6.827850
O 3.992310 -1.945420 -4.190270
O 6.763990 -1.384630 -1.111150
O 5.398910 -0.041420 -2.327330
O 4.864910 -3.793240 -1.919030
