17
Source-verbatim SI 5 (R/U)B3LYP/6-31+G(d) geometry
C -2.98648 -0.00019 -0.53515
C -2.21894 0.00056 0.61540
C -0.82162 -0.00047 0.67524
C 0.08091 -0.00259 -0.53127
C 1.55532 0.00007 -0.15740
C 2.20589 -1.21598 0.02688
C 2.20174 1.21867 0.02501
H 1.68617 2.16281 -0.12412
H 3.24638 1.26247 0.32131
H -0.13680 -0.88053 -1.15922
H -0.13879 0.87159 -1.16372
H -2.74581 0.00205 1.57003
H -2.54067 -0.00173 -1.52594
H -0.34477 0.00001 1.65247
H 1.69360 -2.16212 -0.12079
H 3.25066 -1.25572 0.32332
H -4.07083 0.00072 -0.48562
