3329
4-thiothymidine T2T1-MIN; verbatim full 3329-atom QM/MM coordinates from ACS SI
N 0.6653938 -0.3590579 -0.9172207
C -0.4397237 -0.3789899 -1.8546047
C -0.5157449 0.5981978 -2.8204317
C 0.4242058 1.6150846 -2.7916790
N 1.5060458 1.5509214 -1.8935099
C 1.6950165 0.5305068 -1.0540907
C -2.1074550 -1.2562625 1.7014261
H -2.7943405 -1.4216361 0.8683142
H -2.6274685 -1.4995074 2.6308844
C -0.8698977 -2.1571458 1.5697974
H -1.1901026 -3.1669544 1.8222194
O -0.3796257 -2.2327309 0.2135258
C 0.8232069 -1.4387347 0.1190909
H 1.6547479 -2.1126856 -0.1963128
H -1.1111823 -1.2099074 -1.8219668
C -1.5889382 0.5219185 -3.8755905
H -2.1045648 1.4675763 -3.9822312
H -1.1597286 0.2365241 -4.8284858
H -2.3341793 -0.2109670 -3.6092932
H 1.9306384 2.4749675 -1.5883141
O 2.7600106 0.3916450 -0.4328515
C 0.2818090 -1.7268081 2.4615880
H -0.0523497 -1.1506257 3.3259605
C 1.1204043 -0.8745862 1.5322356
H 0.7409558 0.1494480 1.5920324
O 0.9702278 -2.8899267 2.9794311
O 2.5303876 -0.8012038 1.8310478
H 2.8693457 -0.3108012 1.0185381
H 1.0257135 -3.5797701 2.2723566
O -1.8168766 0.1418811 1.7530314
H -2.6087268 0.5412329 2.1930721
S 0.6214121 2.8832111 -4.0468326
O -13.2220037 2.3610007 -3.2990009
H -13.2790037 2.6980008 -4.1580012
H -14.1220040 2.0690006 -3.0750009
O 1.2560004 -15.7570044 -1.4500004
H 0.9160003 -15.7940044 -2.3930007
H 0.5620002 -15.1610042 -1.1050003
O 4.3320834 -3.2610177 0.1612588
H 4.7018022 -3.0867275 -0.7314748
H 4.1122359 -4.1992623 0.0593481
O 3.0790009 2.5840007 16.4080046
H 3.6480010 3.3420009 16.1760045
H 2.2090006 2.9160008 16.3270046
O 1.8570005 19.4680054 -2.9100008
H 1.0590003 18.9360053 -2.9230008
H 2.5190007 18.9570053 -3.4510010
O -15.6390044 0.8660002 -2.5550007
H -16.3330046 0.5060001 -2.0000006
H -16.2250045 0.9490003 -3.3350009
O 3.5110010 -14.7870041 0.0920000
H 2.7030008 -15.1600042 0.4820001
H 3.3340009 -15.1010042 -0.8120002
O 2.2820006 0.2210001 -19.1820054
H 2.3510007 0.7400002 -18.3970051
H 2.0940006 -0.7160002 -18.8820053
O -8.0660023 -16.6670047 1.8350005
H -8.3200023 -17.4640049 1.3500004
H -8.0450023 -15.9360045 1.1740003
O -6.9294281 3.2530726 2.0964362
H -7.1799583 4.0241787 1.5496997
H -6.7049570 3.7058480 2.9307203
O 11.1647133 -0.2592699 0.8694170
H 11.6609192 -0.7312315 1.5771142
H 11.1758030 0.6406398 1.2197105
O -14.4160040 3.3100009 -0.3490001
H -13.4700038 3.5680010 -0.3200001
H -14.8050041 3.4420010 -1.2650004
O 7.3190020 -14.5080041 -1.1390003
H 6.8100019 -14.4100040 -0.3040001
H 7.2660020 -13.5580038 -1.5450004
O 7.9200022 0.9820003 -17.6480049
H 8.0760023 0.0290000 -17.4910049
H 8.8040025 1.3000004 -17.3330049
O 2.3153579 3.8554257 -1.0842962
H 2.7540941 4.2240271 -0.2829984
H 1.8035543 4.6521728 -1.3641637
O 0.9810704 0.3647820 11.3292991
H 0.0956149 0.3770496 11.7418149
H 0.8750767 1.0886209 10.6651868
O -2.3940007 -14.7170041 -1.4440004
H -1.8350005 -15.4330043 -1.8090005
H -1.7480005 -14.1310040 -0.9410003
O -3.6560010 5.1860015 -17.6390049
H -3.6850010 4.3930012 -18.2250051
H -3.7500010 4.9520014 -16.7040047
O -6.4546241 1.8910460 -1.1602642
H -5.9642028 2.6532257 -0.7882924
H -6.3009334 1.2330507 -0.4482878
O 10.8570030 -15.2270043 -2.7490008
H 11.7160033 -15.1520042 -2.2770006
H 10.9020031 -14.5920041 -3.4690010
O 13.3630037 3.8550011 1.6850005
H 13.4890038 2.9280008 2.1630006
H 14.2750040 4.1680012 1.5700004
O -9.1568439 -1.7115232 -5.3577524
H -8.5180996 -1.3035919 -5.9832687
H -9.9165144 -1.8441209 -5.9684046
O -8.9420025 -5.9920017 12.3410035
H -8.6070024 -5.6600016 13.2350037
H -8.5070024 -5.3400015 11.7390033
O 9.7557551 -3.4280564 -5.0043299
H 10.5959796 -3.9213014 -4.9220540
H 9.8161679 -3.1608081 -5.9482926
O 9.7860027 0.1920001 14.5570041
H 8.8640025 0.3450001 15.0050042
H 9.7020027 0.9100003 13.8840039
O -4.5520013 0.3510001 -18.6490052
H -4.7830013 -0.5720002 -18.8840053
H -3.6500010 0.4980001 -19.0090053
O -8.9422692 1.8857292 0.8533897
H -8.2116584 2.2951238 1.3637496
H -8.7933656 0.9421981 1.0228306
O 8.5450024 -1.4890004 -16.5020046
H 9.2190026 -2.2050006 -16.6950047
H 8.2660023 -1.7790005 -15.5900044
O 10.8344059 0.4504165 -1.9026147
H 10.2829316 -0.2604098 -2.2925535
H 10.9412070 0.1437138 -0.9817641
O -18.7610053 -6.3820018 -1.4570004
H -18.3970051 -7.2910020 -1.4930004
H -18.0480051 -5.8470016 -0.9820003
O -11.7173161 4.2127744 -0.6058129
H -11.5159181 3.2556677 -0.5020110
H -11.4168457 4.3465518 -1.5248184
O 1.1017876 -10.5372076 0.1590256
H 0.6930782 -11.1084423 0.8474908
H 1.3647145 -11.1944152 -0.5102062
O 0.7150071 5.4589678 2.3112290
H 0.1608821 5.3179613 1.5115019
H 1.6166999 5.3572430 1.9306714
O 0.6400002 6.1370017 17.3010048
H 0.3720001 6.3830018 18.1220051
H 1.4950004 5.7600016 17.5540049
O -16.8320047 3.3460009 1.1310003
H -17.4500049 3.7350010 0.5020001
H -16.0480045 3.2180009 0.5580002
O 1.8020005 -18.0550051 1.7210005
H 2.0870006 -17.7560050 2.5900007
H 1.6380005 -19.0430053 1.9460005
O 0.1790001 3.1610009 -17.0310048
H 0.0250000 4.0810011 -17.4470049
H 0.7140002 3.4640010 -16.2400045
O -1.0498746 4.8966329 0.2227038
H -1.2773504 3.9403105 0.1340800
H -1.9363392 5.3027804 0.1327335
O 17.7410050 1.7230005 -1.9780006
H 18.3480051 1.1930003 -2.4890007
H 17.0520048 1.1080003 -1.7660005
O -6.5590018 -6.9800020 -12.4030035
H -5.9000017 -6.2920018 -12.4010035
H -6.2540018 -7.6100021 -13.1090037
O -7.7689117 -5.0748362 3.0473510
H -7.3776104 -4.3062724 3.5109148
H -8.3095498 -4.6074608 2.3740935
O -6.9880020 11.7150033 -13.8220039
H -6.9770020 12.4740035 -13.3070037
H -6.1750017 11.7680033 -14.2810040
O -7.5300021 16.3790046 -0.7660002
H -6.8580019 15.8030044 -0.3520001
H -7.4810021 15.8290044 -1.6200005
O 9.3897844 -6.6901223 1.9835821
H 10.2604182 -7.0466909 2.2443564
H 9.2292916 -6.0471146 2.7057623
O 10.9890031 12.2640034 -1.2580004
H 10.7160030 13.1540037 -0.9770003
H 10.6630030 12.2160034 -2.1780006
O -15.0590042 -3.7000010 -1.5480004
H -15.7440044 -3.6270010 -2.2360006
H -15.0710042 -2.6890008 -1.2730004
O 2.2470006 -2.2720006 -18.1530051
H 1.8080005 -3.1660009 -17.9430050
H 2.9350008 -2.5990007 -18.7430052
O 3.2125519 -6.3932160 1.9979840
H 2.9640473 -7.3384919 1.9642536
H 2.3608647 -5.9586185 1.7884421
O -0.0380000 -4.3410012 17.5470049
H 0.2170001 -4.4020012 16.6370047
H -0.8050002 -4.9430014 17.6360049
O 3.5720010 17.8050050 -4.1120012
H 4.5470013 17.7970050 -4.1570012
H 3.4240010 16.9230047 -3.6500010
O -2.7680008 -5.8890016 -17.9160050
H -1.9280005 -5.6120016 -18.3510051
H -2.7260008 -6.8960019 -18.0800051
O -5.4369763 -6.6806134 -1.4640379
H -5.7500364 -6.8926943 -2.3669478
H -5.7839614 -7.4796782 -1.0127884
O -7.7830022 -4.7940013 14.3360040
H -7.4310021 -4.8730014 15.2010043
H -7.2610020 -3.9900011 14.1550040
O -3.8890011 15.0050042 -2.1220006
H -4.1890012 15.9380045 -2.2300006
H -4.2450012 14.5910041 -2.8410008
O 15.2830043 -2.7450008 -4.4390012
H 15.8410044 -1.9120005 -4.3270012
H 14.4610040 -2.5930007 -3.9380011
O -14.7820041 -7.0280020 -2.1460006
H -14.5000041 -6.6220019 -1.3420004
H -14.0330039 -7.5740021 -2.2810006
O -13.0630037 13.3900037 -2.9660008
H -12.4810035 12.9610036 -3.6420010
H -13.2990037 14.1460040 -3.5320010
O 4.4419153 -5.5011855 -1.7759308
H 5.2670539 -5.4915559 -1.2449016
H 4.7109811 -6.0716885 -2.5231067
O 2.8160008 -1.7670005 16.3250046
H 2.9320008 -2.1720006 17.2220048
H 3.2180009 -2.3680007 15.6650044
O 6.1610017 17.4020049 -3.8660011
H 6.4530018 16.6980047 -3.2620009
H 6.3600018 17.0880048 -4.7370013
O -4.9510014 -2.3400007 -18.9020053
H -5.3340015 -3.1830009 -18.9740053
H -4.4070012 -2.4870007 -18.1140051
O -8.4200920 -0.9730194 1.1903578
H -8.2376708 -0.7541395 2.1295163
H -7.6070367 -1.4787475 0.9818197
O -4.1510012 19.0830053 0.4430001
H -3.8220011 19.3080054 -0.4300001
H -5.1130014 19.2780054 0.3800001
O 12.7100036 0.2510001 -4.0510011
H 12.5370035 -0.7410002 -3.7980011
H 12.0320034 0.6590002 -3.5060010
O -2.2080006 -18.0080050 -0.3020001
H -2.7660008 -18.8190053 -0.1540000
H -2.2990006 -17.7980050 -1.3060004
O -3.7199491 -2.2700735 -1.4869460
H -3.6744338 -3.1190914 -0.9978363
H -4.6186869 -2.3473349 -1.8825171
O -7.1420020 -1.3160004 17.3150048
H -6.4210018 -1.6400005 16.8060047
H -7.8430022 -1.1380003 16.5990046
O 18.1500051 -2.2520006 -1.7830005
H 18.9000053 -1.7270005 -1.6350005
H 17.9500050 -1.8280005 -2.6090007
O -7.7920022 -4.1490012 -12.5320035
H -7.8490022 -3.5440010 -13.2920037
H -8.6080024 -4.8160013 -12.6390035
O -9.8218182 -2.5491148 6.5679134
H -10.2838095 -1.7630707 6.2123390
H -10.5902573 -3.0676035 6.8821719
O -9.5630027 13.9430039 2.8650008
H -10.2170029 14.7090041 2.9770008
H -9.9800028 13.2980037 3.4970010
O 9.0130025 -4.6630013 -13.2630037
H 8.4100024 -4.7070013 -14.0780039
H 8.6090024 -5.3950015 -12.7530036
O 9.5434564 -5.1261778 4.2526863
H 8.9830991 -4.6488886 4.8979054
H 9.7535585 -5.9279977 4.7635910
O 8.8020025 16.7050047 4.7590013
H 7.8470022 16.7150047 4.4780013
H 8.9110025 15.7470044 4.8090013
O -3.5270010 -3.7980011 -14.1270040
H -2.6640007 -4.3430012 -14.1830040
H -4.0620011 -4.3400012 -13.5190038
O -4.9109356 -6.5753312 4.1474045
H -4.9147993 -5.6637407 3.7921086
H -5.3468598 -6.4852578 5.0161511
O -7.1440020 13.9400039 1.8020005
H -7.4750021 13.3210037 1.1560003
H -7.9300022 13.9510039 2.4060007
O 13.7900039 -5.3760015 -2.4890007
H 13.2940037 -5.6660016 -1.6650005
H 14.6620041 -5.1250014 -2.1140006
O 14.0230039 13.0250036 0.8850002
H 14.7370041 13.4770038 0.4480001
H 13.9180039 13.6090038 1.6030004
O -15.9460045 4.4580012 -2.4050007
H -16.4020046 3.9350011 -3.1320009
H -15.1900043 4.9850014 -2.7210008
O 2.2180006 -16.9780048 -5.1200014
H 1.8810005 -17.1470048 -6.0190017
H 2.2420006 -17.8190050 -4.6700013
O -0.0560000 -13.6800038 12.4980035
H 0.0220000 -14.4210040 13.1220037
H 0.8500002 -13.2740037 12.7570036
O -0.0339317 3.6397244 12.6690978
H 0.1457559 4.3858093 13.2826347
H -0.9902689 3.5023903 12.7638989
O -18.5520052 2.9300008 3.7940011
H -17.9840050 3.1780009 3.0810009
H -18.0630051 2.1400006 4.1940012
O -4.8240014 -16.7640047 0.4300001
H -4.8370014 -16.2180045 1.2170003
H -4.0400011 -16.4990046 -0.0160000
O -1.8070005 1.5020004 -17.4900049
H -2.0570006 1.2400003 -16.5590046
H -1.0580003 2.1260006 -17.4290049
O -2.5110007 19.0510053 2.6990008
H -3.1350009 19.1360054 1.8620005
H -3.0680009 19.3230054 3.4840010
O 16.4920046 3.9830011 3.3480009
H 17.3590049 3.7670011 2.8630008
H 16.4560046 4.8620014 2.8930008
O -14.8940042 -5.6620016 0.6570002
H -15.1510042 -4.9500014 0.0880000
H -14.7850041 -5.1440014 1.5240004
O 6.6330230 -5.5468756 -0.1490069
H 6.6344287 -5.1075135 0.7347913
H 7.5428950 -5.3208675 -0.4252510
O -5.2010015 -4.9240014 -18.4350052
H -5.4200015 -4.8350014 -17.5020049
H -4.4080012 -5.4010015 -18.3160051
O -6.1120737 -2.5338566 1.0568505
H -5.5934385 -3.0884603 1.6743266
H -6.4446352 -3.2433062 0.4536345
O -3.0720009 14.7530041 0.9880003
H -3.0890009 13.8330039 0.7280002
H -3.0300008 15.1750042 0.1050000
O 13.4170038 -2.4810007 -0.9530003
H 13.3060037 -3.3940009 -0.5410002
H 13.4510038 -1.9040005 -0.1890001
O -5.7220016 -15.3570043 2.6700007
H -6.0890017 -14.4810041 2.6190007
H -6.4090018 -15.8680044 2.2550006
O -4.2250012 5.3950015 -15.0470042
H -4.6400013 4.6080013 -14.5650041
H -3.2600009 5.2460015 -14.8950042
O -3.7727476 3.8676490 2.3949016
H -2.8369432 3.7792162 2.6771544
H -3.9969380 4.7384415 2.7883247
O 11.8810033 -14.1840040 2.1090006
H 11.3470032 -14.9260042 2.4310007
H 12.7990036 -14.5440041 2.0890006
O 16.6280047 8.2530023 3.2120009
H 17.4000049 7.7030022 3.2600009
H 17.1360048 9.0680025 3.3800009
O -6.4201656 3.3325584 -4.4909829
H -5.6753215 3.1913995 -3.8791778
H -6.0538781 3.9850768 -5.1167920
O -9.5660027 6.5370018 12.7180036
H -9.0680025 7.1420020 12.0870034
H -10.4390029 6.5470018 12.2640034
O 12.9370036 -13.8750039 -4.1800012
H 13.7530038 -13.9040039 -3.6610010
H 12.8400036 -12.8940036 -4.3910012
O 10.8873504 2.9656313 -2.9687445
H 11.5765879 3.2086578 -2.3154417
H 10.6557847 2.0778843 -2.6190396
O 7.2780020 3.6230010 15.3510043
H 7.1360020 3.9330011 16.2500045
H 6.9940020 2.6930008 15.4460043
O -14.5390041 -10.2520029 -0.3070001
H -14.8730042 -9.5330027 0.2280001
H -14.9120042 -10.9050031 0.3420001
O -9.7010012 6.0997819 3.7083295
H -10.2608829 6.0238389 2.9044378
H -9.0012952 6.6824720 3.3641465
O 7.7580022 -14.8240041 2.3460007
H 7.1890020 -15.5800044 2.3960007
H 7.0310020 -14.1660040 1.9950006
O 5.8102941 7.1064522 -1.3873951
H 4.8959984 7.2187629 -1.0424642
H 5.7486924 7.5884921 -2.2233230
O -10.9984327 -5.6100299 2.8554411
H -10.5154945 -4.8988985 2.3891586
H -10.3146854 -5.9535490 3.4603908
O -10.3060029 13.4760038 -0.2670001
H -10.6470030 14.0130039 0.4880001
H -9.7410027 12.7630036 0.1930001
O 7.2010261 -8.3962280 2.6805483
H 6.7305075 -8.3366968 1.8248245
H 8.0609310 -8.0047498 2.4266271
O 9.0340025 14.7620041 1.9870006
H 9.9980028 14.9100042 1.8300005
H 9.0750025 14.2920040 2.8740008
O -17.4190049 7.3950021 -0.0480000
H -16.8920047 7.8060022 -0.7210002
H -18.1870051 8.0560023 -0.0930000
O -0.4460001 -9.1550026 -17.4820049
H -0.4360001 -9.8370028 -16.7780047
H -1.3430004 -8.9670025 -17.6490049
O -1.1703942 -8.0773963 1.3582074
H -1.5622079 -7.1801217 1.4071770
H -0.5378449 -8.0163052 2.1032489
O -3.0990009 -9.1880026 16.4430046
H -3.7470010 -8.6730024 15.9640045
H -2.2920006 -9.1510026 15.8820044
O 1.5210004 14.0460039 0.0620000
H 2.4390007 13.8720039 0.3370001
H 1.1920003 14.4860041 0.8540002
O 15.3060043 -8.2090023 2.8280008
H 15.6150044 -9.1660026 2.8620008
H 15.4000043 -7.9880022 3.7690011
O 15.4460043 10.7520030 -0.1100000
H 16.0220045 11.1870031 0.5030001
H 14.6660041 11.3470032 -0.0430000
O -13.5510038 7.8710022 -5.9490017
H -12.6470035 7.4420021 -5.7960016
H -14.0260039 7.0720020 -6.3110018
O 3.4380010 -12.9130036 -4.9810014
H 4.2160012 -13.3870037 -4.6520013
H 3.4340010 -12.1870034 -4.3000012
O 1.6960005 -10.7140030 16.5440046
H 2.3710007 -10.5890030 15.8370044
H 1.9250005 -9.9760028 17.1230048
O 4.2827756 3.5086371 -3.6561404
H 3.3294663 3.5533913 -3.7949700
H 4.4457447 4.4317614 -3.4120686
O 0.6620002 5.4570015 14.6310041
H 1.4770004 6.0670017 14.6520041
H 0.5090001 5.4470015 15.5530044
O -10.9150031 -11.3250032 -0.5910002
H -11.3450032 -12.0570034 -0.9550003
H -11.1880031 -11.3930032 0.3100001
O -11.6725851 1.4904360 -0.6810726
H -11.9600519 1.1305981 0.1874887
H -12.4179894 1.2767698 -1.2615079
O 5.5280015 -14.0410039 -3.8830011
H 5.9610017 -13.2910037 -3.4380010
H 5.2830015 -14.5600041 -3.0940009
O 2.1830006 -12.2310034 12.2510034
H 2.5070007 -11.2960032 12.5190035
H 3.0830009 -12.6880036 12.2720034
O 2.2020006 5.3150015 -17.7290050
H 1.4090004 5.6970016 -18.1560051
H 2.3190006 5.9390017 -16.9560047
O 6.2582450 1.6361843 -2.8777748
H 5.5831264 0.9403381 -2.7113012
H 5.6763954 2.4041430 -3.0267379
O 4.6650013 4.5740013 15.3250043
H 5.4230015 4.8110013 15.8730044
H 4.0990011 5.3860015 15.2970043
O -13.1250037 -12.7670036 3.7570011
H -13.6670038 -12.7800036 4.5140013
H -12.2870034 -13.2400037 4.1270012
O -8.0230022 0.5440002 -16.5310046
H -8.2080023 -0.4560001 -16.4490046
H -8.2920023 0.6250002 -17.4190049
O -12.9070036 5.7040016 4.3420012
H -13.0100036 6.6160019 4.6610013
H -13.0750037 5.7980016 3.3940009
O 7.8080022 2.5930007 -13.0480037
H 7.4150021 1.9830006 -13.7350038
H 7.7250022 3.4740010 -13.4160038
O 3.9871164 4.5187950 5.2620259
H 3.0206556 4.5992402 5.1384379
H 4.1338579 5.2702723 5.8736060
O -17.4810049 3.1720009 -4.0950011
H -17.2990048 2.4780007 -4.7910013
H -18.3520051 2.9010008 -3.7370010
O -0.6370002 -19.4900055 -4.3850012
H -1.4890004 -19.3230054 -3.9520011
H -0.5220001 -18.6040052 -4.8050013
O 2.8026640 0.0407914 -4.8003323
H 3.2744324 -0.0416377 -3.9429981
H 2.6553940 -0.9060917 -5.0107029
O -0.5369631 -2.3909511 12.3643797
H 0.0176324 -2.3177985 13.1657859
H -1.0166889 -1.5466236 12.4043741
O 15.1860043 -1.0580003 9.8340028
H 15.0100042 -0.7410002 8.9340025
H 14.6470041 -0.5070001 10.4560029
O -15.3760043 -1.4580004 -10.2100029
H -14.9430042 -0.5990002 -10.3270029
H -14.7790041 -1.7550005 -9.5160027
O 5.5998254 0.5661196 -8.0425668
H 5.2987725 0.8896146 -7.1672897
H 6.0962021 -0.2354260 -7.7765233
O -0.0944649 -3.7888544 10.1119581
H 0.2759965 -3.1321297 9.4918616
H -0.1763230 -3.2480161 10.9347284
O -10.3819262 2.0982564 6.4964282
H -9.7551058 2.6098597 5.9399870
H -10.4810868 2.6703770 7.2847321
O 5.7860016 1.3240004 -14.8120041
H 5.1400014 2.0170006 -15.1040042
H 6.3240018 1.3390004 -15.5550044
O 8.3033146 2.7671482 1.9122652
H 8.0930744 2.1939230 1.1375957
H 7.4713413 3.2638339 1.9826495
O -9.2670199 0.6269039 -3.9568131
H -9.4585714 0.3982608 -3.0160579
H -9.3433769 -0.2567303 -4.3726175
O 4.2901597 -0.2016127 -2.4578083
H 4.6268967 -1.1087362 -2.3048269
H 3.8337809 -0.0088633 -1.5876129
O 2.6451599 0.4338867 13.4945379
H 3.3038028 1.1512380 13.5792854
H 2.2272983 0.6400841 12.6318277
O -11.1510031 -0.3150001 -14.0320039
H -11.2490031 0.4060001 -14.6780041
H -11.9410033 -0.8500002 -14.3040040
O -14.8860042 0.1630000 2.9420008
H -15.8530044 0.1200000 3.1370009
H -14.4940041 -0.3660001 3.6630010
O 3.1910009 -16.4360046 4.5060013
H 3.4040010 -17.3870049 4.5080013
H 2.3860007 -16.3830046 5.0600014
O 5.2320015 -3.3520009 -14.8320042
H 5.0230014 -2.4060007 -14.7610041
H 4.4230012 -3.8390011 -14.6980041
O 4.7586389 -1.9536348 5.4115234
H 5.2905136 -1.2555624 4.9737393
H 4.4351636 -2.4088884 4.6065020
O -2.9520008 -17.9980050 -3.3370009
H -3.9040011 -18.0270050 -3.5310010
H -2.7520008 -17.1140048 -3.6600010
O -3.6307181 0.5567039 -1.3303582
H -3.5619869 -0.4074159 -1.4746127
H -4.2932564 0.5416941 -0.6061727
O 15.2030043 0.2980001 -5.2660015
H 14.8930042 0.5390002 -6.1010017
H 14.3110040 0.1440000 -4.8250014
O 12.3990035 -0.6230002 14.9750042
H 11.4190032 -0.3930001 14.9410042
H 12.4560035 -1.4670004 14.4680040
O -0.1460000 -13.7020038 -0.3430001
H 0.3940001 -13.1370037 -0.9680003
H 0.1420000 -13.2930037 0.4610001
O -1.2270003 6.6530019 -15.5920044
H -0.7210002 6.2200017 -14.9090042
H -0.9150003 7.5990021 -15.4790043
O -0.6310048 8.0336473 2.6887433
H 0.0496727 8.7181604 2.8694669
H -0.0954210 7.2201744 2.6449050
O 14.9960042 -8.3460023 -2.4940007
H 14.3790040 -9.1540026 -2.5750007
H 14.8970042 -8.1580023 -1.5010004
O 16.4060046 3.9830011 -1.4080004
H 15.6720044 3.7760011 -1.9390005
H 16.8300047 3.0720009 -1.4430004
O -5.4520015 0.8830002 -15.7750044
H -6.3210018 0.7800002 -16.1870045
H -5.0180014 0.5610002 -16.6070046
O 15.2660043 -0.4270001 -1.3780004
H 14.6800041 -1.1510003 -1.6490005
H 15.2620043 -0.4920001 -0.3600001
O -15.6860044 -8.2440023 1.4930004
H -15.3520043 -7.5590021 0.9070003
H -16.6100046 -7.9390022 1.7500005
O -13.2690037 9.3680026 0.8700002
H -14.2360040 9.4020026 0.9040003
H -13.1410037 8.4720024 0.6320002
O 0.1199283 -12.3408027 1.9984022
H -0.6741929 -12.8456665 2.2698879
H 0.6319613 -12.3737168 2.8349378
O 2.7280008 6.8740019 -15.5300043
H 3.7220010 6.9520019 -15.5790044
H 2.4020007 7.6210021 -14.9180042
O 4.5342585 1.7429688 0.7989752
H 5.0934816 0.9418052 0.7990539
H 3.7730074 1.3345662 0.2912035
O 18.1660051 5.8390016 -2.2490006
H 18.1290051 6.4940018 -1.4960004
H 17.6840049 5.0560014 -1.8200005
O -3.7130010 -15.7530044 -10.3330029
H -3.1880009 -16.1640045 -11.0710031
H -3.1930009 -16.0270045 -9.5500027
O -3.8460011 -16.0270045 4.6380013
H -4.4780013 -16.3200046 5.3410015
H -4.5150013 -15.5820044 3.9800011
O -2.1866373 0.5226454 -11.3414550
H -1.3488263 0.7714534 -10.8942032
H -2.4285560 1.3632599 -11.7831174
O -2.3502726 2.2641010 7.1548865
H -2.8540524 3.0176657 6.7857848
H -1.7968031 1.9900478 6.3922670
O -0.2950001 18.6790052 4.3190012
H -0.6480002 18.4000051 5.1700014
H -1.1730003 18.7250052 3.7710011
O 15.3150043 3.2070009 5.6350016
H 15.7300044 3.2660009 4.7690013
H 14.6130041 2.6240007 5.3120015
O -12.3620035 0.5440002 -7.8660022
H -13.3290037 0.8050002 -7.8110022
H -12.0380034 1.2490003 -7.2880020
O -15.5090043 -0.7790002 11.4150032
H -15.3490043 -1.4120004 10.7110030
H -15.0710042 -1.1920003 12.2390034
O 7.2718064 -1.3345231 -6.8714217
H 8.1107391 -1.7541724 -7.1385851
H 7.5639529 -0.7610544 -6.1312036
O 0.6265719 2.3820250 9.5911098
H -0.1916651 2.9135969 9.6264968
H 1.0729537 2.7725411 8.8169346
O -2.9579255 1.2847482 -14.6352605
H -3.8705045 1.2510270 -14.9899352
H -3.0541977 1.9105707 -13.8915541
O -6.6588723 4.9755280 4.2823174
H -5.7817427 5.3653236 4.0876005
H -6.8699293 5.4405114 5.1170440
O -4.3990012 16.5470046 5.4800015
H -4.5430013 16.0690045 4.6210013
H -5.3920015 16.6770047 5.6990016
O 9.7640820 1.8855918 4.1979877
H 9.3833265 2.4937808 4.8652638
H 9.3124609 2.1853599 3.3829819
O -13.6570038 5.6980016 -3.5030010
H -12.9960036 6.3340018 -3.7740011
H -13.9460039 5.2900015 -4.3330012
O 1.4660004 -12.3200034 -1.9990006
H 1.0270003 -11.8670033 -2.7730008
H 2.4040007 -12.0420034 -2.1590006
O 3.3575364 7.6102829 -0.3325056
H 2.7469812 7.9620710 -1.0172933
H 3.2816453 8.3181191 0.3448647
O -1.0910003 7.8050022 15.6270044
H -0.4980001 7.2150020 16.1290045
H -0.5700002 8.0020022 14.8010041
O -3.3280009 -11.7420033 -13.2320037
H -3.1460009 -11.4460032 -12.3520035
H -3.4140010 -10.8770030 -13.7060038
O -5.9520017 -13.6930038 6.5220018
H -6.3660018 -12.7940036 6.3720018
H -6.7990019 -14.2520040 6.6080018
O -3.2286476 2.9006589 -12.3072958
H -2.6879004 3.7181464 -12.2194452
H -4.0278940 3.1776250 -11.8140044
O -3.8615579 4.4969782 6.5562089
H -4.6467895 3.9080616 6.4512786
H -4.2340078 5.1559275 7.1779427
O 14.1310040 5.9080017 -11.9960034
H 14.2920040 5.9910017 -11.0520031
H 13.4300038 5.2050015 -12.0440034
O 14.1570040 7.5580021 3.9630011
H 14.5940041 6.9160019 4.5260013
H 14.9370042 7.9000022 3.5040010
O -12.2070034 -10.7100030 -6.8700019
H -11.5750032 -11.4460032 -6.7060019
H -11.9490033 -10.0620028 -6.1740017
O -12.7310036 -11.2510031 7.6670021
H -13.3770037 -11.3480032 8.3710023
H -12.3880035 -10.3550029 7.9180022
O -8.1370023 10.1770028 -2.6820008
H -7.4000021 10.6770030 -3.0430009
H -8.6900024 11.0070031 -2.5310007
O 5.6020016 -11.0070031 -8.4050024
H 4.7170013 -11.4730032 -8.2520023
H 5.5260015 -10.6520030 -9.2830026
O 6.1861550 -5.9661931 9.7112248
H 5.4445244 -5.4551583 9.3334383
H 5.8960430 -6.8680146 9.5149425
O 7.2871684 10.5798240 -6.2854321
H 7.0032018 10.1454172 -5.4555672
H 8.1700155 10.8970817 -6.0030735
O 5.7160016 13.2040037 12.0880034
H 4.9180014 13.4300038 12.6230035
H 5.2740015 12.9030036 11.2440031
O -3.8053913 -1.7463157 -5.5469137
H -4.4496038 -1.0322868 -5.7247724
H -3.3873102 -1.8607729 -6.4204687
O -4.5940013 1.8110005 14.8890042
H -4.2610012 1.2970004 15.6630044
H -5.3440015 2.3450007 15.1810042
O 15.6680044 0.4620001 -8.5420024
H 15.6040044 -0.4250001 -8.9570025
H 15.1020042 1.0870003 -9.0310025
O 11.6590033 2.6950008 11.8360033
H 10.7470030 2.3800007 12.1020034
H 11.7810033 3.2680009 12.5980035
O -10.3930029 -13.1260037 -6.5510018
H -9.7610027 -13.4480038 -5.8340016
H -9.9820028 -13.3590037 -7.4090021
O -10.9890031 -11.8530033 10.6610030
H -11.7020033 -12.4180035 10.2330029
H -11.5280032 -11.1860031 11.2030031
O -10.0010028 8.0530023 -8.0560023
H -9.8620028 7.6750021 -7.2150020
H -9.1740026 8.4140024 -8.1720023
O -12.9030036 5.0150014 7.0770020
H -12.8850036 5.1970015 6.1150017
H -13.6990038 5.3540015 7.4210021
O 11.5190032 -12.6940036 -8.2620023
H 10.8850030 -13.1220037 -7.7420022
H 10.9010031 -11.9900034 -8.5940024
O 6.6470019 -9.5540027 11.6620033
H 6.6750019 -10.2250029 12.4160035
H 7.6260021 -9.5820027 11.4440032
O 8.7156808 5.5007621 -8.8682804
H 9.2406426 6.3227246 -8.8699529
H 8.3736720 5.5178187 -7.9582978
O 8.2087896 6.2241973 7.7991774
H 8.1832993 6.1433229 6.8234607
H 9.1204079 6.5594477 7.9340140
O -8.8730025 -15.2040043 4.0870011
H -8.8990025 -14.3900040 3.5520010
H -8.6300024 -15.8630044 3.4230010
O -7.1783529 6.4256851 6.6400458
H -7.0892364 7.3275615 7.0214213
H -6.5419552 5.9697067 7.2257967
O 11.2520031 4.1300012 -15.6760044
H 10.5260029 4.6500013 -16.0550045
H 11.0990031 3.2770009 -16.1750045
O 9.9427678 4.2962741 0.2710385
H 9.1419173 4.5479888 -0.2309896
H 9.5324249 3.7108424 0.9399096
O -8.6640024 -9.5580027 -14.7320041
H -7.7770022 -9.9310028 -14.5880041
H -8.5040024 -8.6110024 -14.8890042
O -8.7700025 -12.6810035 3.0200008
H -7.8520022 -12.4880035 2.7990008
H -8.9810025 -11.7750033 3.1840009
O -5.8050016 6.9870020 -17.7680050
H -5.1110014 6.3140018 -17.8590050
H -5.2790015 7.7730022 -17.5660049
O -4.6928846 3.8545469 -0.2320452
H -4.2809890 4.7426136 -0.2638735
H -4.5368864 3.6580549 0.7167288
O 8.6020024 -16.7130047 -1.8570005
H 9.2420026 -16.0780045 -2.3150006
H 8.0480023 -16.0750045 -1.4410004
O 7.3950021 4.6560013 -14.5760041
H 8.0500023 5.0610014 -15.2450043
H 6.5860018 5.0650014 -14.9680042
O 11.6024808 7.1442344 -1.6841574
H 12.0817843 7.9452674 -1.3680239
H 10.7241216 7.4024094 -1.3403537
O -10.3120029 -11.9100033 6.3330018
H -11.1180031 -11.9670033 6.8060019
H -10.3590029 -10.9730031 6.0470017
O -8.7850025 5.0080014 -13.4550038
H -8.7190024 4.3340012 -14.1980040
H -8.9020025 5.8580016 -13.8040039
O -9.9060028 9.5040027 5.7030016
H -10.8300030 9.7960027 5.8150016
H -10.1180028 8.5080024 5.9710017
O 7.9020022 -12.7240036 8.5810024
H 7.8950022 -13.6060038 8.1620023
H 7.2710020 -12.2310034 8.0330022
O 9.9870028 5.2490015 -11.6770033
H 9.6680027 4.7340013 -10.9250031
H 9.3150026 5.9700017 -11.7230033
O 7.9571042 5.7875809 5.0663170
H 8.5074768 6.1905636 4.3572688
H 7.0816642 5.8397826 4.6639929
O 0.1590000 -13.2930037 -14.1310040
H 0.3560001 -12.4260035 -13.7110038
H -0.3970001 -13.6290038 -13.4270038
O -1.4910004 -14.8980042 5.5800016
H -2.0240006 -14.1940040 5.9490017
H -2.1530006 -15.6180044 5.3190015
O 2.1927966 1.0313876 -11.1584091
H 1.3043631 1.1628747 -10.7664115
H 2.1197410 0.0859363 -11.4138940
O -1.4807594 5.3828223 5.5228010
H -1.6873845 6.3384229 5.4385171
H -2.3034719 5.0791798 5.9668067
O 15.7830044 5.4940015 0.9350003
H 16.2160045 5.1390014 0.1040000
H 15.3810043 6.2900018 0.5780002
O -14.9660042 8.6900024 -1.5750004
H -15.8570044 8.8240025 -2.0170006
H -14.5230041 9.5650027 -1.7910005
O 2.2958096 -8.8920877 -4.1214956
H 1.9702425 -7.9693415 -4.1707851
H 2.1946520 -9.1725686 -5.0520964
O 0.0350000 -11.0440031 11.0450031
H -0.6740002 -11.1730031 10.4110029
H 0.0600000 -11.8970033 11.5290032
O 1.7666731 8.9399458 -2.1892670
H 2.0868217 9.3526691 -3.0201872
H 0.8893700 8.6040936 -2.4718080
O 0.0150000 7.6320021 11.1670031
H -0.9190003 7.4600021 11.2370031
H 0.2120001 7.8650022 12.0950034
O -5.3110015 -15.0220042 -1.6750005
H -5.6190016 -14.0870039 -1.7840005
H -4.3420012 -14.9340042 -1.9200005
O -4.0824410 2.9620951 -2.7579147
H -4.3378750 3.3648428 -1.8994780
H -3.9710552 2.0371162 -2.4551080
O -5.7810016 6.2460017 16.3830046
H -5.9470017 6.4520018 17.3130048
H -6.6050018 6.4950018 15.9140045
O 13.2810037 -10.4440029 -1.7990005
H 14.0060039 -11.0530031 -1.5890004
H 12.5760035 -11.1300031 -1.7170005
O 14.2670040 7.0230020 -2.5910007
H 14.7850041 7.1500020 -1.7530005
H 13.3500037 6.8040019 -2.2880006
O -14.5530041 -8.8390025 -6.8440019
H -13.8960039 -9.4220026 -7.3410021
H -14.5370041 -9.2200026 -5.9890017
O -11.0440031 9.3140026 11.1830031
H -10.8320030 9.0340025 10.2630029
H -10.3570029 9.9090028 11.4420032
O 3.4090010 -11.8860033 -7.4740021
H 3.0930009 -11.1060031 -7.0240020
H 3.4600010 -12.4940035 -6.7430019
O 2.0519727 -9.9449034 9.5785390
H 1.3323807 -10.2466936 10.1642720
H 1.7067473 -9.0862728 9.2695653
O 5.1526298 7.2667169 -6.7773536
H 4.7456023 7.4511508 -5.9073119
H 4.3536414 7.1684100 -7.3446566
O 2.8030008 9.1880026 11.3370032
H 3.6540010 8.7800025 11.5150032
H 2.4500007 9.2910026 12.2620034
O -14.2470040 -10.1500028 -4.3180012
H -14.0600039 -11.1130031 -4.0830011
H -13.3650037 -9.7120027 -4.1310012
O -15.6110044 9.9300028 -5.2900015
H -15.3270043 10.2290029 -4.3570012
H -14.7550041 9.4570026 -5.4920015
O -14.6430041 7.0770020 10.7770030
H -15.1190042 6.3810018 11.2910032
H -14.5760041 6.6880019 9.8620028
O 3.6045021 -10.9943366 -3.0156311
H 4.0969699 -10.4542238 -2.3710578
H 3.0970861 -10.2691412 -3.4523621
O 0.6770002 -8.8780025 12.5090035
H 1.5930004 -8.7060024 12.7050036
H 0.7570002 -9.7360027 12.1340034
O 3.3610288 12.7970705 -1.8905945
H 3.9344101 12.0697551 -2.2202819
H 3.7840730 12.9727360 -1.0266068
O 0.0510000 8.9590025 13.5990038
H 0.9530003 9.1110025 13.7460038
H -0.4840001 9.7170027 14.0220039
O -11.8190033 -2.2580006 -11.6470033
H -11.3130032 -1.8410005 -12.3960035
H -12.0570034 -3.0470009 -12.1200034
O -14.3210040 -3.2050009 10.3560029
H -13.5610038 -3.1730009 10.9660031
H -13.9120039 -3.9060011 9.7360027
O 7.6070021 -6.9860020 -12.1660034
H 7.2490020 -7.8740022 -12.1920034
H 7.9310022 -6.9890020 -11.2180031
O 5.8733370 -3.2601801 7.5857188
H 5.4922229 -2.7356240 6.8471803
H 5.0954495 -3.7927619 7.8579255
O 5.1670014 16.0490045 7.2770020
H 5.6440016 16.5010046 7.9590022
H 4.3080012 16.6110046 7.3420021
O -7.6550021 -15.8090044 6.5100018
H -6.9340019 -16.4110046 6.1460017
H -8.1250023 -15.5900044 5.7080016
O -5.7180016 3.4910010 -13.9580039
H -5.5340015 2.7290008 -13.4190038
H -6.4600018 3.0490009 -14.5340041
O -5.9702599 2.7952005 6.6332532
H -6.4829261 3.0130756 7.4430460
H -6.2011385 1.8593692 6.4939968
O 11.4880032 -12.1060034 3.7520011
H 11.8090033 -12.4800035 4.5900013
H 11.7610033 -12.8000036 3.1540009
O 12.1730034 3.7020010 -13.3150037
H 11.3020032 3.8760011 -12.9170036
H 11.9340033 3.9340011 -14.1990040
O 11.5490928 6.0189150 1.6923410
H 12.2290881 5.3435156 1.8860664
H 10.9746334 5.5026784 1.0915802
O -3.3940009 -9.1400026 -14.1780040
H -2.9130008 -8.5620024 -13.6380038
H -4.0980011 -8.5600024 -14.6410041
O -3.4169234 -4.9391699 -0.6883256
H -2.7954891 -5.2471545 -1.3810839
H -4.1670393 -5.5511885 -0.8575657
O -5.2770015 -6.7170019 17.0740048
H -6.0510017 -7.3190020 16.8490047
H -4.9820014 -7.1100020 17.9340050
O -2.5090007 9.6440027 -13.7350038
H -2.5800007 9.5430027 -14.6670041
H -2.6270007 10.6520030 -13.5730038
O -3.7730011 12.0210034 0.2040001
H -2.9660008 11.4660032 0.1700000
H -3.9030011 12.1610034 -0.7580002
O 17.2670048 -6.2800018 1.5500004
H 16.5510046 -5.6420016 1.5700004
H 16.8230047 -7.0980020 1.6770005
O -17.4310049 -2.4460007 4.9520014
H -17.1650048 -3.3950010 4.6550013
H -16.7400047 -2.4070007 5.5620016
O 1.7110318 -6.9671550 -10.0844816
H 1.4823450 -7.8511717 -9.7206415
H 1.2504752 -6.3935178 -9.4417985
O -0.8961364 -5.9300271 5.3877835
H -0.3024173 -6.2868068 4.6961847
H -1.5414979 -6.6719970 5.4176786
O 2.8050008 11.9890034 -11.0020031
H 2.6600007 11.3520032 -10.2760029
H 2.5890007 12.8020036 -10.6130030
O 2.3290007 15.2780043 2.7610008
H 1.8680005 14.8110041 3.4970010
H 1.7620005 16.0670045 2.7160008
O -12.5950035 -4.5360013 -12.7470036
H -13.1010037 -4.8940014 -11.9280033
H -13.1470037 -4.7490013 -13.4420038
O -13.6480038 -1.3910004 4.8870014
H -13.9720039 -2.0160006 5.4800015
H -12.8420036 -1.0100003 5.2930015
O 7.5570021 -5.0600014 -15.6130044
H 6.9850020 -4.4060012 -15.2240043
H 6.8980019 -5.6980016 -15.9830045
O 1.6694060 -5.1897339 6.6503117
H 1.3899475 -4.3224256 6.2902686
H 0.8346184 -5.6742810 6.5413531
O 5.9320017 16.0170045 4.7230013
H 5.5560016 15.9300045 5.6560016
H 5.9270017 16.9830048 4.7090013
O -11.3165315 2.9466488 -7.0153367
H -10.9296766 3.4086288 -7.7919281
H -10.5317514 2.9025350 -6.4321184
O -14.6530041 -0.2880001 8.3190023
H -14.4090040 0.3590001 7.5950021
H -15.1620042 0.2840001 8.8950025
O 4.0969169 -2.5888675 -10.6051434
H 4.7509708 -1.8601488 -10.6971218
H 4.6225940 -3.3533496 -10.9038224
O 4.6303125 0.3090709 8.8492330
H 4.3955100 1.2194257 9.1311894
H 4.2254872 -0.2301096 9.5549506
O 4.4250012 -8.5980024 -10.3310029
H 4.2610012 -7.8110022 -10.8910030
H 5.2650015 -9.1080025 -10.5760030
O 1.0015552 -1.9756834 8.2157372
H 0.8622264 -2.4761025 7.3819820
H 1.5941284 -1.2833959 7.8441201
O 0.4557264 11.9587976 -4.3828462
H 0.4576890 12.3822631 -5.2631289
H -0.4669339 11.6509844 -4.3006736
O -0.6720002 15.5460044 10.7860030
H 0.1620000 15.0540042 10.5560030
H -0.7680002 15.3170043 11.7760033
O -3.4040010 -2.2010006 -16.7250047
H -3.6370010 -2.2340006 -15.8120044
H -2.5390007 -2.6470007 -16.7910047
O -4.2022683 1.1871190 2.8773021
H -4.1746107 2.1506818 2.6817940
H -4.5790101 1.1909636 3.7664669
O -0.2500001 16.6230047 1.3770004
H -1.1300003 17.0220048 1.5520004
H -0.2680001 16.7100047 0.4480001
O 12.4480035 -5.1930015 0.0900000
H 12.3970035 -6.1390017 0.2170001
H 11.8490033 -4.9150014 0.8280002
O -4.9913578 -4.6712280 -4.3747499
H -5.8872552 -4.9068307 -4.6823867
H -5.1861805 -3.8498962 -3.8771395
O -8.8980025 -1.6510005 15.3000043
H -8.6730024 -1.2080003 14.4670040
H -9.5580027 -2.3640007 15.1210042
O -2.1740006 16.9150047 -6.5670018
H -2.5900007 17.4640049 -5.8890016
H -2.3570007 17.4950049 -7.3520021
O 17.4300049 -0.7820002 -4.3570012
H 16.7540047 -0.2330001 -4.8310014
H 18.2570051 -0.5430002 -4.8640014
O 12.7380036 -3.1410009 13.6830038
H 12.1430034 -3.7730011 13.2280037
H 13.4540038 -3.0880009 13.0100036
O -13.0890037 -0.4790001 -4.2080012
H -12.4790035 0.1370000 -4.6740013
H -13.5270038 -0.8840002 -4.9910014
O 2.6155706 -2.6608894 -5.2874828
H 3.4945013 -2.8762545 -5.6673623
H 2.6188124 -3.1854467 -4.4546771
O -1.5810004 -0.6090002 15.1950043
H -0.5700002 -0.7360002 15.0600042
H -1.6670005 -0.2550001 14.3020040
O 3.3130009 14.4290040 -6.0850017
H 3.3180009 15.0780042 -6.7960019
H 2.6360007 13.7900039 -6.4140018
O -17.2580048 0.6430002 4.6940013
H -17.3130048 -0.2610001 4.4270012
H -16.9860048 0.6040002 5.6270016
O 2.8910131 -1.5944892 -8.2051483
H 3.5886381 -1.9831630 -7.6420317
H 3.1790644 -1.9204444 -9.0776225
O -1.7484218 -1.3260715 5.2194145
H -1.4348358 -0.4182356 5.0095215
H -2.4997988 -1.0900496 5.7983559
O -0.0980000 15.9520045 8.1770023
H 0.7750002 15.5650044 8.4000024
H -0.5750002 15.7770044 9.0310025
O 17.6160049 -4.0290011 7.7500022
H 17.5400049 -3.2940009 8.4490024
H 17.4600049 -4.8100013 8.2780023
O -13.8010039 -1.0060003 -1.5750004
H -14.6110041 -0.4600001 -1.5780004
H -13.3990037 -0.7980002 -2.4230007
O 0.2662551 -4.6035406 -1.3174101
H -0.4152976 -5.1408934 -1.7755255
H -0.2504139 -3.8375417 -1.0195809
O 0.8350002 -1.4380004 14.5470041
H 1.2820004 -0.8150002 13.9080039
H 1.4770004 -1.3290004 15.2500043
O 0.5640002 16.0110045 -4.7950013
H 0.5120001 15.1770042 -5.2630015
H 1.1920003 15.9160045 -4.0210011
O -5.5250015 -4.4190012 -15.7350044
H -6.3240018 -3.9870011 -15.3920043
H -4.8450014 -3.9740011 -15.1890043
O -11.2556797 -0.3406887 5.7018808
H -10.9966176 0.4552152 6.2186984
H -10.9368525 -0.0325252 4.8261096
O -2.5020007 14.9500042 -9.7500027
H -2.4200007 15.8820044 -10.1460028
H -3.3070009 15.1570042 -9.1430026
O -4.7840013 15.3660043 3.1330009
H -5.4260015 14.7330041 2.7940008
H -4.1390012 15.3130043 2.3490007
O 11.2806999 -4.2031168 2.3116344
H 11.4202318 -3.2501245 2.4782829
H 10.6651085 -4.4383789 3.0406075
O 13.5450038 13.6440038 3.4620010
H 14.2580040 12.9990036 3.8480011
H 13.1830037 13.9230039 4.3860012
O 0.2535824 -5.5163079 -8.2823066
H 0.1767225 -4.5969056 -7.9671187
H -0.5235140 -5.6138020 -8.8662308
O -5.0508127 -4.0306567 9.7084660
H -4.1975416 -4.2982153 10.1207634
H -4.8823398 -4.2547914 8.7725010
O -0.1550000 13.3830037 -9.5350027
H -0.9360003 14.0040039 -9.5800027
H 0.6530002 13.8660039 -9.8440028
O -0.7620002 12.2300034 7.6840022
H -1.1640003 12.8800036 7.0030020
H 0.0660000 12.7570036 7.9630022
O 15.1710042 -4.3760012 6.2870018
H 15.9690045 -3.9480011 6.5310018
H 14.5120041 -3.9430011 6.8450019
O -8.5983319 -6.7992805 -0.6700474
H -8.1283737 -7.6474654 -0.7166776
H -9.3750004 -6.9509427 -1.2481588
O -9.2370026 12.7670036 -2.6620007
H -10.0120028 12.6300035 -3.2230009
H -9.6350027 13.1240037 -1.9180005
O 10.3743622 -6.2445845 -2.3013563
H 10.0599995 -5.6597236 -1.5697649
H 10.8831175 -5.6203454 -2.8453881
O 6.9150019 -2.8570008 16.1870045
H 6.7520019 -3.4000010 16.9180047
H 7.8480022 -2.7380008 16.2890046
O 9.3280026 13.4410038 -3.1740009
H 9.6050027 14.1780040 -3.7570011
H 8.6210024 13.8190039 -2.5750007
O -7.4799461 -5.2228015 -5.5840977
H -7.3585738 -4.3539599 -6.0390996
H -7.2927981 -5.7785793 -6.3726920
O -7.5265208 -4.2132599 10.8600853
H -6.7027519 -4.1400977 10.3316394
H -8.1466154 -3.6392642 10.3890093
O -5.9540017 16.3770046 -5.7620016
H -6.0190017 17.1600048 -5.2000015
H -6.5090018 16.6240047 -6.5460018
O 10.1030028 -5.8530016 -7.5080021
H 10.9850031 -6.3800018 -7.5780021
H 10.1960029 -5.3020015 -8.3040023
O 12.4440035 -3.8350011 10.2750029
H 11.9740034 -3.0480009 9.8280028
H 11.7670033 -4.4940013 10.2160029
O 9.7250027 15.3230043 -5.1600014
H 10.3230029 14.8590042 -5.7220016
H 9.2020026 15.7920044 -5.8510016
O -17.6530049 -0.9360003 -1.0040003
H -18.6760052 -0.8670002 -1.0980003
H -17.5280049 -0.5510002 -0.1360000
O 2.3890007 -18.2730051 -0.9480003
H 2.1690006 -17.3260048 -1.3030004
H 2.4110007 -18.1830051 0.0730000
O 2.9410008 -0.5280001 -15.8100044
H 3.7040010 -0.8090002 -16.2980046
H 3.3140009 -0.4650001 -14.8740042
O 4.0099918 -2.9385213 2.9367823
H 4.2425739 -3.1217404 2.0038964
H 3.3333482 -2.2451993 2.7826506
O -0.3900001 -2.0270006 18.6680052
H -0.0300000 -1.2580004 18.1970051
H -0.0220000 -2.7890008 18.2050051
O 2.1300006 18.8340053 0.1270000
H 2.4510007 19.4190054 -0.5660002
H 2.1160006 17.9840050 -0.3110001
O 18.1510051 -1.2260003 3.3700009
H 18.4080052 -1.8380005 2.6110007
H 18.0860051 -1.9480005 4.0470011
O 1.3660004 -4.8160013 -17.7050050
H 0.6050002 -5.2830015 -18.1710051
H 1.7560005 -5.5650016 -17.1920048
O -2.1625189 -2.7437493 -3.6634875
H -2.7829944 -2.4116965 -4.3526956
H -2.7373186 -2.6889693 -2.8758262
O -2.6140007 -5.4430015 16.6760047
H -3.4940010 -5.7160016 17.0050048
H -2.8130008 -4.4600012 16.3510046
O -1.4400004 15.6000044 -1.4120004
H -2.3410007 15.3370043 -1.7520005
H -0.9260003 14.7790041 -1.5190004
O 16.0680045 -4.1350012 -1.6470005
H 16.7230047 -4.7930013 -1.9660006
H 16.5920046 -3.2920009 -1.7140005
O -6.0321031 -2.4696055 -2.9174457
H -6.9369839 -2.7971382 -2.7451867
H -6.2120812 -1.5353150 -3.1561406
O -7.8800022 -1.1860003 12.7690036
H -8.0720023 -1.6440005 11.9560033
H -7.0140020 -0.6690002 12.6070035
O -4.7340013 17.5420049 -2.4170007
H -5.4110015 18.1370051 -2.7590008
H -4.0650011 18.2100051 -2.2900006
O 12.1770034 -2.4110007 -3.3700009
H 12.2830034 -3.3220009 -3.5960010
H 12.3000034 -2.4570007 -2.3600007
O -17.3010048 0.4350001 -4.8700014
H -17.7980050 -0.3010001 -4.4690013
H -17.2360048 0.0490000 -5.7610016
O -0.5741470 -4.5414787 -4.8776058
H -0.2036868 -4.0560977 -5.6410248
H -1.0799994 -3.8170593 -4.4412664
O -4.9220014 -2.7900008 15.6770044
H -3.9140011 -2.8990008 15.6080044
H -5.1920015 -2.9000008 14.7340041
O 0.6960002 13.5120038 -6.8050019
H -0.1360000 13.9920039 -6.7370019
H 0.8070002 13.6400038 -7.7720022
O 14.8240041 -3.5160010 11.1820031
H 15.2270043 -2.8360008 10.6400030
H 13.8940039 -3.5850010 10.8680030
O -17.5800049 -4.0380011 0.4240001
H -17.5020049 -3.1310009 0.3910001
H -18.4780052 -4.2710012 0.1560000
O 2.5240007 -5.3990015 -14.3900040
H 2.5640007 -5.8310016 -13.5260038
H 2.4930007 -6.1180017 -15.0570042
O 6.1133270 -8.2164013 0.1223481
H 5.2792969 -8.2951572 -0.3970524
H 6.2627789 -7.2451181 0.0612569
O 7.1090020 16.1620045 0.6600002
H 7.9640022 15.7490044 1.0420003
H 6.4380018 15.7850044 1.2470003
O -16.8870047 -0.7860002 -7.1630020
H -17.1720048 -1.7110005 -7.0890020
H -17.2710048 -0.5910002 -8.0390022
O -2.1626513 -2.4252873 -7.6455137
H -2.1984900 -2.7469745 -8.5735829
H -1.2226122 -2.6176227 -7.4338647
O -5.3179544 -1.3266951 10.0871565
H -6.2572891 -1.1791503 9.8663935
H -5.2492723 -2.3012257 10.0418592
O 15.3670043 -1.8230005 -9.8670028
H 14.6530041 -2.4120007 -9.6100027
H 15.8600044 -2.3360007 -10.4330029
O 13.8450039 -2.2550006 7.3320021
H 12.9310036 -2.2880006 7.6180021
H 14.0480039 -1.4620004 6.9320019
O -11.3280032 -9.1880026 -9.5670027
H -10.7050030 -8.9270025 -10.2730029
H -10.9710031 -10.0310028 -9.2530026
O -11.9760034 -8.6760024 8.4280024
H -12.2530034 -8.6880024 9.3390026
H -11.1400031 -8.1420023 8.4750024
O -12.5660035 9.3310026 -10.7020030
H -11.9880034 10.1110028 -10.7160030
H -11.9990034 8.6250024 -11.0080031
O -12.3210034 10.1150028 6.5980018
H -11.8380033 10.6630030 7.2940020
H -13.1450037 9.9330028 7.0510020
O 4.7011237 -9.2934085 6.9313827
H 4.4206922 -8.3963717 6.6302070
H 5.1721296 -9.0763148 7.7664356
O 6.0667496 8.8553559 -11.0309215
H 5.9672677 8.9999421 -10.0705242
H 6.3281987 9.7464064 -11.3215114
O 6.7760019 7.8680022 9.4080026
H 7.2050020 8.6830024 9.1750026
H 7.3580021 7.3200020 8.8640025
O -6.5394102 1.0227143 -12.6465156
H -7.3408884 0.4739335 -12.7058167
H -6.0819814 0.6078554 -11.9028056
O -7.8950022 7.3520021 10.5790030
H -7.1600020 7.8060022 10.1000028
H -8.3030023 6.8790019 9.8110027
O 10.8420030 -14.6440041 5.7740016
H 10.0450028 -14.6990041 6.2830018
H 10.6220030 -15.0420042 4.9170014
O 12.8790036 2.1070006 5.5830016
H 13.0910037 2.0090006 6.5370018
H 11.8810033 2.1100006 5.4890015
O -0.5650002 -3.3180009 -16.2490045
H 0.3230001 -3.5310010 -16.5020046
H -0.5250001 -2.3740007 -16.0220045
O -1.9772713 -5.4985407 1.6365293
H -2.6054235 -5.2433965 0.9269950
H -2.3276210 -5.0089559 2.4010075
O -3.3790009 0.3310001 17.0170048
H -3.3590009 -0.3490001 17.6640049
H -2.7730008 -0.1810001 16.4340046
O -1.0110003 17.9290050 -3.3620009
H -0.5150001 17.3120048 -3.9410011
H -1.4410004 17.3130048 -2.7340008
O -6.3689076 -7.6018902 -3.9244677
H -6.7170960 -8.5067774 -4.1176582
H -7.0486011 -7.0682344 -4.3576013
O -5.5560016 -4.1340012 12.9760036
H -6.1940017 -4.4080012 12.3060034
H -4.8510014 -4.7830013 12.7710036
O -2.2739545 10.8993639 -4.1293769
H -2.1937009 10.8850403 -5.1041239
H -2.5615056 9.9876090 -3.9219692
O 12.1690034 -4.9550014 -4.6280013
H 12.8990036 -5.2750015 -4.0230011
H 12.2470034 -5.5590016 -5.4110015
O 10.5240029 -4.7060013 13.0740037
H 10.1480028 -3.8550011 12.7050036
H 9.7100027 -5.2650015 12.9190036
O 12.6400035 11.5500032 -3.3930009
H 13.6250038 11.4220032 -3.2070009
H 12.4510035 10.6350030 -3.6160010
O 10.8630030 7.1210020 14.6950041
H 10.4390029 7.0680020 13.7410038
H 10.4250029 6.3240018 15.0410042
O -1.5830004 -5.7960016 -15.1960043
H -2.2730006 -6.1040017 -15.8330044
H -1.3250004 -4.9150014 -15.6030044
O -6.7898586 -2.8591100 4.4010786
H -6.9123536 -2.7516849 5.3647814
H -7.1742181 -2.0121972 4.0844442
O -6.7260019 -4.3980012 17.1410048
H -6.2300017 -5.2080015 16.8280047
H -6.1550017 -3.7310010 16.8450047
O 1.9780006 16.4530046 -1.3700004
H 1.8170005 15.6310044 -0.9220003
H 2.4860007 16.1430045 -2.1250006
O 17.8070050 -2.9750008 1.2190003
H 17.4540049 -2.9810008 0.3430001
H 18.7650053 -3.1210009 1.0210003
O -0.7520002 -17.1290048 -5.9010017
H -1.4950004 -17.3320049 -6.5000018
H -0.0140000 -17.2430048 -6.5950018
O 1.0279631 0.3255232 -7.3899064
H 1.6536430 -0.3274845 -7.7804931
H 1.5016237 0.5338797 -6.5663748
O -1.5336498 0.2956960 12.5580741
H -2.0843582 0.1357617 11.7544891
H -1.8834263 1.1835031 12.8015692
O -10.2234780 0.9221243 3.4901786
H -10.8992762 0.8810335 2.7807297
H -10.0292565 1.8748990 3.5259037
O 6.2440017 -16.7970047 3.7920011
H 5.3940015 -17.1920048 3.6970010
H 6.1110017 -16.2740046 4.6550013
O 4.5340013 2.9500008 -16.7930047
H 3.6180010 3.1260009 -16.8280047
H 4.7160013 2.3500007 -17.4890049
O 5.8235423 4.1378689 1.0069088
H 6.4211893 4.2790725 0.2455683
H 5.4323687 3.2559526 0.8092298
O 1.6280005 1.9530005 19.1370054
H 1.3400004 1.3040004 18.5300052
H 0.9000003 2.6290007 18.8830053
O -15.1260042 -4.4050012 -7.2470020
H -15.9240045 -3.7480010 -7.2500020
H -15.1430042 -4.8930014 -6.3530018
O 5.6300016 -8.5420024 -6.2630018
H 5.3050015 -7.8600022 -6.8680019
H 4.9570014 -9.2040026 -6.3070018
O 2.2050754 -4.8576146 12.7229264
H 2.1460301 -5.2895238 11.8461957
H 2.9837875 -4.2876574 12.5647516
O 4.2453246 11.2089586 -6.5131741
H 3.7364630 11.1283640 -7.3424997
H 5.1068263 10.8760641 -6.8182759
O -16.1750045 3.9660011 5.9950017
H -15.8320044 3.1400009 6.2200017
H -17.1540048 4.0380011 6.0730017
O -0.6140002 -13.8930039 -11.4460032
H -0.2170001 -14.2860040 -10.6680030
H -1.0360003 -14.7140041 -11.7060033
O -0.6770002 -18.7140052 6.2110017
H 0.1540000 -18.4190052 6.4800018
H -0.8660002 -18.2750051 5.3740015
O 4.8350014 -0.9180003 -13.6690038
H 5.0680014 -0.9600003 -12.7890036
H 5.3490015 -0.1410000 -14.0230039
O -0.9927235 1.3312266 4.9011419
H -0.0087358 1.2307865 4.9124026
H -1.0837567 2.0406328 4.2331749
O 3.4610010 19.3370054 2.4380007
H 2.9510008 18.9450053 1.6390005
H 4.3590012 18.9500053 2.3870007
O -14.2500040 -1.4810004 -6.4920018
H -14.9420042 -0.9020003 -6.8740019
H -13.9180039 -2.0430006 -7.2300020
O -11.4710032 12.6340035 -4.9380014
H -10.9130031 13.2590037 -5.3840015
H -11.4940032 11.9060033 -5.5980016
O 5.6156580 -2.6166959 -2.2039304
H 6.0214295 -3.1676734 -2.9111176
H 6.4161161 -2.1915489 -1.8392468
O 4.3876404 -3.2868021 11.6568856
H 3.8404219 -2.5975278 11.2266426
H 5.2226637 -3.1747187 11.1638975
O 2.9740008 16.3710046 -8.1520023
H 2.1730006 16.9750048 -8.3040023
H 3.5980010 17.0310048 -8.5090024
O -0.5720002 -16.6810047 1.4560004
H 0.3030001 -17.1390048 1.4520004
H -1.0050003 -17.1690048 0.7060002
O -5.4304816 0.1131379 0.6573730
H -5.6145344 -0.8338851 0.8394627
H -5.1082069 0.4287466 1.5291505
O 13.6800038 1.4760004 2.9460008
H 14.5200041 1.3490004 3.3760009
H 13.1030037 1.6930005 3.7180010
O -14.9700042 1.3950004 -7.9430022
H -15.5410043 1.8840005 -8.5920024
H -15.4350043 1.5840004 -7.1340020
O 1.1780003 -14.3580040 -4.9820014
H 1.9080005 -13.8760039 -4.5220013
H 1.6190005 -15.2060043 -5.0350014
O 4.6911175 1.7528627 -5.7532727
H 4.7174079 2.3103772 -4.9511151
H 3.9853949 1.1190709 -5.4962313
O -2.8250008 2.6630007 13.0670037
H -3.5140010 2.4270007 13.7290038
H -3.3230009 3.3510009 12.6010035
O -6.0430017 -1.3960004 -14.1140040
H -6.0240017 -1.3880004 -13.1380037
H -5.8450016 -0.4420001 -14.3150040
O -10.1370028 0.5840002 10.0780028
H -10.8720030 0.0570000 9.6680027
H -10.5720030 1.4480004 9.9420028
O 12.6370035 0.8320002 -13.5610038
H 12.3670035 1.6860005 -13.1910037
H 12.8850036 0.2780001 -12.7700036
O 8.8751802 -0.4549061 5.4167343
H 8.1417508 -0.2120564 6.0290046
H 9.0788552 0.4079231 4.9998530
O 1.8103028 -1.6046884 -11.7091942
H 1.7154354 -1.9574013 -12.6195697
H 2.6282426 -2.0543695 -11.4048691
O -1.8158024 -1.7065478 8.3923134
H -1.9884033 -2.6139919 8.0462234
H -0.8415602 -1.6751859 8.3487662
O -3.9920011 15.1030042 8.9760025
H -4.8330014 14.6470041 8.8050025
H -3.4640010 14.2790040 9.0930025
O 16.2790046 0.5810002 4.1550012
H 16.8490047 -0.1870001 4.0630011
H 16.7780047 1.2380003 3.6600010
O -12.2330034 5.8710016 -12.3480035
H -11.6360033 5.0890014 -12.3900035
H -12.0540034 6.3000018 -11.5180032
O -14.6460041 10.6040030 4.3230012
H -15.2150043 10.8920030 3.5380010
H -14.9710042 11.1730031 5.0250014
O 3.4240010 -12.8380036 -13.2910037
H 3.8360011 -11.9680033 -13.5290038
H 3.1520009 -12.6540035 -12.3640035
O 1.1700003 -16.1410045 6.3610018
H 0.3060001 -15.7400044 6.0950017
H 0.8410002 -16.5740046 7.2200020
O 3.2721001 2.9640697 -12.7266554
H 2.8159590 2.2371371 -12.2494505
H 4.1872323 2.7950323 -12.4321698
O 1.2402658 4.9969445 5.1084564
H 1.1653074 5.2093199 4.1600033
H 0.3265095 5.1999926 5.4011026
O 18.9190053 1.3450004 2.7960008
H 18.5880052 0.5060001 3.1380009
H 19.4080054 1.1390003 2.0280006
O -11.2510031 -1.8240005 -7.0430020
H -11.5870032 -2.5470007 -7.6080021
H -11.3390032 -0.9440003 -7.5190021
O -11.9940034 -3.2150009 12.6320035
H -11.6630033 -3.6260010 13.5390038
H -12.6100035 -2.5090007 12.9330036
O -9.5260027 14.5750041 -5.4300015
H -9.3330026 15.3360043 -4.8460014
H -9.2890026 15.1210042 -6.2060017
O 10.0230028 -2.4520007 -7.5720021
H 10.2910029 -3.0280008 -8.3040023
H 10.5580030 -1.6290005 -7.7030022
O 7.6630021 -0.7490002 11.8860033
H 7.4320021 -1.3310004 11.1830031
H 6.7700019 -0.6330002 12.3780035
O -8.6940024 -0.9460003 -13.0360036
H -8.5800024 -1.7190005 -13.6520038
H -9.5110027 -0.5070001 -13.4220038
O -9.2967848 5.5914908 8.8239379
H -9.9488671 4.8579663 8.8652198
H -9.4973184 5.9633086 7.9470119
O 9.9750028 -15.7950044 3.2190009
H 9.5520027 -16.6400047 3.0560009
H 9.3040026 -15.2240043 2.8940008
O 10.1600028 1.6750005 -11.6550033
H 9.2650026 2.0010006 -11.9770034
H 10.2650029 0.7650002 -12.1790034
O 9.1168206 7.0562307 2.9171779
H 8.6376092 7.2182112 2.0784175
H 10.0176766 6.8537911 2.5905836
O -12.3840035 -12.3370035 -3.5350010
H -12.0670034 -12.9850036 -2.9040008
H -13.3080037 -12.8110036 -3.4830010
O -9.2625160 5.5072165 -6.1727631
H -9.1806850 4.5465373 -5.9804412
H -8.7517441 5.5752369 -7.0071164
O -13.9110039 3.9780011 12.1700034
H -13.8440039 3.3780009 12.9340036
H -14.8240041 4.2540012 12.1490034
O 8.0550023 -15.4260043 -5.0740014
H 7.2670020 -15.1690042 -4.5250013
H 7.6290021 -15.5270043 -5.9350017
O 8.3561909 7.1416804 -4.4716944
H 8.8518014 6.5034881 -3.9104608
H 8.0907990 6.5515989 -5.2036507
O 7.3280021 5.6620016 13.3570037
H 8.1830023 5.7730016 12.8460036
H 7.4210021 4.7990013 13.8110039
O -15.2290043 -12.5620035 2.1650006
H -14.3700040 -12.8650036 2.5610007
H -15.5400043 -11.8540033 2.7220008
O -12.3816337 0.3460568 1.7130553
H -13.2581649 0.4341949 2.1433659
H -12.3853450 -0.5991469 1.4604780
O 6.1580017 -17.4430049 0.7700002
H 6.0520017 -16.9440047 -0.0270000
H 5.7690016 -18.2550051 0.5710002
O 5.6228010 -0.8218873 0.8468725
H 5.0149646 -1.5656540 0.6660985
H 6.3325732 -0.9996123 0.2017819
O -3.5310010 2.3260007 18.9870053
H -3.5340010 1.7450005 18.1130051
H -4.4610012 2.1330006 19.1840054
O -18.0120050 4.9980014 -0.8700002
H -17.1890048 4.9210014 -1.4510004
H -17.8310050 5.9040017 -0.4810001
O -0.7020002 -15.9480045 -3.4170010
H -0.3280001 -15.2040043 -3.8870011
H -1.0260003 -16.4980046 -4.1420012
O -0.6510002 5.7120016 -17.9450050
H -0.8290002 6.1470017 -17.0860048
H -1.5210004 5.8240016 -18.2750051
O 0.6028666 5.8777966 -1.7300922
H -0.0176752 5.5863902 -1.0280373
H 0.1079951 6.6355628 -2.1084683
O -0.9320003 3.1660009 18.5590052
H -1.1990003 3.7740011 17.8970050
H -1.7000005 2.6190007 18.6220052
O 14.4080040 2.2360006 -2.3870007
H 14.4040040 1.3890004 -1.8580005
H 13.7480038 2.8710008 -2.0000006
O 12.0960034 4.2730012 14.1200040
H 12.8830036 4.8190013 14.2540040
H 11.3160032 4.7170013 14.5650041
O -4.5080328 3.3020247 -8.1759020
H -4.1169717 2.9884633 -7.3277353
H -4.4306755 2.4422072 -8.6589262
O -6.1110017 0.7540002 12.7640036
H -6.7210019 1.5580004 12.7370036
H -5.4660015 0.9900003 13.4390038
O 12.1580034 -0.5230001 -8.3250023
H 12.7650036 0.0570000 -7.7830022
H 11.6440033 0.2290001 -8.6380024
O 9.9930028 0.5320001 9.6150027
H 9.0020025 0.5370002 9.5700027
H 10.1960029 1.1810003 10.3220029
O -3.5270010 -15.4840043 -4.3260012
H -4.4260012 -15.0780042 -4.2400012
H -3.0370008 -14.7480041 -4.6760013
O -1.6786178 2.2453474 -0.1197687
H -2.3291245 1.7445665 -0.6458348
H -1.5005836 1.5896528 0.5803052
O 0.5330001 2.1110006 15.0860042
H 1.1340003 2.0040006 14.3240040
H -0.1240000 2.7900008 14.7510041
O 16.0470045 2.8360008 -4.6070013
H 15.4890043 2.6630007 -3.7780011
H 16.0120045 1.8850005 -5.0290014
O -17.1730048 8.2340023 4.0720011
H -17.0830048 8.2160023 5.0830014
H -16.6610047 7.4640021 3.9020011
O 0.1730000 -10.6150030 -13.2690037
H 0.8270002 -10.0750028 -12.8660036
H -0.5750002 -10.5040029 -12.5230035
O -0.5767449 -11.3433332 5.7842549
H -0.0928500 -11.8380149 5.0997767
H -0.4902385 -11.9552450 6.5387697
O 0.2607260 6.2165870 -13.2998468
H 1.1726106 5.9224265 -13.0921140
H 0.3743063 7.1926906 -13.2931592
O -2.4328425 7.8801713 4.8191550
H -2.4548505 8.7151426 5.3257022
H -1.8265927 8.0984219 4.0815825
O -2.6001757 -10.6753238 -2.3984982
H -3.2533857 -10.6240248 -1.6631803
H -1.9125984 -10.0707828 -2.0475049
O -8.3480023 -9.0120025 13.4690038
H -8.0380022 -9.9170028 13.6630038
H -8.3550023 -8.8790025 12.4720035
O -0.6392910 7.9035977 -3.0798715
H -0.5095512 7.8627677 -4.0538008
H -1.5936955 8.1192903 -3.0346303
O -2.7680008 8.6140024 13.8640039
H -2.3270007 8.3740023 14.6720041
H -2.1430006 9.2530026 13.5890038
O 11.7250033 -9.1760026 -6.4400018
H 11.4530032 -9.0900025 -5.4770015
H 12.0870034 -10.1140028 -6.3890018
O 16.7530047 7.9590022 -3.4810010
H 17.1170048 7.0770020 -3.1870009
H 15.7900044 7.6120021 -3.3390009
O 9.5980027 4.9270014 15.4950043
H 8.6650024 4.7290013 15.3320043
H 9.5500027 5.0250014 16.4620046
O -13.9880039 5.6310016 1.9490005
H -13.7670039 6.0490017 1.0430003
H -14.2560040 4.7650013 1.7790005
O 3.8260011 -13.9840039 3.3100009
H 4.3010012 -14.4810041 2.6340007
H 3.5660010 -14.7580041 3.8680011
O 1.9910006 4.0360011 -15.0200042
H 2.3340007 3.6180010 -14.2200040
H 2.5240007 4.8580014 -15.0180042
O -1.2310085 3.6834305 3.4160965
H -0.4861203 4.1211132 2.9682469
H -1.3281260 4.2623070 4.2041444
O -13.6280038 3.8050011 -5.6880016
H -13.0410036 3.5950010 -6.4430018
H -14.5150041 3.6620010 -6.1430017
O -15.7790044 2.1920006 9.2170026
H -16.3500046 2.5960007 9.9080028
H -16.4730046 1.8460005 8.5420024
O 4.6620013 -15.8140044 -5.9060017
H 3.9260011 -16.3930046 -5.6440016
H 4.6700013 -15.0780042 -5.2240015
O 4.8160013 -13.5550038 8.1700023
H 5.1050014 -12.8590036 7.5570021
H 3.9010011 -13.1700037 8.3720023
O 5.3651614 3.7126515 -7.5402924
H 4.6530999 3.4146286 -8.1415540
H 5.2454966 3.0429953 -6.8352646
O 3.8585035 2.9577824 9.2778092
H 4.6021652 3.5745820 9.1293211
H 3.1962426 3.2994481 8.6397702
O -9.9100028 8.3690023 -11.7480033
H -10.5100029 8.8210025 -12.2890034
H -9.0760025 8.8580025 -11.9710034
O -12.4860035 10.9560031 2.8690008
H -12.6410035 10.3110029 2.1880006
H -13.2630037 10.9860031 3.4070010
O 1.4784103 -12.6254824 4.3459402
H 1.9181643 -11.8962873 4.8329294
H 2.2509835 -13.1399171 4.0478456
O 2.8003011 5.6368838 -12.3246232
H 3.7645456 5.8380106 -12.3726667
H 2.8755746 4.6615833 -12.3920909
O 4.0946014 9.4896079 4.8467772
H 4.6061721 9.4052029 5.6800793
H 3.1907949 9.3928747 5.2128801
O -8.5900024 -13.7090038 -4.1450012
H -8.7930025 -14.4100040 -3.4720010
H -8.8920025 -12.9170036 -3.7590011
O -8.5070024 9.3220026 -5.3120015
H -8.4910024 8.4690024 -4.8180013
H -7.5590021 9.3650026 -5.5630016
O -11.2390031 11.4530032 8.5570024
H -10.3610029 11.3530032 8.7840025
H -11.6200033 11.4490032 9.4080026
O 8.3870023 -13.8100039 -8.8040025
H 8.3470023 -13.3350037 -7.9140022
H 7.4170021 -13.9130039 -8.8390025
O 5.7640016 -7.7810022 13.9260039
H 6.3880018 -8.0210022 13.2950037
H 6.0700017 -6.8940019 14.2700040
O 9.9460028 7.9440022 -8.0430023
H 10.4100029 8.2360023 -8.7970025
H 9.6950027 8.7650025 -7.5970021
O 7.5950021 9.5270027 11.4730032
H 8.4920024 9.1400026 11.2070031
H 7.0330020 8.8480025 11.0970031
O -5.1327334 -4.7314021 -12.1040125
H -6.0516633 -4.3977893 -12.1744183
H -5.0030423 -4.7170928 -11.1313677
O -6.1915906 -7.1046638 6.6382695
H -6.0400704 -7.6381638 7.4393124
H -6.7958524 -7.7263643 6.1773954
O -0.8640002 11.3890032 -11.3040032
H -0.6370002 12.1010034 -10.7090030
H -0.7510002 10.5740030 -10.7490030
O -3.8320011 13.5570038 6.6310019
H -3.3480009 13.4620038 5.7560016
H -3.4510010 14.4090040 6.9800020
O 11.5400032 -3.7070010 -12.6990036
H 10.6040030 -3.9610011 -12.9290036
H 11.8450033 -4.5940013 -12.5620035
O 11.5890032 -6.0850017 7.1840020
H 11.2780032 -6.8000019 6.6080018
H 12.5230035 -6.4300018 7.4250021
O 8.2550023 9.9150028 -13.4280038
H 8.4780024 10.5770030 -14.1100039
H 7.8210022 10.4450029 -12.7210036
O -11.2920032 -13.7810039 -1.4470004
H -10.7430030 -13.9600039 -0.6600002
H -10.9410031 -14.5080041 -2.0360006
O -10.8620153 4.2359866 -3.2370433
H -10.1118992 3.7084886 -2.8824934
H -11.5414337 3.5473371 -3.3612119
O 3.7790011 -16.0220045 -2.8370008
H 4.4970013 -16.6150047 -2.7730008
H 3.2210009 -16.4950046 -3.5420010
O 4.4920013 -13.5820038 12.4550035
H 4.6770013 -14.5510041 12.4000035
H 5.3490015 -13.1360037 12.2210034
O 7.9022466 0.5023809 -4.8644457
H 7.3241183 0.8862931 -4.1710127
H 8.1678263 1.3215204 -5.3336851
O 2.8466845 -1.3764698 10.3408736
H 2.2855419 -1.7490670 9.6391468
H 2.2015728 -0.7766226 10.7763357
O -6.0810017 -11.3940032 -14.3630040
H -5.6080016 -12.1820034 -14.0670039
H -6.1250017 -10.8960030 -13.5330038
O -5.9500017 -12.5750035 2.4990007
H -5.1240014 -12.4470035 2.9780008
H -5.6210016 -12.7070036 1.6270005
O -6.0771316 5.7998470 -12.4452705
H -5.7605140 5.1893898 -11.7460585
H -6.1890247 5.1353164 -13.1530358
O -8.1298144 7.9667568 2.2184491
H -8.0919150 8.2240970 1.2715913
H -8.8424261 8.5758965 2.5303088
O 10.0330028 -9.8010027 2.7220008
H 10.5860030 -10.4510029 3.2050009
H 10.7630030 -9.3260026 2.2040006
O 12.3600035 8.6370024 2.1880006
H 13.0810037 8.3910023 2.7880008
H 12.3030034 7.7080022 1.8180005
O -14.6590041 5.0770014 -9.7970027
H -15.0810042 5.3540015 -10.6530030
H -14.3980040 4.1800012 -10.1200028
O -3.3740009 -13.1960037 7.5540021
H -3.8080011 -12.3560035 7.7590022
H -4.0980011 -13.7130038 7.1560020
O -0.1040068 1.4529642 -9.7746405
H 0.2606501 1.1618465 -8.9147336
H -0.2078965 2.4205474 -9.6481715
O 0.0718731 7.7276737 6.9846378
H 0.2831212 6.9586608 7.5398231
H -0.8041115 7.9453799 7.3764282
O -3.1600009 -15.7620044 -7.2070020
H -2.7870008 -16.6180047 -7.5130021
H -3.5760010 -16.1660045 -6.4320018
O -2.6140007 -15.4080043 9.1790026
H -2.6600007 -15.0780042 10.0460028
H -2.6750007 -14.5120041 8.7740025
O 1.1858651 5.3089654 -6.1029981
H 0.8312771 4.4264299 -5.9244356
H 1.5933828 5.1517126 -6.9837297
O -2.1370006 4.3900012 15.9180045
H -3.0390009 4.1240012 15.6300044
H -1.9080005 5.0710014 15.2760043
O 16.2560045 5.2620015 -5.6980016
H 15.7270044 4.6150013 -5.1550014
H 17.0300048 4.6200013 -5.8070016
O 15.3040043 5.2850015 9.3830026
H 15.9800045 4.6950013 8.9500025
H 14.9580042 4.5410013 9.8260028
O -5.2650015 -17.5070049 -6.0490017
H -5.9320017 -17.0750048 -6.5540018
H -5.6990016 -17.3060048 -5.1950015
O -5.3565113 0.5144970 -5.8621845
H -5.7338594 0.5461394 -4.9555510
H -4.7091508 1.2466579 -5.8375362
O -7.7280022 2.7990008 13.5460038
H -8.6610024 3.0640009 13.6810038
H -7.3980021 2.6710007 14.4500040
O 13.2130037 1.2870004 -6.6200019
H 12.7800036 0.7990002 -5.8370016
H 12.9760036 2.1930006 -6.3990018
O 9.2330026 1.6670005 12.3760035
H 8.8520025 0.9170003 12.0270034
H 8.4260024 2.2380006 12.3440035
O 3.7364881 -6.3067543 -11.8330426
H 4.3804815 -5.5756331 -11.7628170
H 3.1089550 -6.1418765 -11.1026017
O 0.8210475 -5.1391057 1.3078545
H -0.0977135 -5.3968168 1.5184957
H 0.7741291 -5.0730550 0.3318485
O 3.4850010 12.0140034 3.8290011
H 2.5430007 12.2110034 3.9410011
H 3.5940010 11.0880031 4.1260012
O 18.4580052 -5.9760017 4.1250012
H 17.7280050 -6.4310018 4.5680013
H 18.0960051 -6.0240017 3.2450009
O -12.6760035 -6.2990018 -4.8780014
H -12.6070035 -5.3350015 -4.6060013
H -13.5020038 -6.4650018 -4.4100012
O 2.4377133 -4.1441010 -2.9786825
H 3.2128850 -4.5013321 -2.4871409
H 1.7331632 -4.2281054 -2.3030495
O 0.7920002 -5.0050014 15.0740042
H 1.2700004 -4.8510014 14.2040040
H 0.8580002 -5.9960017 15.0940042
O 5.2034587 10.7914252 -2.2724209
H 5.7698823 10.7233138 -1.4765303
H 5.7247977 10.2777776 -2.9225665
O 3.1070009 13.0990037 13.7850039
H 3.8380011 13.0890037 14.3960040
H 2.9160008 14.0590039 13.8710039
O -16.2080045 3.6790010 -6.5310018
H -16.6130046 3.6240010 -7.4440021
H -16.9370047 3.7800011 -5.9110017
O 0.1943673 -11.3192369 -4.2261235
H -0.5518052 -11.9134437 -4.4135492
H -0.2049814 -10.4357224 -4.3367303
O -2.7420008 -13.7770039 11.6760033
H -3.0430009 -13.6220038 12.5290035
H -1.7960005 -13.7920039 11.8560033
O 4.2035977 7.9077089 -4.2721550
H 3.6032304 7.1763871 -3.9983287
H 3.5794347 8.6650249 -4.3040736
O 0.2844612 5.8551292 9.0644686
H -0.4564702 5.2121739 9.1519528
H 0.1058030 6.4289430 9.8435552
O -16.8740047 -2.8900008 -3.5400010
H -16.6110046 -2.9760008 -4.5020013
H -17.4800049 -2.0970006 -3.5510010
O 0.4556045 -3.0168551 -6.9917931
H 0.7048710 -2.6088409 -7.8550101
H 1.2580915 -2.7973317 -6.4628332
O -2.3080006 -3.1550009 15.2930043
H -2.0230006 -2.2570006 15.2470043
H -1.4340004 -3.6290010 15.1480042
O -2.0230006 14.2850040 -6.1270017
H -2.0460006 15.2990043 -6.3200018
H -2.6740007 14.1120039 -5.3880015
O 18.1760051 -4.0540011 -5.0550014
H 17.4960049 -3.4180010 -4.8300014
H 18.0030050 -4.6610013 -4.3130012
O 13.4520038 0.2040001 11.4890032
H 12.9010036 1.0440003 11.6310033
H 12.8100036 -0.4630001 11.7050033
O -17.1540048 0.6530002 1.0540003
H -17.2540048 1.5760004 1.4240004
H -16.2150045 0.7060002 0.8970003
O 1.5420004 -2.7040008 -14.2210040
H 1.9070005 -2.2090006 -15.0060042
H 1.8390005 -3.5890010 -14.5070041
O -3.6098587 -0.1852704 6.9558387
H -3.1186895 -0.7209324 7.6128456
H -3.2529044 0.7067271 7.1575614
O 4.9720014 15.3230043 2.2750006
H 4.0290011 15.3380043 2.3560007
H 5.2340015 15.6800044 3.1440009
O 18.3110051 -3.2280009 5.1360014
H 18.0690051 -3.5260010 6.0690017
H 18.3200051 -4.1730012 4.8750014
O -16.2400045 -5.6370016 -4.1580012
H -15.7280044 -5.9630017 -3.3530009
H -16.7990047 -4.9410014 -3.8100011
O 1.5146883 -6.2565189 -4.4492495
H 1.9692896 -5.5692502 -3.9189651
H 0.6600221 -5.7998918 -4.5985865
O -0.5350001 -9.1820026 15.0460042
H 0.3530001 -9.3950026 15.4680043
H -0.1380000 -8.9430025 14.2170040
O 2.9800008 15.1970043 -3.4600010
H 3.1060009 14.3820040 -2.8840008
H 3.0610009 14.9090042 -4.2870012
O 1.6400005 14.0600039 11.1830031
H 2.4950007 14.1170040 11.5510032
H 1.2960004 13.1410037 11.1990031
O -2.1020006 -12.9230036 -3.8630011
H -2.0650006 -13.4840038 -3.0990009
H -2.1480006 -12.0500034 -3.4750010
O -4.3040012 -11.8100033 10.5040029
H -3.6470010 -11.2450031 10.0890028
H -3.6390010 -12.5580035 10.6190030
O 2.5299531 5.8468902 -3.7402596
H 2.0252928 5.6683398 -4.5613766
H 1.8228655 5.8001798 -3.0638135
O -5.2940015 10.1460028 13.0180036
H -4.6740013 9.5180027 13.4160038
H -6.2090017 10.0860028 13.4690038
O 11.7260033 5.5120015 10.2270029
H 12.2020034 5.9080017 9.4500026
H 11.7310033 4.5950013 9.8980028
O -3.6876149 -7.1244206 -4.2068805
H -4.5369793 -7.5752326 -4.0076055
H -4.0291367 -6.2021137 -4.2451538
O -3.6790010 -6.0560017 13.9640039
H -3.9410011 -5.7930016 14.8810042
H -2.7110008 -5.9930017 14.0530039
O -0.2449481 7.6452553 -5.7608455
H 0.3793451 6.9165182 -5.9724677
H 0.0563971 8.3454158 -6.3818391
O -1.5200004 12.7580036 11.8640033
H -1.6410005 12.2990034 12.7080036
H -1.8440005 13.6610038 12.1180034
O 15.3740043 -3.7410010 -7.0980020
H 16.1390045 -3.2840009 -7.4550021
H 15.5010043 -3.8020011 -6.1710017
O 11.6910033 -7.0420020 14.1090039
H 11.4510032 -6.3050018 13.5100038
H 11.2680032 -6.7480019 14.9610042
O -10.1200028 -5.7340016 -12.8480036
H -10.8760030 -5.1350014 -12.9340036
H -10.6630030 -6.4300018 -12.4240035
O -13.4110038 -5.8020016 4.1060011
H -13.7420038 -4.8980014 4.2450012
H -12.5770035 -5.6210016 3.6180010
O 7.7370022 -7.9650022 -15.3460043
H 7.8530022 -7.4420021 -14.5070041
H 7.8470022 -7.3720021 -16.0660045
O 3.7023852 -6.9411292 5.9817846
H 2.9327424 -6.3922703 6.2248618
H 4.1045775 -6.3965256 5.2815245
O 8.6640024 13.8340039 4.8770014
H 8.8590025 12.9460036 5.1340014
H 7.6770021 13.7700039 4.8180013
O -12.4758459 -2.1892674 0.5262172
H -12.9364954 -1.8045185 -0.2521622
H -11.6807566 -2.5552692 0.0933437
O 5.2710015 -0.6120002 -17.1120048
H 6.1820017 -0.9200003 -17.2510048
H 5.1890015 0.0900000 -17.8420050
O 4.8181758 -5.3864975 3.9128473
H 4.4812775 -4.4792406 3.7482598
H 4.3169692 -5.8536420 3.1997995
O 0.8620002 0.0750000 17.2950048
H 0.5690002 0.4880001 16.4330046
H 1.7950005 -0.2040001 17.1350048
O -6.2560018 -15.0960042 -5.1210014
H -6.7670019 -15.4110043 -5.8610016
H -6.8550019 -14.4200040 -4.7160013
O -6.8160019 -12.6300035 9.4980027
H -6.5340018 -13.5350038 9.2440026
H -5.9580017 -12.3000034 9.7500027
O -3.2557780 2.3401795 -6.0389908
H -2.7443161 2.9904815 -5.5186591
H -2.5686435 1.7193639 -6.3684668
O -3.7500010 5.8580016 14.4070040
H -3.9570011 6.6620019 13.9740039
H -4.2100012 5.9780017 15.2290043
O 13.6450038 5.9820017 -6.8240019
H 13.9170039 6.9330019 -6.9800020
H 14.5010041 5.7200016 -6.4580018
O 12.6590035 5.5020015 7.6250021
H 13.5260038 5.1100014 7.5490021
H 12.0090034 4.7590013 7.4360021
O -6.8734515 -3.1465079 -7.2122654
H -7.0272071 -2.1875059 -7.1178049
H -7.0021458 -3.2476961 -8.1744766
O -7.9683650 -1.1095566 9.4082626
H -8.3623955 -0.2166756 9.4212431
H -8.7304257 -1.5892863 9.8040332
O -4.6130013 15.3070043 -8.2400023
H -4.7760013 14.3420040 -8.1250023
H -4.8820014 15.6310044 -7.4000021
O 12.9740036 -3.2220009 -8.6030024
H 12.9720036 -2.3080006 -8.3350023
H 13.8640039 -3.5180010 -8.2260023
O 11.4550032 -1.6760005 8.9320025
H 10.8350030 -0.8840002 9.0730025
H 11.0630031 -2.2210006 8.1780023
O -8.5140024 -6.7220019 -14.7730041
H -7.6530021 -6.2660018 -14.4690040
H -9.1510026 -6.3090018 -14.0810039
O -11.4000032 -11.5590032 1.9900006
H -11.3070032 -10.5920030 2.2300006
H -12.0930034 -11.7870033 2.5660007
O -8.9450025 7.4990021 -14.4200040
H -9.4030026 7.9110022 -13.6710038
H -7.9730022 7.6060021 -14.2640040
O -10.6201322 6.0205038 1.1447286
H -11.1481696 5.3834901 0.6150851
H -10.8582231 6.8728433 0.7227814
O 5.6270016 -13.4880038 1.3180004
H 4.8150013 -13.6820038 0.7740002
H 5.6480016 -12.4950035 1.3490004
O 9.6716009 5.4220775 -2.8113489
H 10.4783526 5.8966505 -2.5225131
H 10.0399947 4.5274485 -2.9801377
O 4.7860013 8.3970024 15.4090043
H 4.4380012 8.9900025 16.0940045
H 5.7840016 8.4870024 15.5570044
O -6.6433095 -9.1058693 -0.8771340
H -7.3078863 -9.7536597 -1.1940445
H -5.8660265 -9.6894663 -0.7918100
O -5.7483161 7.4570869 -1.2776237
H -6.5370316 7.8974026 -0.9072509
H -6.1841698 6.6732648 -1.6647173
O 14.0010039 -7.6470021 0.2760001
H 14.4100040 -8.0470023 1.0370003
H 13.1430037 -8.0550023 0.2510001
O 13.6640038 13.8370039 -2.1020006
H 13.0480037 13.2360037 -2.5640007
H 13.0090036 14.0550039 -1.4090004
O -7.4650021 -14.6890041 0.0900000
H -7.3240020 -13.9910039 -0.5440002
H -6.4870018 -14.9990042 0.0700000
O -8.1011971 6.9060793 -4.0742514
H -8.5357147 6.2755074 -4.6838255
H -8.0421000 6.3760639 -3.2457548
O -6.5420018 3.4810010 16.1020045
H -7.1540020 3.3990010 16.8760047
H -6.4290018 4.4420012 15.9940045
O 11.4930032 -11.3860032 -4.7570013
H 11.2430031 -11.2030031 -3.8610011
H 10.8170030 -12.0570034 -4.9050014
O 11.2364548 3.1650216 -5.6631695
H 11.2132600 3.1170554 -4.6850737
H 11.2233119 4.1353714 -5.8137991
O 4.5840013 7.1010020 12.3450035
H 4.6050013 6.4410018 11.6120032
H 5.4470015 6.9570019 12.7390036
O -7.1920020 -10.0870028 -7.5660021
H -6.5600018 -9.4480026 -8.0450023
H -7.8090022 -10.3560029 -8.3390023
O -8.8400025 -10.4340029 9.5220027
H -9.4960027 -11.1360031 9.7950027
H -7.9720022 -10.8180030 9.7900027
O -7.5739816 6.0435456 -8.3265010
H -7.4400509 7.0065451 -8.4485195
H -7.8185080 5.7835669 -9.2401733
O -6.8618062 8.8038483 7.9439753
H -7.2097954 9.6191329 8.3703660
H -6.3238604 9.1980777 7.2265966
O 8.3106596 -7.0371774 7.3122024
H 9.0451147 -7.3280954 6.7436909
H 7.5841719 -7.1033421 6.6481475
O 11.7040033 8.1810023 -11.4610032
H 11.6700033 7.2600020 -11.1870031
H 12.0390034 8.6080024 -10.7040030
O 9.7120027 8.7640025 10.2080029
H 9.8920028 8.2150023 9.3680026
H 10.6330030 8.7280024 10.5970030
O -5.4270015 -13.9120039 -9.0610025
H -5.0970014 -14.4470040 -8.3220023
H -4.6260013 -14.0350039 -9.5650027
O -4.6694491 -10.8157019 6.8368056
H -4.0388233 -10.1111361 7.0847389
H -5.5005627 -10.4822481 7.2088264
O -2.6229061 5.2778967 -8.6045596
H -2.6214921 5.6918936 -7.7191288
H -3.3147182 4.5975070 -8.5133663
O -2.6408431 6.8937614 10.9039744
H -3.4397378 7.4410793 11.0466562
H -3.0243742 5.9984453 10.9744221
O 14.1850040 7.9000022 9.8470028
H 14.4640040 6.9670019 9.9260028
H 14.4370040 8.1330023 8.9400025
O -16.3750046 7.3470021 6.8350019
H -15.9250045 6.4780018 7.0370020
H -15.7180044 7.9680022 7.1240020
O 0.1410000 -13.2470037 -7.0790020
H 0.4840001 -13.6840038 -6.2700018
H 0.4700001 -12.3290035 -6.8340019
O -0.2680001 -13.1780037 7.7790022
H -0.7530002 -13.8480039 7.2530020
H 0.0530000 -13.7540038 8.5020024
O 1.6405552 7.5864120 -10.7628837
H 2.0032859 6.8030895 -11.2327366
H 1.9982868 8.2963201 -11.3422725
O 1.6173798 9.6948250 6.0230197
H 1.0857304 8.9179837 6.3321592
H 1.5636311 10.2600544 6.8049249
O 15.6070044 6.0500017 5.7300016
H 15.4580043 5.0880014 5.7680016
H 16.3620046 6.1260017 6.3180018
O -15.2710043 5.1690014 8.7660025
H -16.2210045 5.3430015 8.8880025
H -15.2500043 4.2520012 8.6470024
O 0.9770003 -14.6990041 -9.2740026
H 0.7320002 -14.3090040 -8.4130024
H 0.8380002 -15.6540044 -9.0990025
O 0.9520003 -14.4110040 10.0040028
H 0.7140002 -14.3190040 10.9110031
H 1.6930005 -13.8380039 10.0620028
O 2.9124526 7.1458026 -8.3666163
H 2.7433477 6.1829959 -8.4120820
H 2.4601761 7.4134052 -9.1924253
O 2.6248901 7.3525221 9.2053735
H 1.8145486 6.8120185 9.1697658
H 2.4523062 7.8810528 10.0049475
O -12.4230035 9.9530028 -8.0140022
H -13.2360037 9.5120027 -7.6680021
H -12.2080034 9.4620026 -8.8100025
O -11.7250033 7.6260021 8.3140023
H -11.2190031 7.4390021 7.4490021
H -11.5950032 6.7870019 8.8390025
O 5.8370016 -15.0540042 -9.3020026
H 4.9440014 -15.4680043 -9.4010026
H 6.3730018 -15.3650043 -10.0810028
O 2.5150007 -12.3870035 8.5100024
H 2.4110007 -11.5200032 8.9900025
H 1.8460005 -12.4430035 7.8090022
O 7.2017385 5.4778253 -6.4947994
H 6.6016265 4.7641576 -6.8033982
H 6.5764575 6.2289330 -6.6075235
O 2.6070779 3.0661764 11.8584005
H 2.7351723 2.9753880 10.8954715
H 1.6485008 3.2616816 11.9220950
O -7.6332535 2.6353505 -9.5683272
H -7.7276984 1.6899174 -9.8087437
H -7.9987962 2.6433563 -8.6787489
O -10.3430029 3.0870009 13.9330039
H -10.4670029 2.1570006 13.6770038
H -11.0110031 3.5800010 13.4700038
O 8.5340024 -14.0870039 11.1190031
H 9.3920026 -13.9460039 10.7030030
H 7.9600022 -13.9680039 10.3170029
O 13.4720038 2.4850007 -9.8160027
H 13.1860037 2.2640006 -10.6770030
H 12.6050035 2.3540007 -9.3570026
O 10.9130031 3.4250010 7.7140022
H 11.1500031 2.4940007 7.6930022
H 9.9600028 3.4030010 7.5120021
O -5.9470017 -15.3160043 9.2960026
H -5.5590016 -15.7310044 10.0780028
H -6.0090017 -16.0230045 8.7190024
O -3.7686175 0.9013485 -9.1284809
H -3.3304048 0.6441650 -9.9637272
H -3.0732923 0.6742664 -8.4827429
O -4.1705896 4.5572709 10.7124326
H -4.9638857 4.8167029 11.2410882
H -4.3701418 3.5935192 10.6067514
O 15.9570045 3.8590011 -9.0000025
H 15.0670042 3.3780009 -9.0380025
H 16.3160046 3.4720010 -9.8530028
O 12.9490036 1.0800003 8.3090023
H 13.3990037 0.8770002 7.4410021
H 12.4590035 0.2190001 8.4820024
O -3.3397395 -1.8874614 -11.9292951
H -2.8224459 -1.0523461 -11.8534339
H -3.1737077 -2.1405448 -12.8568554
O -1.6781473 3.9179865 9.2880699
H -2.5190996 4.0872191 9.7453589
H -1.9561006 3.2805130 8.5943392
O 16.9400047 3.7350010 7.8500022
H 16.4300046 3.5710010 7.0440020
H 17.4120049 2.9150008 7.8020022
O -14.9530042 5.9690017 -7.1940020
H -14.9910042 5.7650016 -8.1200023
H -15.3510043 5.1730014 -6.9080019
O 1.5860004 -17.0670048 -7.7650022
H 1.8060005 -17.9600050 -8.1010023
H 2.3970007 -16.6000046 -8.2100023
O 2.0580591 4.5218706 -8.5591956
H 1.2526629 4.4038201 -9.1081021
H 2.5711298 3.7176975 -8.7913992
O 1.8493438 4.0225653 7.7079593
H 1.3519817 4.7538425 8.1258595
H 1.6998272 4.2074784 6.7603951
O -8.4450024 3.0300008 -15.4250043
H -8.2830023 3.2890009 -16.3380046
H -8.3900023 2.0800006 -15.3540043
O -15.9150045 5.7330016 3.8540011
H -15.1350042 5.5520016 3.2590009
H -15.8970044 4.9860014 4.5390013
O 5.5250015 -15.5120043 6.3300018
H 4.9810014 -16.2570045 6.6260019
H 5.1430014 -14.8170041 6.9370019
O 5.7096759 2.1648368 -11.3798566
H 5.8362863 2.9182759 -10.7665038
H 6.4886334 2.3132547 -11.9548492
O 4.0196038 1.9891399 3.5749607
H 4.0787054 2.0694996 2.6004372
H 4.1070167 2.9085827 3.8754444
O 2.6840008 4.9850014 18.4910052
H 2.8150008 3.9660011 18.7090052
H 3.5380010 5.2100015 18.8230053
O -5.9200242 -1.4975168 -11.2105786
H -6.1983217 -2.2602113 -10.6687038
H -4.9593898 -1.6845247 -11.3366871
O -10.2490029 0.4360001 12.7550036
H -10.2470029 0.3830001 11.7650033
H -9.3490026 0.1040000 12.9850036
O -6.5390018 13.0630037 7.5350021
H -6.9970020 12.5880035 6.8040019
H -5.7720016 13.3510037 7.0430020
O 13.3100037 -0.0550000 -11.1490031
H 12.8120036 -0.4940001 -10.4370029
H 14.2360040 -0.3310001 -11.0060031
O 11.4789891 -1.2574880 5.4466601
H 10.5618099 -0.9111210 5.4570249
H 11.3445167 -2.0980871 5.9294152
O -1.7345188 0.3329684 -7.2794914
H -0.7527370 0.3716323 -7.3148044
H -1.8703073 -0.6259889 -7.4066475
O -4.7104334 1.9409397 10.6536936
H -5.2527709 1.3534697 11.2131618
H -4.0094108 1.3126158 10.3867533
O 18.1280051 0.7850002 -7.3650021
H 18.1940051 1.7400005 -7.3850021
H 17.2130048 0.6080002 -7.7400022
O 13.7240038 3.1080009 10.1180028
H 13.3150037 2.5850007 9.4570026
H 13.0480037 3.1820009 10.8670030
O -1.6009168 -1.0809642 -14.2965052
H -2.1255117 -0.2525395 -14.3049080
H -0.9550702 -0.8601280 -14.9919631
O -7.8271017 -0.3847998 3.8196692
H -8.6625434 0.1313488 3.8545896
H -7.3137342 0.0173882 4.5500246
O 2.2490006 19.2120054 4.9780014
H 1.2800004 19.1560054 4.7410013
H 2.7090008 19.2380054 4.1380012
O 12.2895242 -1.6850920 2.8994264
H 12.0457401 -1.4284301 3.8205677
H 13.1900133 -2.0454212 3.0498713
O 0.1644649 -2.3056731 -9.6217365
H -0.5489508 -2.7038128 -10.1419247
H 0.7414041 -1.9556489 -10.3318719
O -2.9381049 -0.1442936 10.3123134
H -2.4405360 -0.6755678 9.6543945
H -3.8049442 -0.6179720 10.2864232
O -3.7830011 17.7080050 7.7200022
H -3.7680011 17.0290048 8.4610024
H -3.9590011 17.2650048 6.8820019
O 15.0910042 0.3330001 6.5720018
H 15.4340043 0.3620001 5.6620016
H 15.9000044 0.6300002 7.0550020
O -13.6630038 2.3210006 -12.4830035
H -12.8010036 2.8260008 -12.2130034
H -13.7360038 1.5710004 -11.8880033
O -17.5570049 0.5350001 7.5420021
H -18.0520051 -0.3370001 7.5200021
H -18.3290051 1.2030003 7.4180021
O 0.2640001 -16.9500047 8.6390024
H 0.0750000 -17.5670049 9.3200026
H 0.2360001 -16.1520045 9.1420026
O 3.5848946 2.2532208 -9.0945536
H 3.1834675 1.8333432 -9.8845957
H 4.2317073 1.5583400 -8.8507068
O 1.6934931 0.9990949 4.8818340
H 2.1016381 0.4856334 5.6071000
H 2.4830632 1.2578034 4.3674561
O 17.6860049 1.0920003 7.6100021
H 18.5560052 1.1930003 7.2600020
H 17.8830050 0.9560003 8.5580024
O -13.3170037 0.3970001 -10.6440030
H -12.8220036 -0.4460001 -10.7740030
H -12.8060036 0.7380002 -9.9310028
O -12.9680036 2.3580007 9.8740028
H -13.0390036 2.7070008 10.8130030
H -13.8830039 2.0980006 9.6020027
O 8.4985868 -0.7387091 -10.1794392
H 9.2003223 -0.6016435 -10.8445894
H 8.5796380 0.0651679 -9.6241508
O 5.9001313 2.9111557 6.4773369
H 5.1803838 3.2999260 5.9380697
H 5.8343852 3.4615580 7.2840776
O -0.8141312 -3.4009810 -12.9187413
H -1.2095575 -2.6068492 -13.3310889
H 0.0854028 -3.3115243 -13.2809577
O -7.1983850 -2.4637980 7.1080551
H -8.1566089 -2.5902878 6.8885445
H -7.3125023 -2.0202095 7.9751457
O -1.2040003 14.3800040 5.9260017
H -1.0100003 14.6260041 5.0270014
H -0.8760002 15.0750042 6.4680018
O 13.0860037 -5.3680015 4.1080011
H 13.8910039 -4.9900014 4.4130012
H 12.9270036 -4.8110013 3.3710009
O -0.1440000 -6.9190019 -13.0190036
H -0.4570001 -6.8150019 -13.9740039
H -0.4550001 -6.0520017 -12.6850036
O -4.7306414 -3.9696032 3.0482206
H -3.8681767 -3.8201508 3.4938123
H -5.3566606 -3.4915728 3.6348759
O -3.1610009 -2.2470006 18.8060053
H -3.3000009 -3.2080009 18.8580053
H -2.2360006 -2.1130006 18.9310053
O -0.8300002 14.3160040 2.7940008
H -1.5790004 14.1840040 2.2200006
H -0.5190001 15.2170043 2.4980007
O 14.7390041 -2.9160008 2.9810008
H 15.6960044 -3.0840009 3.2480009
H 14.7550041 -3.4660010 2.1980006
O -1.6950005 -17.7210050 3.7530011
H -1.4630004 -17.4100049 2.8870008
H -2.4310007 -17.1480048 3.9440011
O 0.1260000 -0.6260002 -16.5090046
H 1.0950003 -0.5770002 -16.2560045
H -0.0440000 0.2570001 -16.8770047
O -6.1938535 0.0240187 6.0792885
H -5.2496506 -0.0336126 6.3529534
H -6.5399144 -0.7759162 6.5111152
O 15.0120042 -0.4680001 1.3810004
H 14.5440041 0.1290000 1.9830006
H 15.2890043 -1.2090003 1.9600005
O -13.0720037 -2.5770007 -9.1920026
H -12.7000036 -3.4040010 -8.9100025
H -12.7930036 -2.5370007 -10.0570028
O -16.0450045 -2.4250007 7.4830021
H -15.5990044 -1.7000005 7.9770022
H -16.8830047 -2.4960007 8.0020022
O 4.9781580 -2.8781521 -6.7779908
H 5.4455873 -3.6824098 -7.0804169
H 5.7552245 -2.2865822 -6.6877385
O 2.9214725 -0.5237958 6.8756140
H 3.5281454 -1.0866819 6.3475963
H 3.5573838 -0.1378473 7.5148496
O 5.4160015 13.4160038 -9.4260026
H 5.9380017 13.9540039 -10.0290028
H 5.8870016 13.5270038 -8.5480024
O -10.7890030 3.6840010 -11.6840033
H -10.0600028 3.9800011 -12.3230034
H -10.3770029 3.4100010 -10.8080030
O -12.6149678 2.8305211 4.9260831
H -11.7450248 2.7119100 5.3446898
H -12.5961549 3.7577432 4.6303512
O 5.8925358 -0.6007934 -11.1368116
H 5.7338907 0.3657310 -11.0492102
H 6.7885552 -0.6757410 -10.7426065
O 5.7546404 -0.2118089 3.5196297
H 5.5962557 -0.3901588 2.5670918
H 5.1846061 0.5734286 3.6516069
O -2.2658129 -3.6921694 -10.1310730
H -1.9143115 -4.5329729 -10.4985315
H -2.5170253 -3.1983810 -10.9444321
O -5.1296065 -4.5679103 6.9966625
H -5.6014322 -5.4231879 6.8996538
H -5.8594262 -3.9218178 6.9506794
O -1.8454401 11.4683986 -6.7858880
H -2.5523996 11.2800774 -7.4378020
H -1.8643108 12.4438549 -6.7434076
O -4.9350014 14.2060040 12.3870035
H -5.3340015 13.5080038 11.8600033
H -5.1890015 13.8840039 13.2750037
O 10.8068426 -3.4297760 6.9458999
H 9.8565046 -3.6522611 6.8284558
H 11.1910688 -4.3333276 6.9544965
O -1.3931815 -6.3228269 -10.4408389
H -0.7094452 -6.8079225 -10.9297574
H -2.0281764 -7.0562365 -10.2715638
O -2.7320053 -7.9229814 5.1409005
H -3.5209674 -7.4939527 4.7442084
H -2.5798552 -8.6314840 4.4735358
O -1.9210005 12.6190035 -13.3620037
H -1.6630005 12.3260034 -12.5290035
H -2.3360007 13.5160038 -13.1920037
O 0.9260003 12.7590036 4.0350011
H 0.9110003 12.9460036 5.0230014
H 0.0790000 13.1300037 3.7510010
O 15.7240044 -7.0860020 5.2250015
H 15.5690044 -6.3680018 5.8750016
H 15.2440043 -7.7880022 5.7230016
O -16.5510046 -5.4540015 5.7230016
H -17.4590049 -5.4030015 6.0180017
H -16.6340047 -5.5240015 4.7390013
O 2.3602106 -6.6679249 -6.9891732
H 2.1565079 -6.4725327 -6.0486517
H 1.5833048 -6.2537222 -7.4243540
O -2.3532176 -4.1302508 7.2418467
H -3.2863004 -4.3466092 7.0452773
H -1.8678475 -4.8169007 6.7557660
O 2.1660006 14.7020041 -10.1390028
H 1.7740005 15.5310043 -10.5040029
H 2.7280008 15.2720043 -9.5560027
O 1.6750005 13.6550038 8.3440023
H 2.2260006 13.8080039 9.1020025
H 2.4150007 13.5810038 7.6520021
O -14.6220041 -3.6110010 5.7160016
H -15.1600042 -4.4270012 5.5850016
H -15.1620042 -3.1350009 6.4150018
O 5.9340017 -4.5560013 -11.5360032
H 6.4140018 -5.3850015 -11.4730032
H 6.5150018 -3.7630011 -11.1940031
O 0.5224999 -2.8759175 5.6944977
H -0.2662229 -2.3046116 5.5901125
H 0.8477052 -2.8818287 4.7673133
O 4.9720014 13.9570039 -12.2350034
H 4.4650012 13.4030038 -11.6050032
H 4.3670012 14.0120039 -13.0330036
O 0.8310002 16.4030046 5.3400015
H 0.5090001 17.2060048 4.8720014
H 1.3730004 16.7580047 6.0630017
O -13.7390038 -5.3720015 -10.1660028
H -13.5450038 -6.2090017 -9.6480027
H -14.0780039 -4.8520014 -9.4310026
O -16.2260045 -7.3690021 7.5970021
H -16.4310046 -6.4490018 7.6820021
H -15.2950043 -7.2550020 7.2750020
O 4.7464783 -6.8182256 -8.2855214
H 4.5643903 -7.5185098 -8.9493552
H 3.8499424 -6.6667294 -7.9136833
O 0.5861768 -7.7509464 8.6231513
H 0.5804432 -8.0829071 7.6981070
H -0.3475497 -7.4827846 8.7389271
O 7.2020020 13.6600038 -7.2990020
H 7.2480020 13.3700037 -6.3840018
H 7.3720021 14.5830041 -7.1320020
O 3.8870011 13.1170037 6.5870018
H 4.5820013 12.4740035 6.7860019
H 4.4490012 13.8990039 6.7250019
O -3.5544827 -7.4501118 -6.9598555
H -3.6135460 -7.4842285 -5.9849182
H -3.5059589 -6.4773408 -7.0800523
O -6.0140017 -9.0390025 8.7960025
H -6.4960018 -8.6510024 9.4870027
H -5.1380014 -9.0530025 9.1850026
O -5.2320015 12.7280036 -7.2940020
H -6.1480017 12.5170035 -7.0590020
H -4.8090013 11.8840033 -7.6780021
O -5.4490015 12.1400034 3.1830009
H -5.8190016 12.9810036 2.8370008
H -6.0080017 11.4710032 2.7620008
O 9.5610027 -9.0370025 11.4920032
H 9.7750027 -9.7290027 10.8540030
H 10.2750029 -8.4190024 11.2570032
O 11.4400032 11.9390033 -10.2840029
H 11.2990032 11.2850032 -9.6250027
H 12.1270034 11.5240032 -10.8150030
O 10.6200030 13.4320038 7.4690021
H 9.7340027 13.0290036 7.3610021
H 10.9330031 12.8650036 8.1280023
O -17.0490048 -5.0560014 3.1780009
H -17.2880048 -5.9660017 2.8730008
H -17.4790049 -4.5570013 2.4140007
O -3.0970009 -11.1220031 -9.0500025
H -2.9730008 -12.0960034 -8.8630025
H -3.3090009 -10.9030031 -8.1040023
O -2.7895118 -9.0286927 7.6198396
H -2.6831962 -8.6638943 6.7110713
H -2.5233674 -8.2479566 8.1509755
O -0.7157294 8.8918146 -10.0476194
H 0.0601353 8.3484571 -10.3124053
H -1.4370284 8.4326911 -10.5260839
O -5.6447508 8.7063984 3.0496065
H -5.5232640 9.3281125 2.3105747
H -6.5481569 8.3746998 2.8603314
O 0.6157933 -9.2777200 -8.9936038
H 0.2861902 -9.9072688 -9.6687175
H -0.1463705 -9.2468465 -8.3726328
O -2.0143214 -7.0667867 9.2927505
H -2.1987154 -7.6069632 10.0893447
H -2.2538564 -6.1752030 9.6234420
O 0.1795378 9.6890291 -7.5835557
H -0.2152521 9.4159253 -8.4411254
H -0.4431177 10.3873530 -7.2965563
O -2.9760008 12.7120036 9.3800026
H -2.2220006 12.3110034 8.9330025
H -2.4160007 12.9800036 10.1810028
O -2.3480007 -13.5580038 -8.2350023
H -1.4580004 -13.4730038 -7.7760022
H -2.6660007 -14.3400040 -7.7330022
O -1.1440003 -6.1330017 12.7720036
H -0.7690002 -7.0120020 12.6740035
H -0.3620001 -5.6060016 12.6140035
O -0.4218037 4.1902179 -9.7749119
H -0.7196083 4.4539380 -10.6672811
H -1.1436232 4.6188650 -9.2630912
O -2.1643815 8.0548894 8.4335274
H -2.7378277 8.8309977 8.5564744
H -2.2525214 7.5982613 9.2913718
O 13.9540039 8.6430024 -6.8040019
H 13.6650038 8.8690025 -5.9270017
H 14.6100041 9.2920026 -6.9930020
O -7.5180021 -16.0440045 -7.3960021
H -7.3800021 -16.3280046 -8.3410023
H -8.1950023 -15.3480043 -7.5530021
O -5.7615797 5.1091567 -6.5166653
H -5.3289332 4.4814620 -7.1298314
H -6.4340552 5.4840705 -7.1263451
O -6.5170018 5.0580014 11.9770034
H -7.0730020 5.8570016 12.0020034
H -6.9490019 4.4130012 12.5660035
O 12.8380036 5.6510016 -9.3620026
H 13.2030037 5.9290017 -8.4960024
H 12.4480035 4.8530014 -9.0790025
O 9.9130028 6.4610018 12.1490034
H 10.6070030 5.9170017 11.7100033
H 9.4290026 6.8810019 11.4150032
O -8.5090024 -10.9290031 -1.7730005
H -9.3500026 -11.0870031 -1.2580004
H -8.9870025 -10.6650030 -2.6120007
O -5.4017970 7.1186349 -4.6475220
H -5.3436447 6.3725339 -5.2835937
H -6.3140391 6.9972357 -4.3123596
O 10.3010029 -10.7320030 -1.9200005
H 9.4890027 -10.2780029 -1.6380005
H 10.2890029 -11.5210032 -1.3120004
O 10.1254369 9.2118895 -3.4679839
H 9.9071877 9.0449678 -2.5300103
H 9.5548956 8.5590741 -3.9105130
O -4.8450014 -11.8810033 -3.6070010
H -4.8610014 -11.7770033 -4.6100013
H -4.0750011 -11.3940032 -3.3800009
O -7.9385092 5.5151590 0.8987212
H -7.7386528 6.2683721 1.4820554
H -8.9182754 5.5119898 0.9657525
O 6.9180019 -12.0940034 -2.3150006
H 6.3620018 -11.6730033 -1.6250005
H 7.5830021 -11.3460032 -2.4780007
O 12.4134958 3.6383071 -0.8478294
H 11.5196598 3.9129024 -0.5500180
H 12.8714832 3.7043605 0.0154246
O -8.3824510 -9.8475513 3.0009390
H -9.2949353 -9.5694920 2.7730790
H -7.8757809 -9.0843756 2.6521441
O -5.9500017 8.0080022 -14.3920040
H -5.1030014 8.1000023 -14.8900042
H -5.8050016 7.0420020 -14.2130040
O -8.1349224 8.6489491 -0.4415295
H -8.1122268 9.1806594 -1.2695414
H -9.1050530 8.5115469 -0.3565232
O 8.6570024 -11.1900031 0.8070002
H 9.1690026 -10.6160030 1.4730004
H 9.1840026 -11.9970034 0.6090002
O 9.3760026 10.4250029 1.1300003
H 8.6990024 10.8910030 1.6340005
H 10.2310029 10.8270030 1.4840004
O -9.0570025 -9.2070026 -11.7240033
H -9.3330026 -8.7900025 -12.5550035
H -9.1300026 -10.1230028 -11.9730034
O -11.1320031 -14.0880039 5.0540014
H -10.5250029 -13.3560037 5.3530015
H -10.5290029 -14.7000041 4.5240013
O -8.6660024 5.5860016 -10.8490030
H -8.9840025 6.4650018 -11.0070031
H -8.3810023 5.3760015 -11.7500033
O -9.9047949 6.8064725 6.3285683
H -10.0769284 6.4542734 5.4246581
H -8.9259646 6.7027544 6.3463625
O 9.0200025 -10.2270029 5.5240015
H 8.7220024 -10.7890030 4.7120013
H 8.2480023 -10.2960029 6.1330017
O 8.4620024 7.5410021 -11.8220033
H 7.5150021 7.7260022 -11.6440033
H 8.7550025 8.3090023 -12.3230034
O 7.7792597 9.0517537 4.3293601
H 8.3732886 8.3782574 3.9393161
H 7.0449800 9.0473369 3.6931730
O -9.0040025 -14.0890039 9.4230026
H -8.3330023 -13.3780037 9.4250026
H -9.7110027 -13.4770038 9.7710027
O -10.1960029 4.2740012 -9.1590026
H -10.8370030 4.7880013 -9.6700027
H -9.3150026 4.4640012 -9.5100027
O -11.2120031 3.6370010 8.5920024
H -11.7440033 3.0840009 9.2770026
H -11.9220033 4.0920011 8.1000023
O 6.8330019 -16.6130046 -7.2560020
H 5.9480017 -16.5600046 -6.8430019
H 6.6060018 -15.9600045 -7.9390022
O 6.3340018 -15.3370043 9.7070027
H 5.7840016 -14.7640041 9.0960025
H 5.7440016 -15.4750043 10.4430029
O 8.1372248 1.5253570 -8.5445215
H 7.1820269 1.3196311 -8.5287831
H 8.2197904 2.0351437 -7.7110309
O 5.8679427 4.7580322 8.5098383
H 6.7551097 5.1698063 8.4668939
H 5.3287877 5.4723204 8.1075843
O -9.7860027 -15.7380044 -2.7630008
H -9.9170028 -16.2920046 -3.5220010
H -9.5540027 -16.4610046 -2.1290006
O -8.9235693 2.8476208 -5.5201142
H -9.1488238 2.0555265 -4.9796810
H -8.0157509 2.9955096 -5.1677360
O 8.5699005 2.8587781 -6.1919000
H 8.3325120 3.7988847 -6.1231298
H 9.5476600 2.9042761 -6.0791157
O 4.6640013 2.5050007 13.4810038
H 4.5250013 3.2810009 14.0940039
H 4.0210011 2.7230008 12.7690036
O -6.5527013 0.2576803 -3.3877612
H -7.4841032 0.4571336 -3.6066699
H -6.4383759 0.8302121 -2.5988849
O 5.6510016 -17.9360050 -2.4890007
H 5.2880015 -18.8140053 -2.7450008
H 6.5570018 -18.0650051 -2.8280008
O 7.6300825 1.4754369 -0.4034998
H 7.6889198 0.5149221 -0.5484338
H 7.2524344 1.7501843 -1.2606399
O 6.7560019 0.8760002 15.3770043
H 5.9020017 0.8220002 14.8660042
H 6.4240018 0.6070002 16.2550045
O -10.0710028 -14.0290039 0.8400002
H -9.1460026 -14.3240040 0.7170002
H -9.9160028 -13.2600037 1.4380004
O -7.6321615 5.4523861 -1.8154126
H -8.0368680 4.5684065 -1.9402334
H -7.6783021 5.4931142 -0.8343434
O 7.5652471 4.9949261 -1.0665554
H 8.2022366 5.1268253 -1.7998844
H 6.9495579 5.7403729 -1.2213551
O 4.5550013 0.4670001 17.4120049
H 4.2240012 -0.3190001 17.0650048
H 3.9160011 1.0710003 17.0500048
O -14.7900041 -8.5760024 3.9190011
H -14.0980039 -7.8890022 3.9930011
H -15.0050042 -8.6430024 2.9920008
O -9.1005402 3.5585409 4.5800908
H -9.4238549 4.4185663 4.2416228
H -8.1417534 3.7359599 4.5499664
O 8.5360024 -12.5340035 3.8600011
H 8.2790023 -13.3890037 3.5150010
H 9.4600026 -12.6890036 3.8230011
O 4.9670014 5.3870015 -15.9340045
H 5.0950014 6.0170017 -16.7010047
H 4.8040013 4.5080013 -16.3940046
O 7.2953961 7.7654389 0.8878245
H 6.6738273 8.3040296 1.4128097
H 6.7203187 7.4531526 0.1613164
O -7.5193900 -0.5017586 -7.2026617
H -6.7298354 -0.0140757 -6.8759242
H -7.5870766 -0.2094968 -8.1326157
O -12.5660035 -0.9320003 13.8530039
H -12.8280036 -0.5410002 14.7160041
H -11.9100033 -0.2760001 13.5400038
O 8.0900023 -14.8850042 6.8390019
H 8.4810024 -15.7460044 7.0230020
H 7.2300020 -15.2080043 6.4750018
O 10.8500030 1.7360005 -9.0400025
H 10.7060030 1.8080005 -9.9810028
H 9.9540028 1.8780005 -8.7000024
O 6.9690020 3.1440009 11.9030033
H 6.1710017 3.0740009 12.4060035
H 6.7450019 3.9030011 11.4440032
O -9.5560027 -5.0690014 -8.9100025
H -10.4360029 -5.0160014 -8.5200024
H -9.6180027 -5.8300016 -9.5090027
O -9.9760028 -2.4400007 10.6080030
H -10.4180029 -2.7540008 11.4270032
H -10.6950030 -2.4560007 9.9530028
O -7.7610022 15.0020042 9.5160027
H -8.4170024 15.5970044 9.0430025
H -7.5340021 14.2580040 8.9100025
O 8.2130023 -3.5050010 -10.1450028
H 8.3190023 -2.4940007 -9.9980028
H 9.1320026 -3.7610011 -10.1510028
O 6.7589343 -2.7914188 10.1735181
H 7.4550527 -3.4602203 10.1585964
H 6.4689919 -2.8020569 9.2357172
O -9.5399674 -0.1532698 -1.3731112
H -10.2087413 0.4750987 -1.0321922
H -9.1957647 -0.5371854 -0.5481346
O 7.6851724 -1.2813414 -0.9905856
H 8.2475124 -1.3061178 -1.8007401
H 8.2661859 -1.7603037 -0.3554109
O 5.2480015 -0.5880002 13.2170037
H 5.1800014 -1.5190004 13.5770038
H 4.2860012 -0.4540001 13.1810037
O 9.9820028 16.3910046 -2.3540007
H 9.8660028 16.6380047 -3.2340009
H 9.0000025 16.1660045 -2.1850006
O -5.6650016 -17.2870048 -3.1200009
H -5.5430016 -16.5250046 -2.4950007
H -5.9640017 -17.9870050 -2.4690007
O -8.9066742 3.0173790 -1.6787958
H -8.0650881 2.5174344 -1.7249820
H -9.2028309 2.6810252 -0.8042334
O 9.2826106 -2.3175740 0.9174939
H 8.8424378 -2.2169866 1.7909133
H 9.9539671 -1.6061028 0.9532625
O -7.8962884 -0.0603628 -9.9781357
H -8.6133849 -0.4622938 -10.4883298
H -7.1345736 -0.5562447 -10.3474471
O -7.2841982 3.6506659 8.8923576
H -6.9771016 3.6297801 9.8054035
H -7.9281363 4.3833357 8.9104338
O 3.5890010 -17.0990048 7.9110022
H 2.7640008 -16.6180047 7.6460021
H 3.4100010 -17.3370049 8.8200025
O 10.1690028 -0.9610003 -12.5460035
H 10.8010030 -1.6940005 -12.5440035
H 9.3430026 -1.3570004 -12.9730036
O 3.2326887 5.2523861 1.0952477
H 4.1572484 4.9583592 1.2456207
H 3.3714705 6.1126498 0.6437330
O -7.6241454 -3.4051935 -9.8914356
H -8.3776534 -3.8889959 -9.4831142
H -7.7506177 -3.6619682 -10.8274347
O -12.0430034 -1.0570003 8.9840025
H -12.9490036 -0.8400002 8.7670025
H -12.0330034 -1.8260005 8.3530023
O 10.7390030 -4.4290012 -9.6380027
H 10.9140031 -4.9360014 -10.4730029
H 11.6280033 -4.0750011 -9.5440027
O 6.7896500 0.3685967 7.0371623
H 6.1377047 0.1534532 7.7314225
H 6.4421162 1.2356314 6.7468724
O -11.7880033 -4.6510013 -7.5880021
H -11.8370033 -4.6750013 -6.6330019
H -11.9460033 -5.6150016 -7.6880022
O -13.3110037 -5.5620016 9.1120026
H -12.8740036 -6.3110018 9.6840027
H -13.6320038 -6.0550017 8.4220024
O -10.6420030 12.9240036 -9.1070025
H -10.0680028 12.3840035 -8.4330024
H -10.8300030 13.7510038 -8.6870024
O 6.6438664 -4.8914383 -7.8527540
H 7.1062542 -4.5816398 -8.6519722
H 6.0116004 -5.5618992 -8.1943943
O 3.8155058 -4.8592023 8.5243353
H 3.1745626 -4.9932749 7.7990797
H 3.2452303 -5.1144501 9.2784640
O 8.2150023 11.3410032 -9.4320026
H 7.6250021 11.8030033 -8.8030025
H 8.8580025 10.9710031 -8.8150025
O 4.4000012 13.6380038 9.4960027
H 4.6980013 14.4510040 9.0560025
H 4.9390014 13.0030036 9.0300025
O -8.6573102 -3.4725958 -3.3322595
H -8.8837515 -2.8035829 -4.0154639
H -8.3656248 -4.2118272 -3.8848149
O -8.7230024 16.5410046 -3.7780011
H -8.1680023 15.9040045 -3.3440009
H -8.0920023 17.2570048 -4.0160011
O 7.1889700 -3.9823599 -4.0736002
H 7.0861372 -4.7478474 -4.6552072
H 8.0866306 -3.6949394 -4.3367502
O 4.8460014 -2.8390008 14.5830041
H 5.4870015 -2.7300008 15.3260043
H 5.2360015 -3.4460010 13.9320039
O -14.1130039 -3.5230010 2.5330007
H -13.4790038 -3.0120008 1.9700006
H -14.2210040 -2.9430008 3.3090009
O 6.9490745 -4.3842505 2.2867745
H 7.3120854 -3.5683441 2.6857089
H 6.3658096 -4.7089014 2.9919110
O 4.0090011 -6.3100018 17.3370049
H 4.9890014 -6.1510017 17.4520049
H 3.5980010 -5.4850015 17.3630049
O -8.0480023 -2.9720008 -14.8710042
H -8.3590023 -2.7550008 -15.7740044
H -7.2660020 -2.2690006 -14.9330042
O -14.5860041 1.4840004 6.2340017
H -14.6100041 0.7720002 5.5710016
H -13.7870039 1.9780006 5.9790017
O 7.6150021 -1.5980004 -13.4520038
H 6.9060019 -2.2450006 -13.4780038
H 7.1220020 -0.7370002 -13.3990037
O 7.9181245 -1.9544122 3.3063477
H 7.1422923 -1.3552562 3.3233085
H 8.3780516 -1.6161262 4.1034485
O -4.7246882 -4.6369925 -9.3641001
H -3.8503696 -4.2815216 -9.6230431
H -4.5680147 -4.7121389 -8.3996518
O -12.1970034 -3.5130010 7.5250021
H -12.2790034 -4.3650012 8.0670023
H -12.9770036 -3.6080010 6.9170019
O -9.7840027 13.2470037 6.7570019
H -10.3240029 13.3530037 5.9600017
H -9.1750026 12.5720035 6.4440018
O 11.9160033 -6.2570018 -11.2350031
H 11.8690033 -7.1860020 -11.2020031
H 12.8450036 -6.1400017 -11.5510032
O 8.2254662 -4.2905964 6.5588889
H 8.0340698 -5.1854189 6.8891077
H 7.4265221 -3.8094193 6.8665102
O -10.2760029 -11.8380033 -9.2220026
H -9.2900026 -12.0050034 -9.2440026
H -10.5570030 -12.1030034 -10.1500028
O -9.0670025 -8.0200022 8.4920024
H -8.7780025 -8.9550025 8.5210024
H -8.5270024 -7.7570022 9.2340026
O -7.2600020 8.7910025 -8.5890024
H -6.5690018 8.7260024 -9.3020026
H -6.9790020 9.5050027 -8.0830023
O -7.9340022 11.2740032 5.8970017
H -7.2030020 10.7290030 5.5680016
H -8.5710024 10.4940029 5.9940017
O 10.6740030 -9.4060026 -8.7570025
H 11.3760032 -9.1130026 -9.3790026
H 11.1640031 -9.4320026 -7.9000022
O 6.3720018 -8.9250025 9.0580025
H 6.4760018 -9.1380026 10.0390028
H 7.1770020 -8.4310024 8.8880025
O 7.7740022 9.9060028 7.4440021
H 8.4740024 10.3460029 6.9020019
H 7.2080020 9.5390027 6.7460019
O -10.8670030 -7.0520020 -2.2560006
H -11.5920032 -6.3990018 -2.0660006
H -11.3510032 -7.9280022 -2.3890007
O -6.8980019 14.5230041 -2.5090007
H -7.5640021 13.7950039 -2.5240007
H -6.2120017 14.1630040 -3.1120009
O 7.9910022 -6.3160018 -5.8430016
H 7.4650021 -5.9570017 -6.6020018
H 8.8880025 -6.1280017 -6.2350017
O 6.6340019 -5.3830015 14.1920040
H 6.9640019 -5.1720014 13.2980037
H 6.8690019 -4.6150013 14.7450041
O 9.6020027 11.4600032 -5.0760014
H 10.0820028 10.9310031 -4.3720012
H 9.3540026 12.2400034 -4.4800013
O -5.3700015 -7.4170021 -15.2640043
H -5.9770017 -7.8040022 -15.8850044
H -5.1670014 -6.4840018 -15.5930044
O -6.9661724 -4.6271447 -0.4213541
H -6.3169526 -5.2397014 -0.8140418
H -7.7366575 -5.2345930 -0.4141867
O -5.9697088 10.5124420 0.8360200
H -5.8032266 9.9269194 0.0855078
H -5.2189706 11.1458544 0.7357242
O 9.3228067 -4.9089236 -0.1646045
H 9.3760094 -4.0201291 0.2505882
H 9.3347008 -5.4878315 0.6282307
O -9.3640026 -4.7870013 -16.9110047
H -8.7830025 -5.2130015 -16.2570045
H -9.9560028 -4.2460012 -16.3680046
O -9.5162613 -3.6070326 1.5252442
H -9.3220604 -2.6530651 1.5360515
H -9.7428825 -3.7130227 0.5754496
O 9.2064424 -1.3128510 -3.2304877
H 9.5552918 -2.0400314 -3.7905395
H 8.7944403 -0.7345776 -3.9087851
O 11.5960032 14.9860042 -0.5270001
H 10.9700031 15.4230043 -1.1890003
H 11.8800033 15.6830044 0.1380000
O -6.9403637 -6.0666365 -8.1841581
H -7.8275800 -5.9573276 -8.5796409
H -6.4203864 -5.4201140 -8.6968809
O -11.0440031 -6.1870017 6.7710019
H -10.5720030 -5.9080017 5.9870017
H -10.3270029 -6.7530019 7.1180020
O -7.9100022 12.4600035 -6.5980018
H -8.7670025 12.0270034 -6.8770019
H -8.3230023 13.2510037 -6.2500017
O -11.6400033 13.2120037 4.6160013
H -12.1340034 13.5660038 3.8270011
H -12.3260034 12.6730035 4.9060014
O 6.8111873 -6.9977863 5.0594086
H 6.1137790 -6.3928709 4.7422494
H 6.9268813 -7.5612599 4.2682340
O 9.3460026 11.0550031 5.3520015
H 8.6900024 10.4630029 4.8570014
H 10.1530028 10.9060031 4.9280014
O -12.6810035 -3.5610010 -4.9410014
H -13.2700037 -3.2750009 -5.6570016
H -12.0710034 -2.7900008 -5.0460014
O -12.8010036 -7.5120021 11.1000031
H -12.0790034 -7.4020021 11.8190033
H -13.6080038 -7.4470021 11.6060032
O -6.5110018 11.4920032 -4.4060012
H -6.2080017 10.6830030 -4.9430014
H -7.0120020 11.8810033 -5.1340014
O 8.6790024 -7.5080021 -9.7740027
H 9.3230026 -8.2350023 -9.6440027
H 8.5830024 -7.2010020 -8.8670025
O 9.6930027 -5.3660015 9.3480026
H 10.5060029 -5.6990016 8.8710025
H 8.9550025 -5.8210016 8.8700025
O 6.5060018 12.4570035 7.3910021
H 7.2840020 12.8340036 7.8330022
H 6.6620019 11.5030032 7.3670021
O -10.3820004 -3.4790247 -1.0611551
H -10.9382548 -4.1547282 -1.4838881
H -9.6996014 -3.3507289 -1.7541450
O -11.0630031 -7.6730021 13.2180037
H -11.0080031 -7.9920022 14.1470040
H -10.3470029 -7.0150020 13.2100037
O -4.6220013 14.1770040 -4.7490013
H -5.1250014 14.9280042 -4.9980014
H -4.8810014 13.5120038 -5.4680015
O 8.2220023 -9.7200027 -5.1260014
H 8.8390025 -8.9660025 -4.8560014
H 7.3920021 -9.3290026 -5.4560015
O 8.1690023 -5.5450016 11.6100032
H 8.7480024 -5.5720016 10.7880030
H 7.3920021 -5.6580016 11.0620031
O 12.7150036 11.9090033 -6.2800018
H 12.7210036 11.8650033 -5.3210015
H 12.3000034 12.8250036 -6.3560018
O -12.6170035 -9.4280026 -1.9850006
H -13.4090038 -9.7800027 -1.4920004
H -11.9170033 -9.9870028 -1.5710004
O -10.6460030 8.7860025 -2.7820008
H -9.6340027 8.8370025 -2.9380008
H -10.9010031 8.2410023 -3.5520010
O 6.0432825 -10.9969390 0.1797063
H 5.9108987 -10.0348784 0.2523122
H 7.0069878 -11.0576933 0.3822262
O 4.6130013 -9.0710025 15.8540044
H 5.0620014 -8.3710023 15.3110043
H 3.9440011 -8.4340024 16.1230045
O 6.9185814 11.1924368 -0.1515849
H 6.8827567 11.6200772 0.7247494
H 7.8149392 10.8136519 -0.1247263
O 3.0280008 6.6770019 14.5070041
H 3.4710010 6.6380019 13.6560038
H 3.6350010 7.3720021 14.9370042
O -8.5880024 -6.9760020 -10.5810030
H -9.0560025 -7.7180022 -10.9950031
H -7.8320022 -6.8870019 -11.2430031
O -9.1931575 -6.7198057 4.6984526
H -8.6994875 -7.5146342 4.9734103
H -8.5136120 -6.2215787 4.1968332
O -6.8010019 14.0990039 -10.7370030
H -7.4730021 14.1820040 -11.4360032
H -6.8170019 14.9680042 -10.3550029
O -8.6200024 11.6500033 0.8800002
H -7.7970022 11.2520031 0.5000001
H -8.7190024 10.8950030 1.5330004
O 11.9500033 -9.1310026 -11.1190031
H 11.3620032 -9.4300026 -11.7920033
H 12.6280035 -9.8430028 -11.1400031
O 10.1420028 -7.7520022 5.2070015
H 9.7170027 -8.6100024 5.1360014
H 10.6530030 -7.7420022 4.3690012
O 11.5510032 11.9160033 1.3970004
H 11.2650032 12.1610034 0.4450001
H 12.4810035 12.1780034 1.3520004
O -7.4430021 -11.9530033 -9.6600027
H -7.3130020 -12.3150034 -10.5920030
H -7.0970020 -12.6830035 -9.1850026
O -7.6130021 -11.5940032 6.8910019
H -8.4330024 -11.8790033 6.6160019
H -7.5160021 -11.7710033 7.8410022
O -5.4117131 3.7863995 -10.7269062
H -6.2842278 3.3735785 -10.5417211
H -5.0507699 3.7871154 -9.8214565
O -5.0978685 6.0514038 8.5099445
H -5.1148416 6.9258320 8.9292387
H -4.8072552 5.4915120 9.2544851
O 11.8130033 -10.5700030 6.7920019
H 11.3510032 -10.4420029 7.6490021
H 11.1410031 -10.4400029 6.0890017
O 10.7620030 6.5770018 -14.1690040
H 10.6030030 5.8820016 -13.5110038
H 11.3530032 7.2040020 -13.7250038
O 8.5781664 3.3543247 6.1568472
H 7.6515326 3.0663894 6.2946932
H 8.4293737 4.2549944 5.8002218
O -0.8580002 -10.9610031 -10.7280030
H -1.6670005 -10.8770030 -10.1560028
H -0.8370002 -11.9430033 -10.8780030
O -3.9344402 -11.9108341 4.2585717
H -3.2601751 -11.2345560 4.0721481
H -4.1846485 -11.6995896 5.1781619
O -1.8537272 5.2384453 -11.9567452
H -2.2598981 6.0970365 -11.7218081
H -1.0932789 5.5472675 -12.5014770
O -4.3435546 6.3204191 3.5871482
H -4.7703506 7.1502910 3.2910558
H -3.6287567 6.7113218 4.1330022
O 12.9150036 -12.8120036 5.9410017
H 12.2900034 -13.4230038 6.3210018
H 12.7130036 -12.0760034 6.4840018
O 14.9660042 8.3950023 7.2770020
H 15.8770044 8.6920024 7.0880020
H 14.8080041 7.6300021 6.6950019
O 2.5000007 -12.6320035 -10.4220029
H 3.0510009 -12.6090035 -9.6020027
H 1.9140005 -13.3260037 -10.1130028
O 0.5394825 -8.9027215 6.1079610
H 1.3951047 -9.3676678 5.9832682
H -0.0634775 -9.6756085 6.0140391
O 2.5840007 9.5970027 -12.3290035
H 2.7760008 10.3440029 -11.6890033
H 3.3340009 9.7540027 -12.9740036
O 1.1089601 10.0370498 3.3726090
H 0.9140675 10.9948315 3.3946055
H 1.2524987 9.8705539 4.3306965
O 6.3760018 -9.8690028 -12.0080034
H 5.4280015 -10.0060028 -12.4270035
H 6.8960019 -10.5800030 -12.4650035
O 0.4432878 -7.7024380 3.6166150
H 0.4753247 -8.1511940 4.4868938
H 1.2174785 -8.1089581 3.1730894
O 2.6342210 10.3204029 -8.7529637
H 3.1423229 9.4938635 -8.7163649
H 1.8154580 10.0676091 -8.2761552
O 5.0700014 9.2110026 7.3730021
H 5.7230016 9.0370025 8.0830023
H 4.4010012 9.7270027 7.9060022
O -11.8910033 -7.6650021 -12.2760034
H -12.8380036 -7.4200021 -12.3680035
H -12.0420034 -8.6050024 -12.2620034
O -10.8830030 -8.7860025 2.7030008
H -11.2550031 -8.0410023 2.2300006
H -10.9270031 -8.4810024 3.6310010
O -11.0880031 11.4200032 -11.4590032
H -10.5360029 11.8270033 -12.2040034
H -10.9720031 12.0270034 -10.6850030
O -9.9790028 9.7930027 2.9440008
H -10.8190030 10.1990029 2.6590007
H -10.0090028 9.9110028 3.8940011
O 6.4636888 -10.7836424 3.8812248
H 6.7770749 -9.9397599 3.4823505
H 7.1963297 -11.3963056 3.6585018
O 6.7760019 11.4560032 -11.7330033
H 6.1630017 12.2320034 -11.7080033
H 7.2490020 11.6470033 -10.8720030
O 7.3030020 11.6440033 2.6210007
H 6.8080019 12.1090034 3.3270009
H 6.8400019 10.7820030 2.5310007
O -5.7540016 -10.2110029 -11.8610033
H -6.0360017 -9.4190026 -11.3940032
H -5.6020016 -10.8440030 -11.1620031
O -5.2160203 -9.8200794 2.0890122
H -5.8312259 -9.0564256 2.0991873
H -5.7699358 -10.5190889 2.4810466
O -5.7970016 8.0190022 -10.8860030
H -6.1460017 7.2960020 -11.4680032
H -6.3360018 8.6960024 -11.3610032
O -5.5529271 9.7115843 5.6407711
H -5.5307759 9.2877876 4.7574844
H -4.6328442 10.0159092 5.7156011
O 11.5790032 -8.2730023 -0.5820002
H 11.5090032 -9.1210026 -1.0440003
H 11.0400031 -7.5960021 -1.0500003
O 11.7530033 10.8030030 4.1460012
H 11.7630033 11.5460032 3.4660010
H 11.5940032 10.0710028 3.5030010
O -3.1200009 -8.4340024 -10.1370028
H -3.2480009 -9.0860025 -9.5080027
H -4.0560011 -8.1790023 -10.3170029
O -2.6691809 -9.6821159 3.0792038
H -3.5600745 -9.7312519 2.6705119
H -2.1392416 -9.3105633 2.3474840
O -2.8640351 7.8694404 -11.5629259
H -3.8275170 7.8848798 -11.4250108
H -2.7613166 8.4504164 -12.3477536
O -2.9312254 12.3616105 4.1982930
H -3.8392210 12.2612236 3.8260509
H -2.5561416 13.0439603 3.6317634
O 11.8690033 -7.6170021 2.9740008
H 12.4680035 -6.8630019 3.1810009
H 12.5430035 -8.3490023 2.6890008
O 13.4720038 10.7990030 6.1760017
H 13.0670037 10.8480030 5.3130015
H 14.0280039 10.0380028 6.0280017
O -15.8470044 8.9020025 1.6530005
H -16.4250046 8.2570023 1.1150003
H -16.2540045 8.7150024 2.5390007
O 1.9040005 -8.5840024 -12.3950035
H 2.2860006 -7.9500022 -11.7340033
H 1.0940003 -8.1060023 -12.4210035
O -2.2600865 -3.8459630 4.1164810
H -1.6833991 -4.4719516 4.6005278
H -2.0563594 -3.0047591 4.5775464
O 2.0240006 13.4070038 -13.3950037
H 1.9780006 12.7280036 -14.1940040
H 2.2760006 12.8670036 -12.6300035
O 3.0820842 9.6426089 1.4717389
H 2.6592575 10.2830229 0.8597003
H 2.4512011 9.6986192 2.2195880
O -13.7560038 -6.9130019 6.4590018
H -13.8890039 -6.6340019 5.5430016
H -12.7600036 -6.7030019 6.6220019
O -15.2230043 12.0830034 1.8070005
H -15.4620043 11.1670031 1.7550005
H -14.6620041 12.2900034 1.0720003
O 3.9400011 -10.0760028 -13.2540037
H 3.1540009 -9.5340027 -13.0520037
H 4.3300012 -9.5300027 -13.9240039
O 2.3709302 -9.0419188 2.1228752
H 1.9482588 -9.4763923 1.3520560
H 2.9577527 -9.7656101 2.4290939
O 4.7270013 9.2660026 -14.4390040
H 4.8180013 10.2050029 -14.7900041
H 5.6740016 9.0520025 -14.3520040
O 5.6077081 9.3563789 2.5629570
H 4.8377013 9.5285984 1.9771210
H 5.1104857 9.3347606 3.4138712
O -14.8510042 -10.0700028 6.0640017
H -14.2080040 -9.4560026 6.4050018
H -15.0470042 -9.5110027 5.2100015
O -7.4090021 9.3760026 -12.6130035
H -7.3800021 10.2840029 -12.9810036
H -6.6260019 8.9770025 -13.0970037
O -13.3520037 12.9590036 -0.0480000
H -12.4370035 13.0170036 0.1390000
H -13.3200037 13.1620037 -1.0200003
O 3.9090011 -8.8700025 -16.3320046
H 4.5320013 -9.2130026 -16.9830048
H 3.5810010 -9.7440027 -16.0590045
O 3.9046959 -11.1731756 3.1086940
H 4.8469674 -11.0039397 3.3332884
H 3.9074990 -12.1524001 3.0590422
O 5.5266509 5.4519987 -12.3426357
H 6.3278061 5.4151300 -12.8820113
H 5.8703364 5.2018965 -11.4612159
O 6.1330017 13.0420037 4.5460013
H 5.2580015 12.6690035 4.6640013
H 5.8700016 14.0000039 4.3810012
O -4.3119217 -10.6725912 -0.3019119
H -4.5480463 -10.2856981 0.5680354
H -4.2084805 -11.6131019 -0.0467904
O -4.4610012 -11.8770033 14.4810041
H -3.9880011 -11.0380031 14.3200040
H -3.7200010 -12.4300035 14.8540042
O -3.8910011 8.0070022 -16.2830046
H -2.9990008 8.3400023 -16.4600046
H -3.7370010 7.0400020 -16.2350045
O -3.4398046 6.3136967 -0.3039249
H -4.2600956 6.7406962 -0.6288073
H -2.9639854 7.1168042 0.0140265
O 10.0350028 -13.0860037 -0.5340001
H 10.4080029 -13.6520038 0.0940000
H 9.8260028 -13.6880038 -1.2330003
O 12.3770035 9.4940027 -0.6120002
H 12.1200034 10.4290029 -0.7690002
H 12.2560034 9.4610026 0.4060001
O -3.7390010 -13.2150037 0.6890002
H -3.4530010 -13.8580039 0.0080000
H -2.9590008 -13.3020037 1.3260004
O -1.3590004 9.0370025 -16.8340047
H -1.0550003 9.0140025 -17.7900050
H -1.0780003 9.9220028 -16.5890046
O -2.2134927 8.6042101 0.4757198
H -1.7030772 8.4358179 1.2949711
H -1.8243793 9.4502903 0.1791330
O 15.1340042 7.8960022 -0.0410000
H 15.8700044 7.9910022 0.5700002
H 14.9230042 8.8550025 -0.1290000
O -18.5280052 6.2630018 2.4970007
H -17.6520049 6.1360017 3.0200008
H -18.1290051 6.2530018 1.6270005
O -1.0920003 -11.0120031 -15.7360044
H -0.9120003 -11.8220033 -15.2410043
H -0.8310002 -10.4110029 -15.0750042
O -1.8140005 -14.2830040 2.5960007
H -1.3320004 -15.1050042 2.1650006
H -1.8130005 -14.4940041 3.5190010
O 0.3570001 8.9070025 -13.5840038
H -0.4500001 9.4460026 -13.6630038
H 1.0830003 9.4770027 -13.2750037
O 1.6568935 10.9957896 -0.4225410
H 1.7152354 10.2756934 -1.0875371
H 2.1226392 11.7198366 -0.8818231
O 12.9570036 -10.0560028 2.3720007
H 12.6290035 -10.8280030 2.8550008
H 13.7710039 -10.4290029 1.9990006
O 1.8820005 -7.0700020 -16.4330046
H 1.2320003 -7.7590022 -16.6700047
H 2.6680007 -7.6500021 -16.5910046
O -1.7670453 -5.8095414 -2.7254055
H -1.3652969 -5.4313028 -3.5355796
H -2.3966983 -6.4377741 -3.1296633
O 4.0790011 13.1720037 0.8580002
H 4.7820013 13.7710039 1.0330003
H 3.6250010 13.0380036 1.7080005
O 15.0380042 -4.6540013 0.8590002
H 15.2720043 -4.4620012 -0.0140000
H 14.3770040 -5.2910015 0.7770002
O -12.6030035 -5.1850015 -1.4830004
H -12.6020035 -5.0810014 -0.5460002
H -13.3480037 -4.5910013 -1.7730005
O -10.8540030 8.4970024 -0.1070000
H -11.0580031 8.5790024 -1.1010003
H -11.3940032 9.2610026 0.2450001
O 5.4700015 -6.5940018 -16.5050046
H 5.1370014 -7.4710021 -16.2600046
H 4.8370014 -6.3650018 -17.2230048
O 7.9536916 -9.3625875 -1.7073752
H 7.4098149 -8.9821737 -0.9940985
H 7.8964898 -8.6544272 -2.3813917
O 7.4230021 15.6750044 -2.1520006
H 6.9910020 14.7950041 -2.1810006
H 7.2850020 15.8850044 -1.1540003
O -6.8226198 -7.6452705 2.5069540
H -7.2390868 -6.7813976 2.3214714
H -6.0691461 -7.3414852 3.0572517
O -4.3626967 11.7916650 -2.4975075
H -3.5631812 11.6092573 -3.0314228
H -5.0645138 11.7301475 -3.1675463
O 7.9018956 -7.0936812 -3.2731368
H 7.9885581 -6.8344644 -4.2226218
H 8.6783240 -6.6419720 -2.8927859
O 9.8130027 -2.0280006 12.7670036
H 9.0650025 -1.5500004 12.3180034
H 9.7580027 -1.5340004 13.6710038
O 9.3503192 8.4920228 -0.8274544
H 9.5881371 9.2143440 -0.2067648
H 8.6122683 8.1053807 -0.3181572
O -6.4850018 -12.6270035 -1.4980004
H -7.3370021 -12.1580034 -1.6780005
H -5.9750017 -12.4050035 -2.3240007
O -7.3780021 -7.9480022 15.9800045
H -7.7090022 -8.8570025 15.8840044
H -7.9140022 -7.6400021 15.2910043
O -3.3672604 8.4209558 -3.3041220
H -3.9856485 7.8878286 -3.8495770
H -3.8466454 8.4119066 -2.4614138
O -7.8410022 9.2650026 14.2530040
H -7.8790022 9.4620026 15.1970043
H -7.8640022 8.2950023 14.3040040
O 10.4430029 -8.6420024 -3.7960011
H 10.4460029 -9.2780026 -3.0840009
H 10.3850029 -7.8080022 -3.3560009
O 12.9460036 8.6840024 -4.3160012
H 12.0610034 8.5070024 -4.0430011
H 13.4290038 8.0440023 -3.7950011
O -9.8060027 -6.8160019 -5.4200015
H -9.0520025 -6.1820017 -5.4030015
H -10.4060029 -6.5170018 -4.7250013
O -7.4190021 -7.8320022 10.9260031
H -6.5220018 -7.8810022 11.2720032
H -7.7930022 -7.2770020 11.5720032
O -5.7666580 9.4099935 -6.0349702
H -5.5703909 8.6403846 -5.4533989
H -5.1925165 9.1582091 -6.7880219
O -7.6260021 11.2030031 9.0480025
H -7.3410021 11.8850033 8.3460023
H -7.2380020 11.6220033 9.8260028
O 12.8000036 -6.6760019 -6.8830019
H 13.7730039 -6.9340019 -6.8100019
H 12.4150035 -7.5870021 -6.6120019
O 10.5330029 10.7380030 -7.5680021
H 11.3300032 11.2270031 -7.8300022
H 10.3610029 10.9930031 -6.6430019
O 8.4060024 12.9940036 9.4440026
H 9.2060026 12.5560035 9.8910028
H 8.3760023 13.7000038 10.0700028
O -13.3720037 6.6340019 -0.5010001
H -13.9190039 7.2090020 -1.1490003
H -12.7400036 6.1660017 -1.0230003
O -0.7319940 -9.0086061 -1.2662087
H -1.0335867 -8.5546938 -0.4527977
H 0.0188445 -9.5005379 -0.8773858
O -2.3570007 -10.6970030 13.4100038
H -2.0530006 -11.6290033 13.5500038
H -1.7030005 -10.0890028 13.7720039
O -1.1431235 11.0911630 -0.2415583
H -1.0503537 11.7985355 -0.9115784
H -0.1936077 10.9770488 -0.0344644
O -1.5900004 11.1710031 14.4090040
H -0.9930003 11.7810033 14.8080041
H -2.2520006 10.9010031 15.1770042
O 15.3930043 10.3240029 -2.8200008
H 15.7090044 9.3920026 -2.9950008
H 15.5840044 10.4430029 -1.8650005
O -17.0060048 -8.4730024 -2.0390006
H -17.0330048 -8.5470024 -3.0050008
H -16.0980045 -8.0500023 -2.0280006
O -13.4830038 10.5850030 -2.9220008
H -12.5260035 10.4120029 -2.9750008
H -13.6250038 11.5390032 -3.0810009
O 4.0655697 -8.6243639 -1.6158303
H 4.4080851 -8.1915727 -2.4297266
H 3.1319341 -8.3822422 -1.6636325
O 2.0040006 -7.6460021 15.7080044
H 2.6630007 -6.9610019 15.9030045
H 1.3120004 -7.6910022 16.3690046
O 6.4750018 13.3350037 -1.8570005
H 6.4480018 12.6170035 -1.2110003
H 6.0380017 12.8680036 -2.6220007
O -11.4830032 -8.8050025 -5.0370014
H -12.0610034 -8.0510023 -4.9750014
H -10.6880030 -8.3000023 -5.4380015
O -10.2100029 10.9980031 -6.8950019
H -10.8920030 10.4410029 -7.2530020
H -9.6730027 10.3950029 -6.3840018
O 5.2544803 -7.3377541 -3.7073150
H 5.3061858 -7.6994892 -4.6136400
H 6.2125434 -7.2362766 -3.5146749
O 1.7761042 -5.7808825 10.1619760
H 1.0422911 -5.1368158 10.0589233
H 1.4447350 -6.5349763 9.6290876
O 5.3390015 13.2920037 -4.8190013
H 5.0880014 12.4900035 -5.2750015
H 4.7640013 13.9100039 -5.3040015
O 2.3180006 10.2840029 14.0620039
H 2.5490007 11.1390031 13.6690038
H 2.7610008 10.3700029 14.9140042
O -7.4860021 -9.9090028 -4.8330014
H -7.5680021 -9.9240028 -5.8070016
H -7.9290022 -10.7490030 -4.6030013
O -8.8970025 -12.0910034 12.6900036
H -9.7970027 -12.0580034 12.2850034
H -8.3750023 -12.2250034 11.8810033
O -2.6910351 6.4914317 -6.1755365
H -2.6791850 5.7994798 -5.4828713
H -1.8455791 6.9553910 -5.9847721
O -8.1780023 6.6270019 15.1950043
H -8.8730025 6.6060018 15.8090044
H -8.7100024 6.5110018 14.3940040
O 7.5790021 -11.9280033 -6.7680019
H 6.8250019 -11.5260032 -7.2030020
H 7.7770022 -11.2220031 -6.1330017
O 10.8580030 5.8230016 -6.1080017
H 10.2840029 6.5110018 -6.4670018
H 11.7480033 6.0070017 -6.3890018
O -3.6892242 -4.7036401 -6.8221549
H -4.1330070 -4.5412344 -5.9621439
H -3.1355597 -3.9066114 -6.8976758
O -5.0800014 -7.7070022 12.0540034
H -4.3330012 -8.0290022 11.4460032
H -4.5720013 -7.3000020 12.7540036
O -3.8695669 10.7413776 -8.5034764
H -3.8415926 9.7646445 -8.5795932
H -3.8414605 11.0449634 -9.4336033
O -5.9090017 12.0580034 11.0460031
H -5.8470016 11.4150032 11.7990033
H -5.0770014 11.9600033 10.5520030
O 15.9380045 -6.9120019 -8.1570023
H 15.7880044 -6.3230018 -8.9230025
H 16.6370047 -6.4960018 -7.6310021
O 11.8990033 -7.6500021 10.8090030
H 11.8190033 -7.8810022 9.8870028
H 12.7600036 -7.2190020 10.8010030
O 10.9910031 11.9890034 9.6780027
H 11.3290032 11.1290031 9.4020026
H 11.3310032 12.0300034 10.5990030
O -1.1455929 -8.7757650 -4.2447123
H -2.0391616 -8.4107339 -4.1358626
H -0.7849908 -8.6505207 -3.3469560
O -2.6230948 -4.8267103 10.7372001
H -2.3483619 -5.1455906 11.6205605
H -1.8248125 -4.3227461 10.4735724
O -0.2023213 13.1587778 -1.8659335
H 0.5407762 13.3751286 -1.2577659
H 0.2595230 12.8093322 -2.6516552
O 15.9160045 -6.6980019 -4.6690013
H 15.4380043 -5.8180016 -4.8200013
H 15.3830043 -6.9350019 -3.8810011
O 9.2150026 -8.5960024 14.5960041
H 9.0730025 -9.4510026 14.2750040
H 9.3310026 -8.1740023 13.7020038
O -17.0560048 7.9180022 -6.1490017
H -16.4260046 7.3550021 -5.7440016
H -16.6480047 8.8070025 -6.1490017
O 2.3906612 -9.3780331 -6.8656991
H 1.8470837 -9.5364923 -7.6674414
H 2.4669273 -8.4034966 -6.9368084
O -1.9000544 -11.1826892 9.1197951
H -1.6009504 -11.8615777 8.4848061
H -2.1348411 -10.4476519 8.5124090
O 2.5818040 10.1509248 -4.5142994
H 1.8695874 10.8243346 -4.4754163
H 3.1834068 10.5680034 -5.1678638
O 1.2840004 11.4190032 11.1520031
H 0.5900002 11.1570031 11.7820033
H 1.8410005 10.6000030 11.1210031
O -10.1590028 -10.9930031 -3.8910011
H -10.9080031 -11.6380033 -3.8370011
H -10.7320030 -10.2350029 -4.1600012
O -11.3070032 6.6050018 -4.7410013
H -10.7060030 6.1910017 -5.4150015
H -11.1660031 5.8980017 -4.0990011
O -12.2470034 5.9810017 11.6920033
H -12.8640036 5.2250015 11.8720033
H -12.8070036 6.7470019 11.4460032
O 9.2770026 -12.9260036 -4.6940013
H 8.6780024 -12.5130035 -5.3030015
H 8.9000025 -13.7660039 -4.7150013
O 3.3390009 -9.7610027 12.7000036
H 4.0020011 -10.1450028 12.1090034
H 3.9620011 -9.2610026 13.2640037
O 6.5818695 9.1585637 -4.0250509
H 5.7643986 8.6512890 -4.2201563
H 7.2691548 8.4630752 -4.1381430
O 7.9660022 11.7810033 12.8410036
H 7.0690020 12.1630034 12.6700035
H 7.7870022 11.0550031 12.1820034
O -5.5212297 -8.3090775 -8.7230947
H -6.1101072 -7.5309050 -8.5995669
H -4.7952555 -8.0628372 -8.1087708
O -7.7613437 -9.0892539 5.5635635
H -7.9471969 -9.4785596 4.6816833
H -7.6223483 -9.9116553 6.0780736
O -4.3060012 12.6650035 -10.5150029
H -3.8570011 13.4720038 -10.1190028
H -5.2240015 12.9370036 -10.5240029
O -3.8992405 10.2083828 8.6366626
H -3.7803772 11.1494717 8.8814088
H -3.7469778 10.2713629 7.6739143
O 13.5740038 -8.3370023 7.2710020
H 12.9980036 -8.9180025 6.6880019
H 13.8640039 -8.9530025 7.9410022
O 10.6730030 7.5020021 8.1240023
H 11.2130031 6.9390019 7.6040021
H 11.0630031 8.4060024 8.0900023
O -1.3293300 -9.1217278 -7.0522629
H -1.1226375 -9.0141745 -6.1040092
H -2.0853936 -8.5114104 -7.1484933
O -2.3170006 -8.9610025 11.2540031
H -1.4110004 -9.1560026 11.0030031
H -2.3860007 -9.5790027 12.0440034
O -4.1720443 8.0546828 -7.9463702
H -4.1440484 7.4566763 -8.7086257
H -3.6649575 7.5322459 -7.2867340
O -2.7029339 10.4444170 6.1060347
H -2.7717267 11.1526006 5.4224334
H -1.9640796 10.7936166 6.6372148
O 14.2380040 -6.1100017 10.3710029
H 15.0380042 -6.1350017 10.9100031
H 14.0000039 -5.1690014 10.2130029
O 12.2030034 9.8900028 8.5920024
H 12.4180035 10.1900029 7.6800021
H 13.0350036 9.5570027 9.0790025
O -5.3120015 -11.8790033 -6.7480019
H -5.0120014 -12.3440035 -7.4980021
H -5.9740017 -11.2950032 -7.1990020
O -5.7920016 -13.6140038 12.4840035
H -5.1840015 -13.4260038 11.7520033
H -5.4840015 -12.8670036 13.0970037
O -2.3517257 4.3780005 -4.3316375
H -3.0414051 3.9842231 -3.7480804
H -1.6648386 4.6032204 -3.6901996
O -4.8950014 8.4260024 10.5160029
H -4.5230013 8.9270025 9.7600027
H -5.3150015 9.0860025 11.0520031
O 9.9370028 -11.0980031 9.4260026
H 10.5550030 -11.8210033 9.4730027
H 9.1310026 -11.6300033 9.1330026
O 13.0860037 9.2060026 -9.4280026
H 12.9400036 8.9830025 -8.5150024
H 14.0260039 9.0670025 -9.4880027
O 11.9690033 8.7900025 11.8260033
H 12.3960035 8.0680023 11.4240032
H 12.4010035 8.7940025 12.6940036
O -12.5720035 -7.1800020 -7.9840022
H -13.3660037 -7.5500021 -7.5330021
H -12.1830034 -8.0230022 -8.3260023
O -14.1610040 8.7110024 8.0260022
H -14.2950040 9.1020025 8.9490025
H -13.3070037 8.2040023 8.0930023
O 9.1500026 -10.3610029 -10.8170030
H 8.2560023 -10.1020028 -10.4610029
H 9.7320027 -10.0960028 -10.1320028
O 2.7195064 -10.4664447 5.5041964
H 3.4070978 -10.0970554 6.1044329
H 3.2101664 -10.4863290 4.6582621
O 5.8315948 9.4259997 -8.3108265
H 5.6896989 8.5798728 -7.8425282
H 6.5536599 9.8119174 -7.7777927
O 3.5910010 10.6670030 8.9460025
H 3.0740009 11.3470032 9.3850026
H 3.2510009 9.9020028 9.4070026
O -10.7540030 -9.3790026 5.9810017
H -11.4240032 -9.1310026 6.6350019
H -10.0170028 -8.9930025 6.5080018
O -11.6120032 6.6380019 -9.8680028
H -10.9440031 7.2240020 -9.4600026
H -12.1320034 6.4380018 -9.0910025
O -13.4140038 8.3310023 4.5310013
H -14.2630040 8.8130025 4.4260012
H -12.8510036 9.0370025 4.8320014
O 6.1548493 -11.5646971 6.6234287
H 5.6388508 -10.7464035 6.8012047
H 6.2270099 -11.5037907 5.6520773
O 6.4844302 4.4081468 -9.9772892
H 6.1247943 4.2675504 -9.0811072
H 7.3531026 4.8082993 -9.7466418
O 4.2846058 6.5583916 7.1747935
H 4.6447100 7.4572439 7.0495932
H 3.6223984 6.7599154 7.8741571
