45
VERBATIM heavy-atom coordinates for the full VASP-optimized pSb2 precursor from jp046147k SI; hydrogens were not included in the source table; precursor was truncated/reduced for the reported CASSCF/CASPT2 model; heavy-atom formula C35N4O6
C -6.70926 1.29101 1.93863
C -7.81825 0.96013 2.96395
C -7.26071 0.31432 4.22164
C -6.61086 -1.00794 3.85563
C -5.67399 -0.91421 2.67498
C -5.68479 0.14774 1.82073
C -4.75031 0.29546 0.71266
C -3.43061 -0.02317 0.71477
C -2.51525 0.14228 -0.38456
C -1.19455 -0.16452 -0.13240
C -0.10308 -0.09325 -1.03327
C 1.22441 -0.40941 -0.83774
C 1.94367 -0.86800 0.31536
C 3.29520 -1.10905 0.15825
C 4.15679 -1.53903 1.18638
N 5.43033 -1.78245 1.01160
C -7.42504 1.53613 0.59801
C -5.98571 2.58308 2.37138
C -4.79729 -2.13047 2.52049
C -3.03182 0.62234 -1.70572
C 1.25519 -1.08440 1.63536
C 3.77364 -6.32463 3.85550
C 3.96605 -7.77773 4.26796
C 5.12427 -5.68895 3.47129
C 4.98150 -4.28623 2.87661
C 6.31297 -3.73865 2.34380
C 6.31846 -2.22072 2.09804
N 3.05238 -5.51985 4.84261
O 4.18921 -8.71132 3.51846
C 10.94190 -1.97105 -2.09518
C 12.25120 -2.15506 -1.32393
C 9.77839 -2.57983 -1.19251
N 11.03120 -2.59831 -3.40895
O 12.74370 -1.29847 -0.61024
O 9.27937 -1.63351 -0.27138
C 10.15940 -3.84788 -0.43994
C 6.02884 -1.27184 -5.37266
C 4.63167 -1.08681 -4.76053
C 7.01451 -0.28775 -4.68947
C 7.49199 -0.70108 -3.29886
C 6.46017 -0.63359 -2.17386
N 5.98222 -1.10407 -6.82785
O 3.96676 -1.93619 -4.21381
O 6.81715 -1.25242 -1.07506
O 5.37453 -0.04534 -2.32881
