19
17; source-verbatim CASSCF(14,12) optimized coordinates from JA043988W SI
C        1.796745       2.434165      -0.296314
C        1.616600       0.275317       0.362892
C        2.529592       1.289686      -0.256855
C       -0.636401       0.086802       0.165750
C        0.042884      -1.183714       0.038837
C       -0.765400      -2.369696      -0.121378
C       -2.120597      -2.227368      -0.189255
C       -2.767994      -0.935337      -0.100099
C       -2.043758       0.216773       0.070673
N        0.445447       2.264049      -0.014388
N        0.344657       0.992144       0.263279
N        1.349487      -1.096136       0.031847
H       -2.508987       1.182110       0.129343
H       -3.838728      -0.890494      -0.172481
H       -0.288224      -3.328281      -0.196458
H       -2.739884      -3.096777      -0.316318
H        3.591250       1.194025      -0.342606
H        2.134166       3.419488      -0.544143
H        1.883338       0.242973       1.420620
