3329
4-thiothymidine S2S1-MIN; verbatim full 3329-atom QM/MM coordinates from ACS SI
N 0.7040099 -0.4158649 -0.9404543
C -0.2540884 -0.3732754 -1.8661653
C -0.3528600 0.6592481 -2.8368780
C 0.5265172 1.7002244 -2.6867195
N 1.5157278 1.6151704 -1.7201729
C 1.7393698 0.5304017 -0.9884131
C -2.2079195 -1.2296230 1.7214113
H -2.9065180 -1.3736315 0.8936296
H -2.7188099 -1.4915065 2.6509244
C -0.9844761 -2.1426962 1.5556494
H -1.3177974 -3.1521520 1.7916542
O -0.5210016 -2.1933683 0.1971909
C 0.7457807 -1.4554986 0.1415207
H 1.5354311 -2.2154893 -0.0590297
H -1.0118894 -1.1351991 -1.8593146
C -1.4066066 0.5914548 -3.8996250
H -1.9061694 1.5468661 -3.9896484
H -0.9788983 0.3192604 -4.8572884
H -2.1598946 -0.1403439 -3.6513217
H 2.0036891 2.5197428 -1.4324041
O 2.7945551 0.3240669 -0.3994819
C 0.1806734 -1.7509674 2.4406249
H -0.1323927 -1.1781391 3.3156557
C 1.0256049 -0.9061052 1.5216536
H 0.6312196 0.1134466 1.5709747
O 0.8462811 -2.9379702 2.9399507
O 2.4318414 -0.8150706 1.8830293
H 2.8027911 -0.4154691 1.0408208
H 1.0456489 -3.5171472 2.1673257
O -1.9172817 0.1696768 1.8023768
H -2.7038477 0.5538507 2.2636417
S 0.6233583 3.0556560 -3.7737405
O -13.2220037 2.3610007 -3.2990009
H -13.2790037 2.6980008 -4.1580012
H -14.1220040 2.0690006 -3.0750009
O 1.2560004 -15.7570044 -1.4500004
H 0.9160003 -15.7940044 -2.3930007
H 0.5620002 -15.1610042 -1.1050003
O 4.4198327 -3.2338383 0.1675952
H 4.7714420 -3.0809792 -0.7347462
H 4.0850397 -4.1357775 0.0577432
O 3.0790009 2.5840007 16.4080046
H 3.6480010 3.3420009 16.1760045
H 2.2090006 2.9160008 16.3270046
O 1.8570005 19.4680054 -2.9100008
H 1.0590003 18.9360053 -2.9230008
H 2.5190007 18.9570053 -3.4510010
O -15.6390044 0.8660002 -2.5550007
H -16.3330046 0.5060001 -2.0000006
H -16.2250045 0.9490003 -3.3350009
O 3.5110010 -14.7870041 0.0920000
H 2.7030008 -15.1600042 0.4820001
H 3.3340009 -15.1010042 -0.8120002
O 2.2820006 0.2210001 -19.1820054
H 2.3510007 0.7400002 -18.3970051
H 2.0940006 -0.7160002 -18.8820053
O -8.0660023 -16.6670047 1.8350005
H -8.3200023 -17.4640049 1.3500004
H -8.0450023 -15.9360045 1.1740003
O -6.9150545 3.2672901 2.0868109
H -7.1836679 4.0352779 1.5444415
H -6.6995947 3.7216411 2.9226985
O 11.1890343 -0.2566149 0.8619179
H 11.6727671 -0.7377678 1.5722405
H 11.2218949 0.6434847 1.2103865
O -14.4160040 3.3100009 -0.3490001
H -13.4700038 3.5680010 -0.3200001
H -14.8050041 3.4420010 -1.2650004
O 7.3190020 -14.5080041 -1.1390003
H 6.8100019 -14.4100040 -0.3040001
H 7.2660020 -13.5580038 -1.5450004
O 7.9200022 0.9820003 -17.6480049
H 8.0760023 0.0290000 -17.4910049
H 8.8040025 1.3000004 -17.3330049
O 2.3736445 3.9019004 -0.9327497
H 2.8227554 4.2473350 -0.1234032
H 1.9124145 4.7273166 -1.2189859
O 0.9832181 0.3606632 11.3247836
H 0.0972357 0.3712900 11.7359863
H 0.8779622 1.0872083 10.6634617
O -2.3940007 -14.7170041 -1.4440004
H -1.8350005 -15.4330043 -1.8090005
H -1.7480005 -14.1310040 -0.9410003
O -3.6560010 5.1860015 -17.6390049
H -3.6850010 4.3930012 -18.2250051
H -3.7500010 4.9520014 -16.7040047
O -6.3701784 1.9216599 -1.2060800
H -5.8608392 2.6770757 -0.8457194
H -6.2208921 1.2674961 -0.4889113
O 10.8570030 -15.2270043 -2.7490008
H 11.7160033 -15.1520042 -2.2770006
H 10.9020031 -14.5920041 -3.4690010
O 13.3630037 3.8550011 1.6850005
H 13.4890038 2.9280008 2.1630006
H 14.2750040 4.1680012 1.5700004
O -9.1840951 -1.7334226 -5.3407497
H -8.5625246 -1.3269643 -5.9840904
H -9.9534362 -1.8642671 -5.9398778
O -8.9420025 -5.9920017 12.3410035
H -8.6070024 -5.6600016 13.2350037
H -8.5070024 -5.3400015 11.7390033
O 9.7635407 -3.4059945 -5.0067824
H 10.6022147 -3.9004854 -4.9165756
H 9.8278962 -3.1480058 -5.9534113
O 9.7860027 0.1920001 14.5570041
H 8.8640025 0.3450001 15.0050042
H 9.7020027 0.9100003 13.8840039
O -4.5520013 0.3510001 -18.6490052
H -4.7830013 -0.5720002 -18.8840053
H -3.6500010 0.4980001 -19.0090053
O -8.8924858 1.8702274 0.8185230
H -8.1726900 2.2835979 1.3407536
H -8.7501401 0.9277062 1.0010280
O 8.5450024 -1.4890004 -16.5020046
H 9.2190026 -2.2050006 -16.6950047
H 8.2660023 -1.7790005 -15.5900044
O 10.8372744 0.4575932 -1.9017428
H 10.2829978 -0.2491747 -2.2949188
H 10.9517633 0.1420687 -0.9845368
O -18.7610053 -6.3820018 -1.4570004
H -18.3970051 -7.2910020 -1.4930004
H -18.0480051 -5.8470016 -0.9820003
O -11.7106652 4.2114269 -0.6082179
H -11.5087115 3.2547521 -0.5014641
H -11.4109092 4.3422734 -1.5279602
O 1.0928488 -10.5342863 0.1545211
H 0.6837772 -11.1048844 0.8431154
H 1.3580708 -11.1916666 -0.5134256
O 0.7350941 5.4736416 2.3321754
H 0.2070272 5.3184428 1.5187227
H 1.6505846 5.3889592 1.9825298
O 0.6400002 6.1370017 17.3010048
H 0.3720001 6.3830018 18.1220051
H 1.4950004 5.7600016 17.5540049
O -16.8320047 3.3460009 1.1310003
H -17.4500049 3.7350010 0.5020001
H -16.0480045 3.2180009 0.5580002
O 1.8020005 -18.0550051 1.7210005
H 2.0870006 -17.7560050 2.5900007
H 1.6380005 -19.0430053 1.9460005
O 0.1790001 3.1610009 -17.0310048
H 0.0250000 4.0810011 -17.4470049
H 0.7140002 3.4640010 -16.2400045
O -0.9925912 4.8597304 0.2065740
H -1.2278930 3.9046359 0.1424784
H -1.8754725 5.2754842 0.1224660
O 17.7410050 1.7230005 -1.9780006
H 18.3480051 1.1930003 -2.4890007
H 17.0520048 1.1080003 -1.7660005
O -6.5590018 -6.9800020 -12.4030035
H -5.9000017 -6.2920018 -12.4010035
H -6.2540018 -7.6100021 -13.1090037
O -7.7778535 -5.0801330 3.0413897
H -7.3778952 -4.3154279 3.5041479
H -8.3140618 -4.6076048 2.3684515
O -6.9880020 11.7150033 -13.8220039
H -6.9770020 12.4740035 -13.3070037
H -6.1750017 11.7680033 -14.2810040
O -7.5300021 16.3790046 -0.7660002
H -6.8580019 15.8030044 -0.3520001
H -7.4810021 15.8290044 -1.6200005
O 9.3867072 -6.6861867 1.9821414
H 10.2559757 -7.0419370 2.2477286
H 9.2202246 -6.0440162 2.7035992
O 10.9890031 12.2640034 -1.2580004
H 10.7160030 13.1540037 -0.9770003
H 10.6630030 12.2160034 -2.1780006
O -15.0590042 -3.7000010 -1.5480004
H -15.7440044 -3.6270010 -2.2360006
H -15.0710042 -2.6890008 -1.2730004
O 2.2470006 -2.2720006 -18.1530051
H 1.8080005 -3.1660009 -17.9430050
H 2.9350008 -2.5990007 -18.7430052
O 3.2469109 -6.4375570 1.9911509
H 2.9849268 -7.3793484 1.9755944
H 2.4038565 -6.0007217 1.7446794
O -0.0380000 -4.3410012 17.5470049
H 0.2170001 -4.4020012 16.6370047
H -0.8050002 -4.9430014 17.6360049
O 3.5720010 17.8050050 -4.1120012
H 4.5470013 17.7970050 -4.1570012
H 3.4240010 16.9230047 -3.6500010
O -2.7680008 -5.8890016 -17.9160050
H -1.9280005 -5.6120016 -18.3510051
H -2.7260008 -6.8960019 -18.0800051
O -5.4493828 -6.6720949 -1.4570099
H -5.7454933 -6.8938321 -2.3627881
H -5.7965210 -7.4704579 -1.0046337
O -7.7830022 -4.7940013 14.3360040
H -7.4310021 -4.8730014 15.2010043
H -7.2610020 -3.9900011 14.1550040
O -3.8890011 15.0050042 -2.1220006
H -4.1890012 15.9380045 -2.2300006
H -4.2450012 14.5910041 -2.8410008
O 15.2830043 -2.7450008 -4.4390012
H 15.8410044 -1.9120005 -4.3270012
H 14.4610040 -2.5930007 -3.9380011
O -14.7820041 -7.0280020 -2.1460006
H -14.5000041 -6.6220019 -1.3420004
H -14.0330039 -7.5740021 -2.2810006
O -13.0630037 13.3900037 -2.9660008
H -12.4810035 12.9610036 -3.6420010
H -13.2990037 14.1460040 -3.5320010
O 4.4389565 -5.4823523 -1.7764806
H 5.2526579 -5.4847707 -1.2280485
H 4.7138766 -6.0572865 -2.5175600
O 2.8160008 -1.7670005 16.3250046
H 2.9320008 -2.1720006 17.2220048
H 3.2180009 -2.3680007 15.6650044
O 6.1610017 17.4020049 -3.8660011
H 6.4530018 16.6980047 -3.2620009
H 6.3600018 17.0880048 -4.7370013
O -4.9510014 -2.3400007 -18.9020053
H -5.3340015 -3.1830009 -18.9740053
H -4.4070012 -2.4870007 -18.1140051
O -8.3951444 -0.9746864 1.1804587
H -8.2195570 -0.7603832 2.1222599
H -7.5812655 -1.4814352 0.9754911
O -4.1510012 19.0830053 0.4430001
H -3.8220011 19.3080054 -0.4300001
H -5.1130014 19.2780054 0.3800001
O 12.7100036 0.2510001 -4.0510011
H 12.5370035 -0.7410002 -3.7980011
H 12.0320034 0.6590002 -3.5060010
O -2.2080006 -18.0080050 -0.3020001
H -2.7660008 -18.8190053 -0.1540000
H -2.2990006 -17.7980050 -1.3060004
O -3.7221074 -2.2884942 -1.5245005
H -3.6844265 -3.1045055 -0.9799416
H -4.6133768 -2.3932208 -1.9292956
O -7.1420020 -1.3160004 17.3150048
H -6.4210018 -1.6400005 16.8060047
H -7.8430022 -1.1380003 16.5990046
O 18.1500051 -2.2520006 -1.7830005
H 18.9000053 -1.7270005 -1.6350005
H 17.9500050 -1.8280005 -2.6090007
O -7.7920022 -4.1490012 -12.5320035
H -7.8490022 -3.5440010 -13.2920037
H -8.6080024 -4.8160013 -12.6390035
O -9.8230309 -2.5420768 6.5725638
H -10.2869018 -1.7586399 6.2139274
H -10.5901018 -3.0639790 6.8843995
O -9.5630027 13.9430039 2.8650008
H -10.2170029 14.7090041 2.9770008
H -9.9800028 13.2980037 3.4970010
O 9.0130025 -4.6630013 -13.2630037
H 8.4100024 -4.7070013 -14.0780039
H 8.6090024 -5.3950015 -12.7530036
O 9.5494704 -5.1233969 4.2547847
H 8.9814790 -4.6479442 4.8945087
H 9.7537894 -5.9265834 4.7657201
O 8.8020025 16.7050047 4.7590013
H 7.8470022 16.7150047 4.4780013
H 8.9110025 15.7470044 4.8090013
O -3.5270010 -3.7980011 -14.1270040
H -2.6640007 -4.3430012 -14.1830040
H -4.0620011 -4.3400012 -13.5190038
O -4.9061053 -6.5703007 4.1389279
H -4.8990282 -5.6628545 3.7730897
H -5.3352567 -6.4643044 5.0085617
O -7.1440020 13.9400039 1.8020005
H -7.4750021 13.3210037 1.1560003
H -7.9300022 13.9510039 2.4060007
O 13.7900039 -5.3760015 -2.4890007
H 13.2940037 -5.6660016 -1.6650005
H 14.6620041 -5.1250014 -2.1140006
O 14.0230039 13.0250036 0.8850002
H 14.7370041 13.4770038 0.4480001
H 13.9180039 13.6090038 1.6030004
O -15.9460045 4.4580012 -2.4050007
H -16.4020046 3.9350011 -3.1320009
H -15.1900043 4.9850014 -2.7210008
O 2.2180006 -16.9780048 -5.1200014
H 1.8810005 -17.1470048 -6.0190017
H 2.2420006 -17.8190050 -4.6700013
O -0.0560000 -13.6800038 12.4980035
H 0.0220000 -14.4210040 13.1220037
H 0.8500002 -13.2740037 12.7570036
O -0.0374259 3.6399485 12.6703019
H 0.1425400 4.3858369 13.2839091
H -0.9932282 3.5001840 12.7673884
O -18.5520052 2.9300008 3.7940011
H -17.9840050 3.1780009 3.0810009
H -18.0630051 2.1400006 4.1940012
O -4.8240014 -16.7640047 0.4300001
H -4.8370014 -16.2180045 1.2170003
H -4.0400011 -16.4990046 -0.0160000
O -1.8070005 1.5020004 -17.4900049
H -2.0570006 1.2400003 -16.5590046
H -1.0580003 2.1260006 -17.4290049
O -2.5110007 19.0510053 2.6990008
H -3.1350009 19.1360054 1.8620005
H -3.0680009 19.3230054 3.4840010
O 16.4920046 3.9830011 3.3480009
H 17.3590049 3.7670011 2.8630008
H 16.4560046 4.8620014 2.8930008
O -14.8940042 -5.6620016 0.6570002
H -15.1510042 -4.9500014 0.0880000
H -14.7850041 -5.1440014 1.5240004
O 6.6341654 -5.5541096 -0.1474362
H 6.6245290 -5.1090551 0.7331824
H 7.5447490 -5.3239835 -0.4168137
O -5.2010015 -4.9240014 -18.4350052
H -5.4200015 -4.8350014 -17.5020049
H -4.4080012 -5.4010015 -18.3160051
O -6.0832921 -2.5118567 1.0238877
H -5.5674593 -3.0668728 1.6446309
H -6.4210184 -3.2228847 0.4258082
O -3.0720009 14.7530041 0.9880003
H -3.0890009 13.8330039 0.7280002
H -3.0300008 15.1750042 0.1050000
O 13.4170038 -2.4810007 -0.9530003
H 13.3060037 -3.3940009 -0.5410002
H 13.4510038 -1.9040005 -0.1890001
O -5.7220016 -15.3570043 2.6700007
H -6.0890017 -14.4810041 2.6190007
H -6.4090018 -15.8680044 2.2550006
O -4.2250012 5.3950015 -15.0470042
H -4.6400013 4.6080013 -14.5650041
H -3.2600009 5.2460015 -14.8950042
O -3.7650287 3.8644512 2.4006430
H -2.8350809 3.7721189 2.7014452
H -3.9941752 4.7347609 2.7921167
O 11.8810033 -14.1840040 2.1090006
H 11.3470032 -14.9260042 2.4310007
H 12.7990036 -14.5440041 2.0890006
O 16.6280047 8.2530023 3.2120009
H 17.4000049 7.7030022 3.2600009
H 17.1360048 9.0680025 3.3800009
O -6.3549572 3.3051095 -4.5096560
H -5.6005077 3.1567317 -3.9140859
H -6.0064989 3.9784406 -5.1233141
O -9.5660027 6.5370018 12.7180036
H -9.0680025 7.1420020 12.0870034
H -10.4390029 6.5470018 12.2640034
O 12.9370036 -13.8750039 -4.1800012
H 13.7530038 -13.9040039 -3.6610010
H 12.8400036 -12.8940036 -4.3910012
O 10.8929988 2.9703302 -2.9682277
H 11.5836201 3.2163972 -2.3175422
H 10.6642918 2.0829562 -2.6154665
O 7.2780020 3.6230010 15.3510043
H 7.1360020 3.9330011 16.2500045
H 6.9940020 2.6930008 15.4460043
O -14.5390041 -10.2520029 -0.3070001
H -14.8730042 -9.5330027 0.2280001
H -14.9120042 -10.9050031 0.3420001
O -9.7017094 6.0985424 3.7097930
H -10.2625702 6.0245231 2.9064524
H -9.0009269 6.6801341 3.3660245
O 7.7580022 -14.8240041 2.3460007
H 7.1890020 -15.5800044 2.3960007
H 7.0310020 -14.1660040 1.9950006
O 5.8005005 7.1178620 -1.3900865
H 4.8917556 7.2284491 -1.0321493
H 5.7034152 7.5321948 -2.2584079
O -10.9992354 -5.6046567 2.8536398
H -10.5149003 -4.8940641 2.3881752
H -10.3153904 -5.9513412 3.4567323
O -10.3060029 13.4760038 -0.2670001
H -10.6470030 14.0130039 0.4880001
H -9.7410027 12.7630036 0.1930001
O 7.1972668 -8.3926562 2.6868874
H 6.7235844 -8.3357346 1.8326637
H 8.0553327 -8.0002311 2.4288125
O 9.0340025 14.7620041 1.9870006
H 9.9980028 14.9100042 1.8300005
H 9.0750025 14.2920040 2.8740008
O -17.4190049 7.3950021 -0.0480000
H -16.8920047 7.8060022 -0.7210002
H -18.1870051 8.0560023 -0.0930000
O -0.4460001 -9.1550026 -17.4820049
H -0.4360001 -9.8370028 -16.7780047
H -1.3430004 -8.9670025 -17.6490049
O -1.1724921 -8.0895131 1.3598571
H -1.5518659 -7.1862203 1.4099678
H -0.5289784 -8.0278924 2.0954257
O -3.0990009 -9.1880026 16.4430046
H -3.7470010 -8.6730024 15.9640045
H -2.2920006 -9.1510026 15.8820044
O 1.5210004 14.0460039 0.0620000
H 2.4390007 13.8720039 0.3370001
H 1.1920003 14.4860041 0.8540002
O 15.3060043 -8.2090023 2.8280008
H 15.6150044 -9.1660026 2.8620008
H 15.4000043 -7.9880022 3.7690011
O 15.4460043 10.7520030 -0.1100000
H 16.0220045 11.1870031 0.5030001
H 14.6660041 11.3470032 -0.0430000
O -13.5510038 7.8710022 -5.9490017
H -12.6470035 7.4420021 -5.7960016
H -14.0260039 7.0720020 -6.3110018
O 3.4380010 -12.9130036 -4.9810014
H 4.2160012 -13.3870037 -4.6520013
H 3.4340010 -12.1870034 -4.3000012
O 1.6960005 -10.7140030 16.5440046
H 2.3710007 -10.5890030 15.8370044
H 1.9250005 -9.9760028 17.1230048
O 3.8678984 3.3929175 -3.6874034
H 2.9158363 3.2643421 -3.8309398
H 3.8759772 4.3601544 -3.5715500
O 0.6620002 5.4570015 14.6310041
H 1.4770004 6.0670017 14.6520041
H 0.5090001 5.4470015 15.5530044
O -10.9150031 -11.3250032 -0.5910002
H -11.3450032 -12.0570034 -0.9550003
H -11.1880031 -11.3930032 0.3100001
O -11.6622241 1.4889058 -0.6804862
H -11.9495452 1.1295515 0.1884244
H -12.4077392 1.2731963 -1.2600220
O 5.5280015 -14.0410039 -3.8830011
H 5.9610017 -13.2910037 -3.4380010
H 5.2830015 -14.5600041 -3.0940009
O 2.1830006 -12.2310034 12.2510034
H 2.5070007 -11.2960032 12.5190035
H 3.0830009 -12.6880036 12.2720034
O 2.2020006 5.3150015 -17.7290050
H 1.4090004 5.6970016 -18.1560051
H 2.3190006 5.9390017 -16.9560047
O 6.0507569 1.6780424 -2.9041042
H 5.4168173 0.9416030 -2.7647284
H 5.4305928 2.4136522 -3.0560402
O 4.6650013 4.5740013 15.3250043
H 5.4230015 4.8110013 15.8730044
H 4.0990011 5.3860015 15.2970043
O -13.1250037 -12.7670036 3.7570011
H -13.6670038 -12.7800036 4.5140013
H -12.2870034 -13.2400037 4.1270012
O -8.0230022 0.5440002 -16.5310046
H -8.2080023 -0.4560001 -16.4490046
H -8.2920023 0.6250002 -17.4190049
O -12.9070036 5.7040016 4.3420012
H -13.0100036 6.6160019 4.6610013
H -13.0750037 5.7980016 3.3940009
O 7.8080022 2.5930007 -13.0480037
H 7.4150021 1.9830006 -13.7350038
H 7.7250022 3.4740010 -13.4160038
O 3.9906048 4.5189014 5.2605942
H 3.0220901 4.5929075 5.1495693
H 4.1390704 5.2682494 5.8743136
O -17.4810049 3.1720009 -4.0950011
H -17.2990048 2.4780007 -4.7910013
H -18.3520051 2.9010008 -3.7370010
O -0.6370002 -19.4900055 -4.3850012
H -1.4890004 -19.3230054 -3.9520011
H -0.5220001 -18.6040052 -4.8050013
O 2.5823150 -0.0056962 -4.7982790
H 3.1387181 -0.0902254 -3.9908802
H 2.5098623 -0.9565016 -5.0383553
O -0.5288062 -2.3883622 12.3562188
H 0.0240179 -2.3182168 13.1589331
H -1.0099859 -1.5450702 12.3988987
O 15.1860043 -1.0580003 9.8340028
H 15.0100042 -0.7410002 8.9340025
H 14.6470041 -0.5070001 10.4560029
O -15.3760043 -1.4580004 -10.2100029
H -14.9430042 -0.5990002 -10.3270029
H -14.7790041 -1.7550005 -9.5160027
O 5.5774222 0.6037031 -8.0129161
H 5.2183363 0.9105574 -7.1541188
H 6.0687271 -0.1951883 -7.7293622
O -0.0972856 -3.7933149 10.1042812
H 0.2653371 -3.1413858 9.4745018
H -0.1746478 -3.2459219 10.9229625
O -10.3881918 2.1037023 6.4908659
H -9.7564410 2.6122532 5.9374874
H -10.4828321 2.6725147 7.2821658
O 5.7860016 1.3240004 -14.8120041
H 5.1400014 2.0170006 -15.1040042
H 6.3240018 1.3390004 -15.5550044
O 8.3282535 2.7248350 1.8808768
H 8.0876103 2.1774929 1.0972924
H 7.5045369 3.2272092 1.9903413
O -9.2722479 0.6242899 -3.9667907
H -9.4672853 0.4009136 -3.0254503
H -9.3541378 -0.2610110 -4.3779649
O 4.1811582 -0.3044928 -2.5509356
H 4.6032367 -1.1854904 -2.4426428
H 3.8202894 -0.1525165 -1.6334908
O 2.6438397 0.4317666 13.4915539
H 3.3011456 1.1506777 13.5724126
H 2.2262052 0.6315022 12.6270821
O -11.1510031 -0.3150001 -14.0320039
H -11.2490031 0.4060001 -14.6780041
H -11.9410033 -0.8500002 -14.3040040
O -14.8860042 0.1630000 2.9420008
H -15.8530044 0.1200000 3.1370009
H -14.4940041 -0.3660001 3.6630010
O 3.1910009 -16.4360046 4.5060013
H 3.4040010 -17.3870049 4.5080013
H 2.3860007 -16.3830046 5.0600014
O 5.2320015 -3.3520009 -14.8320042
H 5.0230014 -2.4060007 -14.7610041
H 4.4230012 -3.8390011 -14.6980041
O 4.7176013 -1.9705290 5.3971348
H 5.2569926 -1.2819995 4.9526042
H 4.3641692 -2.4102535 4.5956308
O -2.9520008 -17.9980050 -3.3370009
H -3.9040011 -18.0270050 -3.5310010
H -2.7520008 -17.1140048 -3.6600010
O -3.5142768 0.4924947 -1.3432102
H -3.5257138 -0.4750003 -1.4969541
H -4.1856213 0.5156665 -0.6257678
O 15.2030043 0.2980001 -5.2660015
H 14.8930042 0.5390002 -6.1010017
H 14.3110040 0.1440000 -4.8250014
O 12.3990035 -0.6230002 14.9750042
H 11.4190032 -0.3930001 14.9410042
H 12.4560035 -1.4670004 14.4680040
O -0.1460000 -13.7020038 -0.3430001
H 0.3940001 -13.1370037 -0.9680003
H 0.1420000 -13.2930037 0.4610001
O -1.2270003 6.6530019 -15.5920044
H -0.7210002 6.2200017 -14.9090042
H -0.9150003 7.5990021 -15.4790043
O -0.6280918 8.0351666 2.6967188
H 0.0510333 8.7206829 2.8794456
H -0.0923850 7.2211843 2.6642997
O 14.9960042 -8.3460023 -2.4940007
H 14.3790040 -9.1540026 -2.5750007
H 14.8970042 -8.1580023 -1.5010004
O 16.4060046 3.9830011 -1.4080004
H 15.6720044 3.7760011 -1.9390005
H 16.8300047 3.0720009 -1.4430004
O -5.4520015 0.8830002 -15.7750044
H -6.3210018 0.7800002 -16.1870045
H -5.0180014 0.5610002 -16.6070046
O 15.2660043 -0.4270001 -1.3780004
H 14.6800041 -1.1510003 -1.6490005
H 15.2620043 -0.4920001 -0.3600001
O -15.6860044 -8.2440023 1.4930004
H -15.3520043 -7.5590021 0.9070003
H -16.6100046 -7.9390022 1.7500005
O -13.2690037 9.3680026 0.8700002
H -14.2360040 9.4020026 0.9040003
H -13.1410037 8.4720024 0.6320002
O 0.1221569 -12.3419480 1.9975169
H -0.6733158 -12.8435593 2.2706711
H 0.6334784 -12.3722813 2.8345070
O 2.7280008 6.8740019 -15.5300043
H 3.7220010 6.9520019 -15.5790044
H 2.4020007 7.6210021 -14.9180042
O 4.5404440 1.7326771 0.8141496
H 5.1359895 0.9578852 0.8434082
H 3.7995476 1.2674493 0.3281447
O 18.1660051 5.8390016 -2.2490006
H 18.1290051 6.4940018 -1.4960004
H 17.6840049 5.0560014 -1.8200005
O -3.7130010 -15.7530044 -10.3330029
H -3.1880009 -16.1640045 -11.0710031
H -3.1930009 -16.0270045 -9.5500027
O -3.8460011 -16.0270045 4.6380013
H -4.4780013 -16.3200046 5.3410015
H -4.5150013 -15.5820044 3.9800011
O -2.1499548 0.5299895 -11.3816881
H -1.3195170 0.7844334 -10.9257600
H -2.3989331 1.3711817 -11.8181012
O -2.3471942 2.2692101 7.1612463
H -2.8527485 3.0172497 6.7840368
H -1.7947244 1.9871029 6.4002086
O -0.2950001 18.6790052 4.3190012
H -0.6480002 18.4000051 5.1700014
H -1.1730003 18.7250052 3.7710011
O 15.3150043 3.2070009 5.6350016
H 15.7300044 3.2660009 4.7690013
H 14.6130041 2.6240007 5.3120015
O -12.3620035 0.5440002 -7.8660022
H -13.3290037 0.8050002 -7.8110022
H -12.0380034 1.2490003 -7.2880020
O -15.5090043 -0.7790002 11.4150032
H -15.3490043 -1.4120004 10.7110030
H -15.0710042 -1.1920003 12.2390034
O 7.2335324 -1.3026826 -6.8288055
H 8.0745309 -1.7184760 -7.0930025
H 7.5180142 -0.7271963 -6.0871997
O 0.6296632 2.3869144 9.5990560
H -0.1879196 2.9194724 9.6313271
H 1.0770013 2.7723874 8.8228725
O -2.9587824 1.2860478 -14.6336025
H -3.8705410 1.2486297 -14.9903579
H -3.0572580 1.9182381 -13.8960836
O -6.6628878 4.9883673 4.2726307
H -5.7841321 5.3770229 4.0827411
H -6.8747614 5.4488111 5.1097382
O -4.3990012 16.5470046 5.4800015
H -4.5430013 16.0690045 4.6210013
H -5.3920015 16.6770047 5.6990016
O 9.8054645 1.8980587 4.2017991
H 9.4075263 2.5053897 4.8600573
H 9.3544038 2.1775682 3.3801151
O -13.6570038 5.6980016 -3.5030010
H -12.9960036 6.3340018 -3.7740011
H -13.9460039 5.2900015 -4.3330012
O 1.4660004 -12.3200034 -1.9990006
H 1.0270003 -11.8670033 -2.7730008
H 2.4040007 -12.0420034 -2.1590006
O 3.3578852 7.6122207 -0.3034221
H 2.7667872 7.9779844 -0.9981469
H 3.2849395 8.3226288 0.3720661
O -1.0910003 7.8050022 15.6270044
H -0.4980001 7.2150020 16.1290045
H -0.5700002 8.0020022 14.8010041
O -3.3280009 -11.7420033 -13.2320037
H -3.1460009 -11.4460032 -12.3520035
H -3.4140010 -10.8770030 -13.7060038
O -5.9520017 -13.6930038 6.5220018
H -6.3660018 -12.7940036 6.3720018
H -6.7990019 -14.2520040 6.6080018
O -3.2200426 2.9155513 -12.3066803
H -2.6794883 3.7312042 -12.2049419
H -4.0239958 3.1882860 -11.8189485
O -3.8655202 4.4940002 6.5452785
H -4.6496371 3.9056682 6.4307993
H -4.2404394 5.1474619 7.1713304
O 14.1310040 5.9080017 -11.9960034
H 14.2920040 5.9910017 -11.0520031
H 13.4300038 5.2050015 -12.0440034
O 14.1570040 7.5580021 3.9630011
H 14.5940041 6.9160019 4.5260013
H 14.9370042 7.9000022 3.5040010
O -12.2070034 -10.7100030 -6.8700019
H -11.5750032 -11.4460032 -6.7060019
H -11.9490033 -10.0620028 -6.1740017
O -12.7310036 -11.2510031 7.6670021
H -13.3770037 -11.3480032 8.3710023
H -12.3880035 -10.3550029 7.9180022
O -8.1370023 10.1770028 -2.6820008
H -7.4000021 10.6770030 -3.0430009
H -8.6900024 11.0070031 -2.5310007
O 5.6020016 -11.0070031 -8.4050024
H 4.7170013 -11.4730032 -8.2520023
H 5.5260015 -10.6520030 -9.2830026
O 6.1838508 -5.9589759 9.7105180
H 5.4408804 -5.4485352 9.3343080
H 5.8951209 -6.8606031 9.5115190
O 7.2971050 10.6004375 -6.3237298
H 7.0230757 10.1689428 -5.4880655
H 8.1807957 10.9186242 -6.0458574
O 5.7160016 13.2040037 12.0880034
H 4.9180014 13.4300038 12.6230035
H 5.2740015 12.9030036 11.2440031
O -3.6806569 -1.7418771 -5.4757439
H -4.4264924 -1.1403853 -5.6708706
H -3.3147704 -1.8998755 -6.3658308
O -4.5940013 1.8110005 14.8890042
H -4.2610012 1.2970004 15.6630044
H -5.3440015 2.3450007 15.1810042
O 15.6680044 0.4620001 -8.5420024
H 15.6040044 -0.4250001 -8.9570025
H 15.1020042 1.0870003 -9.0310025
O 11.6590033 2.6950008 11.8360033
H 10.7470030 2.3800007 12.1020034
H 11.7810033 3.2680009 12.5980035
O -10.3930029 -13.1260037 -6.5510018
H -9.7610027 -13.4480038 -5.8340016
H -9.9820028 -13.3590037 -7.4090021
O -10.9890031 -11.8530033 10.6610030
H -11.7020033 -12.4180035 10.2330029
H -11.5280032 -11.1860031 11.2030031
O -10.0010028 8.0530023 -8.0560023
H -9.8620028 7.6750021 -7.2150020
H -9.1740026 8.4140024 -8.1720023
O -12.9030036 5.0150014 7.0770020
H -12.8850036 5.1970015 6.1150017
H -13.6990038 5.3540015 7.4210021
O 11.5190032 -12.6940036 -8.2620023
H 10.8850030 -13.1220037 -7.7420022
H 10.9010031 -11.9900034 -8.5940024
O 6.6470019 -9.5540027 11.6620033
H 6.6750019 -10.2250029 12.4160035
H 7.6260021 -9.5820027 11.4440032
O 8.7114091 5.4993896 -8.8612946
H 9.2393783 6.3194691 -8.8666486
H 8.3741932 5.5188916 -7.9494283
O 8.2085122 6.2231882 7.8003229
H 8.1823267 6.1423703 6.8246729
H 9.1203984 6.5577305 7.9347352
O -8.8730025 -15.2040043 4.0870011
H -8.8990025 -14.3900040 3.5520010
H -8.6300024 -15.8630044 3.4230010
O -7.1794337 6.4266902 6.6361852
H -7.0895763 7.3276783 7.0195854
H -6.5442021 5.9685224 7.2215619
O 11.2520031 4.1300012 -15.6760044
H 10.5260029 4.6500013 -16.0550045
H 11.0990031 3.2770009 -16.1750045
O 9.9522607 4.2914739 0.2645405
H 9.1474410 4.5550169 -0.2255716
H 9.5471171 3.6892919 0.9217002
O -8.6640024 -9.5580027 -14.7320041
H -7.7770022 -9.9310028 -14.5880041
H -8.5040024 -8.6110024 -14.8890042
O -8.7700025 -12.6810035 3.0200008
H -7.8520022 -12.4880035 2.7990008
H -8.9810025 -11.7750033 3.1840009
O -5.8050016 6.9870020 -17.7680050
H -5.1110014 6.3140018 -17.8590050
H -5.2790015 7.7730022 -17.5660049
O -4.5571100 3.8191801 -0.2633362
H -4.1792064 4.7230640 -0.2907998
H -4.4434877 3.6460431 0.6964810
O 8.6020024 -16.7130047 -1.8570005
H 9.2420026 -16.0780045 -2.3150006
H 8.0480023 -16.0750045 -1.4410004
O 7.3950021 4.6560013 -14.5760041
H 8.0500023 5.0610014 -15.2450043
H 6.5860018 5.0650014 -14.9680042
O 11.6041274 7.1434372 -1.6817582
H 12.0852243 7.9433073 -1.3654667
H 10.7260174 7.4049857 -1.3394568
O -10.3120029 -11.9100033 6.3330018
H -11.1180031 -11.9670033 6.8060019
H -10.3590029 -10.9730031 6.0470017
O -8.7850025 5.0080014 -13.4550038
H -8.7190024 4.3340012 -14.1980040
H -8.9020025 5.8580016 -13.8040039
O -9.9060028 9.5040027 5.7030016
H -10.8300030 9.7960027 5.8150016
H -10.1180028 8.5080024 5.9710017
O 7.9020022 -12.7240036 8.5810024
H 7.8950022 -13.6060038 8.1620023
H 7.2710020 -12.2310034 8.0330022
O 9.9870028 5.2490015 -11.6770033
H 9.6680027 4.7340013 -10.9250031
H 9.3150026 5.9700017 -11.7230033
O 7.9535580 5.7926411 5.0660434
H 8.5006350 6.1938614 4.3535777
H 7.0753974 5.8479712 4.6702162
O 0.1590000 -13.2930037 -14.1310040
H 0.3560001 -12.4260035 -13.7110038
H -0.3970001 -13.6290038 -13.4270038
O -1.4910004 -14.8980042 5.5800016
H -2.0240006 -14.1940040 5.9490017
H -2.1530006 -15.6180044 5.3190015
O 2.1974705 1.0318358 -11.1606442
H 1.3083926 1.1674464 -10.7723495
H 2.1231650 0.0869753 -11.4182156
O -1.4805904 5.3837176 5.5277994
H -1.6889138 6.3390455 5.4455315
H -2.3039554 5.0769709 5.9684327
O 15.7830044 5.4940015 0.9350003
H 16.2160045 5.1390014 0.1040000
H 15.3810043 6.2900018 0.5780002
O -14.9660042 8.6900024 -1.5750004
H -15.8570044 8.8240025 -2.0170006
H -14.5230041 9.5650027 -1.7910005
O 2.2907222 -8.9019133 -4.1343952
H 1.9643806 -7.9790894 -4.1708893
H 2.1898470 -9.1728942 -5.0674056
O 0.0350000 -11.0440031 11.0450031
H -0.6740002 -11.1730031 10.4110029
H 0.0600000 -11.8970033 11.5290032
O 1.8037725 8.9371601 -2.1837368
H 2.1088699 9.3616457 -3.0145339
H 0.9132486 8.6206001 -2.4483403
O 0.0150000 7.6320021 11.1670031
H -0.9190003 7.4600021 11.2370031
H 0.2120001 7.8650022 12.0950034
O -5.3110015 -15.0220042 -1.6750005
H -5.6190016 -14.0870039 -1.7840005
H -4.3420012 -14.9340042 -1.9200005
O -3.9218365 2.9176284 -2.7913624
H -4.1657957 3.3430081 -1.9410579
H -3.8620969 1.9922699 -2.4818151
O -5.7810016 6.2460017 16.3830046
H -5.9470017 6.4520018 17.3130048
H -6.6050018 6.4950018 15.9140045
O 13.2810037 -10.4440029 -1.7990005
H 14.0060039 -11.0530031 -1.5890004
H 12.5760035 -11.1300031 -1.7170005
O 14.2670040 7.0230020 -2.5910007
H 14.7850041 7.1500020 -1.7530005
H 13.3500037 6.8040019 -2.2880006
O -14.5530041 -8.8390025 -6.8440019
H -13.8960039 -9.4220026 -7.3410021
H -14.5370041 -9.2200026 -5.9890017
O -11.0440031 9.3140026 11.1830031
H -10.8320030 9.0340025 10.2630029
H -10.3570029 9.9090028 11.4420032
O 3.4090010 -11.8860033 -7.4740021
H 3.0930009 -11.1060031 -7.0240020
H 3.4600010 -12.4940035 -6.7430019
O 2.0564991 -9.9466981 9.5836319
H 1.3343789 -10.2479726 10.1664629
H 1.7114646 -9.0886986 9.2720909
O 5.1594615 7.2797268 -6.7612819
H 4.7766918 7.4919332 -5.8869984
H 4.3485778 7.1817667 -7.3107975
O 2.8030008 9.1880026 11.3370032
H 3.6540010 8.7800025 11.5150032
H 2.4500007 9.2910026 12.2620034
O -14.2470040 -10.1500028 -4.3180012
H -14.0600039 -11.1130031 -4.0830011
H -13.3650037 -9.7120027 -4.1310012
O -15.6110044 9.9300028 -5.2900015
H -15.3270043 10.2290029 -4.3570012
H -14.7550041 9.4570026 -5.4920015
O -14.6430041 7.0770020 10.7770030
H -15.1190042 6.3810018 11.2910032
H -14.5760041 6.6880019 9.8620028
O 3.6020761 -10.9889816 -3.0124647
H 4.0820345 -10.4430857 -2.3628959
H 3.0910695 -10.2680547 -3.4526788
O 0.6770002 -8.8780025 12.5090035
H 1.5930004 -8.7060024 12.7050036
H 0.7570002 -9.7360027 12.1340034
O 3.3647806 12.7940963 -1.8904600
H 3.9398293 12.0675124 -2.2188160
H 3.7886080 12.9733955 -1.0275462
O 0.0510000 8.9590025 13.5990038
H 0.9530003 9.1110025 13.7460038
H -0.4840001 9.7170027 14.0220039
O -11.8190033 -2.2580006 -11.6470033
H -11.3130032 -1.8410005 -12.3960035
H -12.0570034 -3.0470009 -12.1200034
O -14.3210040 -3.2050009 10.3560029
H -13.5610038 -3.1730009 10.9660031
H -13.9120039 -3.9060011 9.7360027
O 7.6070021 -6.9860020 -12.1660034
H 7.2490020 -7.8740022 -12.1920034
H 7.9310022 -6.9890020 -11.2180031
O 5.8589739 -3.2562469 7.5705980
H 5.4707730 -2.7431929 6.8276072
H 5.0867209 -3.7943776 7.8480054
O 5.1670014 16.0490045 7.2770020
H 5.6440016 16.5010046 7.9590022
H 4.3080012 16.6110046 7.3420021
O -7.6550021 -15.8090044 6.5100018
H -6.9340019 -16.4110046 6.1460017
H -8.1250023 -15.5900044 5.7080016
O -5.7180016 3.4910010 -13.9580039
H -5.5340015 2.7290008 -13.4190038
H -6.4600018 3.0490009 -14.5340041
O -5.9755253 2.7906251 6.5911040
H -6.4875300 3.0089648 7.4013104
H -6.1925609 1.8495309 6.4641049
O 11.4880032 -12.1060034 3.7520011
H 11.8090033 -12.4800035 4.5900013
H 11.7610033 -12.8000036 3.1540009
O 12.1730034 3.7020010 -13.3150037
H 11.3020032 3.8760011 -12.9170036
H 11.9340033 3.9340011 -14.1990040
O 11.5469438 6.0180238 1.6927316
H 12.2277841 5.3443785 1.8893410
H 10.9753132 5.4992529 1.0914057
O -3.3940009 -9.1400026 -14.1780040
H -2.9130008 -8.5620024 -13.6380038
H -4.0980011 -8.5600024 -14.6410041
O -3.4852640 -4.9064741 -0.5836294
H -2.8433048 -5.1766512 -1.2738752
H -4.2112457 -5.5392550 -0.7745607
O -5.2770015 -6.7170019 17.0740048
H -6.0510017 -7.3190020 16.8490047
H -4.9820014 -7.1100020 17.9340050
O -2.5090007 9.6440027 -13.7350038
H -2.5800007 9.5430027 -14.6670041
H -2.6270007 10.6520030 -13.5730038
O -3.7730011 12.0210034 0.2040001
H -2.9660008 11.4660032 0.1700000
H -3.9030011 12.1610034 -0.7580002
O 17.2670048 -6.2800018 1.5500004
H 16.5510046 -5.6420016 1.5700004
H 16.8230047 -7.0980020 1.6770005
O -17.4310049 -2.4460007 4.9520014
H -17.1650048 -3.3950010 4.6550013
H -16.7400047 -2.4070007 5.5620016
O 1.7205373 -6.9692639 -10.0812401
H 1.4914019 -7.8565095 -9.7251832
H 1.2546853 -6.4032007 -9.4357632
O -0.8801721 -5.9295059 5.3850481
H -0.2964787 -6.2821600 4.6822587
H -1.5270835 -6.6697654 5.4161362
O 2.8050008 11.9890034 -11.0020031
H 2.6600007 11.3520032 -10.2760029
H 2.5890007 12.8020036 -10.6130030
O 2.3290007 15.2780043 2.7610008
H 1.8680005 14.8110041 3.4970010
H 1.7620005 16.0670045 2.7160008
O -12.5950035 -4.5360013 -12.7470036
H -13.1010037 -4.8940014 -11.9280033
H -13.1470037 -4.7490013 -13.4420038
O -13.6480038 -1.3910004 4.8870014
H -13.9720039 -2.0160006 5.4800015
H -12.8420036 -1.0100003 5.2930015
O 7.5570021 -5.0600014 -15.6130044
H 6.9850020 -4.4060012 -15.2240043
H 6.8980019 -5.6980016 -15.9830045
O 1.6724178 -5.1798973 6.6301931
H 1.4047650 -4.3127087 6.2608731
H 0.8360418 -5.6589447 6.5046740
O 5.9320017 16.0170045 4.7230013
H 5.5560016 15.9300045 5.6560016
H 5.9270017 16.9830048 4.7090013
O -11.2989016 2.9398818 -7.0043985
H -10.9169540 3.4049635 -7.7813864
H -10.5123733 2.8959548 -6.4244703
O -14.6530041 -0.2880001 8.3190023
H -14.4090040 0.3590001 7.5950021
H -15.1620042 0.2840001 8.8950025
O 4.0985285 -2.5946723 -10.6221212
H 4.7536572 -1.8665037 -10.7121146
H 4.6246563 -3.3596332 -10.9205737
O 4.6412972 0.2986353 8.8507478
H 4.4030665 1.2076360 9.1338760
H 4.2255482 -0.2438222 9.5476415
O 4.4250012 -8.5980024 -10.3310029
H 4.2610012 -7.8110022 -10.8910030
H 5.2650015 -9.1080025 -10.5760030
O 0.9896441 -1.9883357 8.1910135
H 0.8499718 -2.4854424 7.3550815
H 1.5854964 -1.2965945 7.8229044
O 0.4568927 11.9649071 -4.3805219
H 0.4557308 12.3896720 -5.2601988
H -0.4646879 11.6530771 -4.2971821
O -0.6720002 15.5460044 10.7860030
H 0.1620000 15.0540042 10.5560030
H -0.7680002 15.3170043 11.7760033
O -3.4040010 -2.2010006 -16.7250047
H -3.6370010 -2.2340006 -15.8120044
H -2.5390007 -2.6470007 -16.7910047
O -4.2989777 1.2050062 2.9154167
H -4.2557363 2.1692563 2.7281775
H -4.7032205 1.2032160 3.7925816
O -0.2500001 16.6230047 1.3770004
H -1.1300003 17.0220048 1.5520004
H -0.2680001 16.7100047 0.4480001
O 12.4480035 -5.1930015 0.0900000
H 12.3970035 -6.1390017 0.2170001
H 11.8490033 -4.9150014 0.8280002
O -4.9709236 -4.6766011 -4.3864854
H -5.8665259 -4.9258894 -4.6840436
H -5.1765193 -3.8645963 -3.8771230
O -8.8980025 -1.6510005 15.3000043
H -8.6730024 -1.2080003 14.4670040
H -9.5580027 -2.3640007 15.1210042
O -2.1740006 16.9150047 -6.5670018
H -2.5900007 17.4640049 -5.8890016
H -2.3570007 17.4950049 -7.3520021
O 17.4300049 -0.7820002 -4.3570012
H 16.7540047 -0.2330001 -4.8310014
H 18.2570051 -0.5430002 -4.8640014
O 12.7380036 -3.1410009 13.6830038
H 12.1430034 -3.7730011 13.2280037
H 13.4540038 -3.0880009 13.0100036
O -13.0890037 -0.4790001 -4.2080012
H -12.4790035 0.1370000 -4.6740013
H -13.5270038 -0.8840002 -4.9910014
O 2.6011643 -2.6784145 -5.3329746
H 3.4845783 -2.8878503 -5.7082297
H 2.6129426 -3.2008080 -4.4966297
O -1.5810004 -0.6090002 15.1950043
H -0.5700002 -0.7360002 15.0600042
H -1.6670005 -0.2550001 14.3020040
O 3.3130009 14.4290040 -6.0850017
H 3.3180009 15.0780042 -6.7960019
H 2.6360007 13.7900039 -6.4140018
O -17.2580048 0.6430002 4.6940013
H -17.3130048 -0.2610001 4.4270012
H -16.9860048 0.6040002 5.6270016
O 2.9001084 -1.6110977 -8.2295479
H 3.5956921 -2.0088247 -7.6692112
H 3.1889762 -1.9328496 -9.1039630
O -1.7653397 -1.3305520 5.2221600
H -1.4409705 -0.4294104 5.0022211
H -2.5139615 -1.0816683 5.7983138
O -0.0980000 15.9520045 8.1770023
H 0.7750002 15.5650044 8.4000024
H -0.5750002 15.7770044 9.0310025
O 17.6160049 -4.0290011 7.7500022
H 17.5400049 -3.2940009 8.4490024
H 17.4600049 -4.8100013 8.2780023
O -13.8010039 -1.0060003 -1.5750004
H -14.6110041 -0.4600001 -1.5780004
H -13.3990037 -0.7980002 -2.4230007
O 0.3169267 -4.3929611 -1.3189530
H -0.4909810 -4.8052424 -1.6839171
H -0.0300281 -3.5935449 -0.8702082
O 0.8350002 -1.4380004 14.5470041
H 1.2820004 -0.8150002 13.9080039
H 1.4770004 -1.3290004 15.2500043
O 0.5640002 16.0110045 -4.7950013
H 0.5120001 15.1770042 -5.2630015
H 1.1920003 15.9160045 -4.0210011
O -5.5250015 -4.4190012 -15.7350044
H -6.3240018 -3.9870011 -15.3920043
H -4.8450014 -3.9740011 -15.1890043
O -11.2557228 -0.3373611 5.6961845
H -10.9984270 0.4597259 6.2119913
H -10.9338139 -0.0319041 4.8208124
O -2.5020007 14.9500042 -9.7500027
H -2.4200007 15.8820044 -10.1460028
H -3.3070009 15.1570042 -9.1430026
O -4.7840013 15.3660043 3.1330009
H -5.4260015 14.7330041 2.7940008
H -4.1390012 15.3130043 2.3490007
O 11.2777171 -4.1997373 2.3092116
H 11.4190472 -3.2482165 2.4821131
H 10.6638770 -4.4392068 3.0386503
O 13.5450038 13.6440038 3.4620010
H 14.2580040 12.9990036 3.8480011
H 13.1830037 13.9230039 4.3860012
O 0.2407453 -5.5508749 -8.2755820
H 0.1553096 -4.6348295 -7.9536497
H -0.5328911 -5.6528044 -8.8637696
O -5.0478344 -4.0265343 9.7052255
H -4.1948978 -4.2956254 10.1175321
H -4.8783144 -4.2493584 8.7689450
O -0.1550000 13.3830037 -9.5350027
H -0.9360003 14.0040039 -9.5800027
H 0.6530002 13.8660039 -9.8440028
O -0.7620002 12.2300034 7.6840022
H -1.1640003 12.8800036 7.0030020
H 0.0660000 12.7570036 7.9630022
O 15.1710042 -4.3760012 6.2870018
H 15.9690045 -3.9480011 6.5310018
H 14.5120041 -3.9430011 6.8450019
O -8.5998011 -6.7864261 -0.6702938
H -8.1295968 -7.6348408 -0.7092311
H -9.3755901 -6.9433437 -1.2480729
O -9.2370026 12.7670036 -2.6620007
H -10.0120028 12.6300035 -3.2230009
H -9.6350027 13.1240037 -1.9180005
O 10.3707610 -6.2452147 -2.2967005
H 10.0546569 -5.6617320 -1.5645680
H 10.8823207 -5.6200370 -2.8366718
O 6.9150019 -2.8570008 16.1870045
H 6.7520019 -3.4000010 16.9180047
H 7.8480022 -2.7380008 16.2890046
O 9.3280026 13.4410038 -3.1740009
H 9.6050027 14.1780040 -3.7570011
H 8.6210024 13.8190039 -2.5750007
O -7.4689560 -5.2271053 -5.5870673
H -7.3335734 -4.3583543 -6.0368845
H -7.2920323 -5.7827707 -6.3778798
O -7.5220754 -4.2164371 10.8581076
H -6.6966741 -4.1445215 10.3317095
H -8.1405827 -3.6449674 10.3822734
O -5.9540017 16.3770046 -5.7620016
H -6.0190017 17.1600048 -5.2000015
H -6.5090018 16.6240047 -6.5460018
O 10.1030028 -5.8530016 -7.5080021
H 10.9850031 -6.3800018 -7.5780021
H 10.1960029 -5.3020015 -8.3040023
O 12.4440035 -3.8350011 10.2750029
H 11.9740034 -3.0480009 9.8280028
H 11.7670033 -4.4940013 10.2160029
O 9.7250027 15.3230043 -5.1600014
H 10.3230029 14.8590042 -5.7220016
H 9.2020026 15.7920044 -5.8510016
O -17.6530049 -0.9360003 -1.0040003
H -18.6760052 -0.8670002 -1.0980003
H -17.5280049 -0.5510002 -0.1360000
O 2.3890007 -18.2730051 -0.9480003
H 2.1690006 -17.3260048 -1.3030004
H 2.4110007 -18.1830051 0.0730000
O 2.9410008 -0.5280001 -15.8100044
H 3.7040010 -0.8090002 -16.2980046
H 3.3140009 -0.4650001 -14.8740042
O 3.9325619 -2.9270394 2.9208664
H 4.1927409 -3.0897269 1.9913000
H 3.2394744 -2.2486342 2.7582270
O -0.3900001 -2.0270006 18.6680052
H -0.0300000 -1.2580004 18.1970051
H -0.0220000 -2.7890008 18.2050051
O 2.1300006 18.8340053 0.1270000
H 2.4510007 19.4190054 -0.5660002
H 2.1160006 17.9840050 -0.3110001
O 18.1510051 -1.2260003 3.3700009
H 18.4080052 -1.8380005 2.6110007
H 18.0860051 -1.9480005 4.0470011
O 1.3660004 -4.8160013 -17.7050050
H 0.6050002 -5.2830015 -18.1710051
H 1.7560005 -5.5650016 -17.1920048
O -1.9872319 -2.6162658 -3.5831489
H -2.6159691 -2.3221149 -4.2828239
H -2.5996621 -2.6723133 -2.8212962
O -2.6140007 -5.4430015 16.6760047
H -3.4940010 -5.7160016 17.0050048
H -2.8130008 -4.4600012 16.3510046
O -1.4400004 15.6000044 -1.4120004
H -2.3410007 15.3370043 -1.7520005
H -0.9260003 14.7790041 -1.5190004
O 16.0680045 -4.1350012 -1.6470005
H 16.7230047 -4.7930013 -1.9660006
H 16.5920046 -3.2920009 -1.7140005
O -6.0470469 -2.5112599 -2.9342518
H -6.9442289 -2.8462228 -2.7369303
H -6.2392890 -1.5714578 -3.1387740
O -7.8800022 -1.1860003 12.7690036
H -8.0720023 -1.6440005 11.9560033
H -7.0140020 -0.6690002 12.6070035
O -4.7340013 17.5420049 -2.4170007
H -5.4110015 18.1370051 -2.7590008
H -4.0650011 18.2100051 -2.2900006
O 12.1770034 -2.4110007 -3.3700009
H 12.2830034 -3.3220009 -3.5960010
H 12.3000034 -2.4570007 -2.3600007
O -17.3010048 0.4350001 -4.8700014
H -17.7980050 -0.3010001 -4.4690013
H -17.2360048 0.0490000 -5.7610016
O -0.5621311 -4.5246826 -4.8447150
H -0.2056512 -4.0726229 -5.6331747
H -0.9875177 -3.7664688 -4.3834752
O -4.9220014 -2.7900008 15.6770044
H -3.9140011 -2.8990008 15.6080044
H -5.1920015 -2.9000008 14.7340041
O 0.6960002 13.5120038 -6.8050019
H -0.1360000 13.9920039 -6.7370019
H 0.8070002 13.6400038 -7.7720022
O 14.8240041 -3.5160010 11.1820031
H 15.2270043 -2.8360008 10.6400030
H 13.8940039 -3.5850010 10.8680030
O -17.5800049 -4.0380011 0.4240001
H -17.5020049 -3.1310009 0.3910001
H -18.4780052 -4.2710012 0.1560000
O 2.5240007 -5.3990015 -14.3900040
H 2.5640007 -5.8310016 -13.5260038
H 2.4930007 -6.1180017 -15.0570042
O 6.1194362 -8.2215146 0.1256082
H 5.2843837 -8.2986056 -0.3921314
H 6.2679301 -7.2496987 0.0670429
O 7.1090020 16.1620045 0.6600002
H 7.9640022 15.7490044 1.0420003
H 6.4380018 15.7850044 1.2470003
O -16.8870047 -0.7860002 -7.1630020
H -17.1720048 -1.7110005 -7.0890020
H -17.2710048 -0.5910002 -8.0390022
O -2.1717870 -2.4773635 -7.6501723
H -2.2105363 -2.7946961 -8.5806242
H -1.2311196 -2.6723759 -7.4431535
O -5.3179055 -1.3244331 10.0943613
H -6.2568721 -1.1791323 9.8708204
H -5.2457759 -2.2985968 10.0441782
O 15.3670043 -1.8230005 -9.8670028
H 14.6530041 -2.4120007 -9.6100027
H 15.8600044 -2.3360007 -10.4330029
O 13.8450039 -2.2550006 7.3320021
H 12.9310036 -2.2880006 7.6180021
H 14.0480039 -1.4620004 6.9320019
O -11.3280032 -9.1880026 -9.5670027
H -10.7050030 -8.9270025 -10.2730029
H -10.9710031 -10.0310028 -9.2530026
O -11.9760034 -8.6760024 8.4280024
H -12.2530034 -8.6880024 9.3390026
H -11.1400031 -8.1420023 8.4750024
O -12.5660035 9.3310026 -10.7020030
H -11.9880034 10.1110028 -10.7160030
H -11.9990034 8.6250024 -11.0080031
O -12.3210034 10.1150028 6.5980018
H -11.8380033 10.6630030 7.2940020
H -13.1450037 9.9330028 7.0510020
O 4.7048228 -9.2804821 6.9238974
H 4.4261769 -8.3835073 6.6203858
H 5.1723282 -9.0632224 7.7606773
O 6.0619824 8.8519681 -11.0437441
H 5.9593398 8.9937225 -10.0830919
H 6.3257851 9.7438547 -11.3299446
O 6.7760019 7.8680022 9.4080026
H 7.2050020 8.6830024 9.1750026
H 7.3580021 7.3200020 8.8640025
O -6.5264562 1.0270946 -12.6530281
H -7.3312503 0.4836247 -12.7113136
H -6.0766540 0.6184920 -11.9014679
O -7.8950022 7.3520021 10.5790030
H -7.1600020 7.8060022 10.1000028
H -8.3030023 6.8790019 9.8110027
O 10.8420030 -14.6440041 5.7740016
H 10.0450028 -14.6990041 6.2830018
H 10.6220030 -15.0420042 4.9170014
O 12.8790036 2.1070006 5.5830016
H 13.0910037 2.0090006 6.5370018
H 11.8810033 2.1100006 5.4890015
O -0.5650002 -3.3180009 -16.2490045
H 0.3230001 -3.5310010 -16.5020046
H -0.5250001 -2.3740007 -16.0220045
O -1.9468977 -5.5093912 1.6657632
H -2.5967093 -5.2265544 0.9873061
H -2.2270034 -4.9880871 2.4388810
O -3.3790009 0.3310001 17.0170048
H -3.3590009 -0.3490001 17.6640049
H -2.7730008 -0.1810001 16.4340046
O -1.0110003 17.9290050 -3.3620009
H -0.5150001 17.3120048 -3.9410011
H -1.4410004 17.3130048 -2.7340008
O -6.3273641 -7.6096984 -3.9358312
H -6.6787514 -8.5146534 -4.1214641
H -7.0132736 -7.0785221 -4.3619949
O -5.5560016 -4.1340012 12.9760036
H -6.1940017 -4.4080012 12.3060034
H -4.8510014 -4.7830013 12.7710036
O -2.2596182 10.8905311 -4.1287285
H -2.1915922 10.8765276 -5.1041153
H -2.5488794 9.9799573 -3.9171103
O 12.1690034 -4.9550014 -4.6280013
H 12.8990036 -5.2750015 -4.0230011
H 12.2470034 -5.5590016 -5.4110015
O 10.5240029 -4.7060013 13.0740037
H 10.1480028 -3.8550011 12.7050036
H 9.7100027 -5.2650015 12.9190036
O 12.6400035 11.5500032 -3.3930009
H 13.6250038 11.4220032 -3.2070009
H 12.4510035 10.6350030 -3.6160010
O 10.8630030 7.1210020 14.6950041
H 10.4390029 7.0680020 13.7410038
H 10.4250029 6.3240018 15.0410042
O -1.5830004 -5.7960016 -15.1960043
H -2.2730006 -6.1040017 -15.8330044
H -1.3250004 -4.9150014 -15.6030044
O -6.8028307 -2.8648602 4.3991248
H -6.9205420 -2.7551722 5.3630635
H -7.1834590 -2.0167696 4.0822177
O -6.7260019 -4.3980012 17.1410048
H -6.2300017 -5.2080015 16.8280047
H -6.1550017 -3.7310010 16.8450047
O 1.9780006 16.4530046 -1.3700004
H 1.8170005 15.6310044 -0.9220003
H 2.4860007 16.1430045 -2.1250006
O 17.8070050 -2.9750008 1.2190003
H 17.4540049 -2.9810008 0.3430001
H 18.7650053 -3.1210009 1.0210003
O -0.7520002 -17.1290048 -5.9010017
H -1.4950004 -17.3320049 -6.5000018
H -0.0140000 -17.2430048 -6.5950018
O 1.0341546 0.2785232 -7.3773359
H 1.6300997 -0.3606054 -7.8338414
H 1.5303513 0.3853100 -6.5476390
O -1.5332074 0.2944486 12.5539569
H -2.0828066 0.1348419 11.7495351
H -1.8831585 1.1820271 12.7974329
O -10.2150962 0.9304675 3.4875113
H -10.8932725 0.8947327 2.7803468
H -10.0250523 1.8836771 3.5369687
O 6.2440017 -16.7970047 3.7920011
H 5.3940015 -17.1920048 3.6970010
H 6.1110017 -16.2740046 4.6550013
O 4.5340013 2.9500008 -16.7930047
H 3.6180010 3.1260009 -16.8280047
H 4.7160013 2.3500007 -17.4890049
O 5.8457758 4.1342506 1.0264756
H 6.4448921 4.2861657 0.2679163
H 5.4620731 3.2521930 0.8195257
O 1.6280005 1.9530005 19.1370054
H 1.3400004 1.3040004 18.5300052
H 0.9000003 2.6290007 18.8830053
O -15.1260042 -4.4050012 -7.2470020
H -15.9240045 -3.7480010 -7.2500020
H -15.1430042 -4.8930014 -6.3530018
O 5.6300016 -8.5420024 -6.2630018
H 5.3050015 -7.8600022 -6.8680019
H 4.9570014 -9.2040026 -6.3070018
O 2.2058328 -4.8545798 12.7231785
H 2.1446504 -5.2866024 11.8465149
H 2.9825138 -4.2827242 12.5618553
O 4.2610559 11.2149201 -6.5107929
H 3.7592784 11.1367028 -7.3445347
H 5.1281923 10.8913701 -6.8103342
O -16.1750045 3.9660011 5.9950017
H -15.8320044 3.1400009 6.2200017
H -17.1540048 4.0380011 6.0730017
O -0.6140002 -13.8930039 -11.4460032
H -0.2170001 -14.2860040 -10.6680030
H -1.0360003 -14.7140041 -11.7060033
O -0.6770002 -18.7140052 6.2110017
H 0.1540000 -18.4190052 6.4800018
H -0.8660002 -18.2750051 5.3740015
O 4.8350014 -0.9180003 -13.6690038
H 5.0680014 -0.9600003 -12.7890036
H 5.3490015 -0.1410000 -14.0230039
O -0.9910336 1.3349589 4.9151029
H -0.0057970 1.2516197 4.9500483
H -1.0771386 2.0276388 4.2305794
O 3.4610010 19.3370054 2.4380007
H 2.9510008 18.9450053 1.6390005
H 4.3590012 18.9500053 2.3870007
O -14.2500040 -1.4810004 -6.4920018
H -14.9420042 -0.9020003 -6.8740019
H -13.9180039 -2.0430006 -7.2300020
O -11.4710032 12.6340035 -4.9380014
H -10.9130031 13.2590037 -5.3840015
H -11.4940032 11.9060033 -5.5980016
O 5.6494883 -2.6047240 -2.2533687
H 6.0689931 -3.1707282 -2.9411159
H 6.4411588 -2.1831609 -1.8668287
O 4.3821957 -3.2795082 11.6512644
H 3.8308324 -2.5976605 11.2145101
H 5.2161261 -3.1668768 11.1566751
O 2.9740008 16.3710046 -8.1520023
H 2.1730006 16.9750048 -8.3040023
H 3.5980010 17.0310048 -8.5090024
O -0.5720002 -16.6810047 1.4560004
H 0.3030001 -17.1390048 1.4520004
H -1.0050003 -17.1690048 0.7060002
O -5.3782738 0.1353712 0.6153778
H -5.5782848 -0.8101289 0.7898087
H -5.1097676 0.4503648 1.5059186
O 13.6800038 1.4760004 2.9460008
H 14.5200041 1.3490004 3.3760009
H 13.1030037 1.6930005 3.7180010
O -14.9700042 1.3950004 -7.9430022
H -15.5410043 1.8840005 -8.5920024
H -15.4350043 1.5840004 -7.1340020
O 1.1780003 -14.3580040 -4.9820014
H 1.9080005 -13.8760039 -4.5220013
H 1.6190005 -15.2060043 -5.0350014
O 4.4757849 1.7339752 -5.7740102
H 4.4201991 2.3254047 -4.9955263
H 3.7843452 1.0831346 -5.5344336
O -2.8250008 2.6630007 13.0670037
H -3.5140010 2.4270007 13.7290038
H -3.3230009 3.3510009 12.6010035
O -6.0430017 -1.3960004 -14.1140040
H -6.0240017 -1.3880004 -13.1380037
H -5.8450016 -0.4420001 -14.3150040
O -10.1370028 0.5840002 10.0780028
H -10.8720030 0.0570000 9.6680027
H -10.5720030 1.4480004 9.9420028
O 12.6370035 0.8320002 -13.5610038
H 12.3670035 1.6860005 -13.1910037
H 12.8850036 0.2780001 -12.7700036
O 8.8885137 -0.4415345 5.4174366
H 8.1588943 -0.2003606 6.0350096
H 9.0962723 0.4232941 5.0082092
O 1.8105586 -1.6041793 -11.7132207
H 1.7094801 -1.9573237 -12.6231252
H 2.6290881 -2.0572784 -11.4151553
O -1.8194873 -1.7112092 8.3895464
H -1.9948838 -2.6197761 8.0473405
H -0.8456410 -1.6802760 8.3329179
O -3.9920011 15.1030042 8.9760025
H -4.8330014 14.6470041 8.8050025
H -3.4640010 14.2790040 9.0930025
O 16.2790046 0.5810002 4.1550012
H 16.8490047 -0.1870001 4.0630011
H 16.7780047 1.2380003 3.6600010
O -12.2330034 5.8710016 -12.3480035
H -11.6360033 5.0890014 -12.3900035
H -12.0540034 6.3000018 -11.5180032
O -14.6460041 10.6040030 4.3230012
H -15.2150043 10.8920030 3.5380010
H -14.9710042 11.1730031 5.0250014
O 3.4240010 -12.8380036 -13.2910037
H 3.8360011 -11.9680033 -13.5290038
H 3.1520009 -12.6540035 -12.3640035
O 1.1700003 -16.1410045 6.3610018
H 0.3060001 -15.7400044 6.0950017
H 0.8410002 -16.5740046 7.2200020
O 3.2738506 2.9666859 -12.7267840
H 2.8242671 2.2336765 -12.2529271
H 4.1904388 2.8065460 -12.4321332
O 1.2422814 5.0042673 5.1275667
H 1.1685513 5.2233148 4.1809657
H 0.3271067 5.2010030 5.4198843
O 18.9190053 1.3450004 2.7960008
H 18.5880052 0.5060001 3.1380009
H 19.4080054 1.1390003 2.0280006
O -11.2510031 -1.8240005 -7.0430020
H -11.5870032 -2.5470007 -7.6080021
H -11.3390032 -0.9440003 -7.5190021
O -11.9940034 -3.2150009 12.6320035
H -11.6630033 -3.6260010 13.5390038
H -12.6100035 -2.5090007 12.9330036
O -9.5260027 14.5750041 -5.4300015
H -9.3330026 15.3360043 -4.8460014
H -9.2890026 15.1210042 -6.2060017
O 10.0230028 -2.4520007 -7.5720021
H 10.2910029 -3.0280008 -8.3040023
H 10.5580030 -1.6290005 -7.7030022
O 7.6630021 -0.7490002 11.8860033
H 7.4320021 -1.3310004 11.1830031
H 6.7700019 -0.6330002 12.3780035
O -8.6940024 -0.9460003 -13.0360036
H -8.5800024 -1.7190005 -13.6520038
H -9.5110027 -0.5070001 -13.4220038
O -9.2920987 5.5878943 8.8235363
H -9.9450295 4.8553519 8.8669499
H -9.4950516 5.9600961 7.9474452
O 9.9750028 -15.7950044 3.2190009
H 9.5520027 -16.6400047 3.0560009
H 9.3040026 -15.2240043 2.8940008
O 10.1600028 1.6750005 -11.6550033
H 9.2650026 2.0010006 -11.9770034
H 10.2650029 0.7650002 -12.1790034
O 9.1093351 7.0540502 2.9089511
H 8.6333464 7.2202776 2.0692461
H 10.0109472 6.8509318 2.5848343
O -12.3840035 -12.3370035 -3.5350010
H -12.0670034 -12.9850036 -2.9040008
H -13.3080037 -12.8110036 -3.4830010
O -9.2579493 5.5031944 -6.1679170
H -9.1634881 4.5445073 -5.9704909
H -8.7478196 5.5731224 -7.0025089
O -13.9110039 3.9780011 12.1700034
H -13.8440039 3.3780009 12.9340036
H -14.8240041 4.2540012 12.1490034
O 8.0550023 -15.4260043 -5.0740014
H 7.2670020 -15.1690042 -4.5250013
H 7.6290021 -15.5270043 -5.9350017
O 8.3760460 7.1555908 -4.4709805
H 8.8638189 6.5152207 -3.9052602
H 8.1029046 6.5631995 -5.1975470
O 7.3280021 5.6620016 13.3570037
H 8.1830023 5.7730016 12.8460036
H 7.4210021 4.7990013 13.8110039
O -15.2290043 -12.5620035 2.1650006
H -14.3700040 -12.8650036 2.5610007
H -15.5400043 -11.8540033 2.7220008
O -12.3793409 0.3518145 1.7138673
H -13.2556991 0.4392312 2.1445906
H -12.3820928 -0.5940762 1.4636988
O 6.1580017 -17.4430049 0.7700002
H 6.0520017 -16.9440047 -0.0270000
H 5.7690016 -18.2550051 0.5710002
O 5.6522850 -0.8076726 0.8763690
H 5.0514224 -1.5599905 0.6983692
H 6.3579856 -0.9813894 0.2264851
O -3.5310010 2.3260007 18.9870053
H -3.5340010 1.7450005 18.1130051
H -4.4610012 2.1330006 19.1840054
O -18.0120050 4.9980014 -0.8700002
H -17.1890048 4.9210014 -1.4510004
H -17.8310050 5.9040017 -0.4810001
O -0.7020002 -15.9480045 -3.4170010
H -0.3280001 -15.2040043 -3.8870011
H -1.0260003 -16.4980046 -4.1420012
O -0.6510002 5.7120016 -17.9450050
H -0.8290002 6.1470017 -17.0860048
H -1.5210004 5.8240016 -18.2750051
O 0.6394758 5.8563129 -1.7539272
H 0.0163632 5.5618800 -1.0538274
H 0.1377362 6.6149016 -2.1258406
O -0.9320003 3.1660009 18.5590052
H -1.1990003 3.7740011 17.8970050
H -1.7000005 2.6190007 18.6220052
O 14.4080040 2.2360006 -2.3870007
H 14.4040040 1.3890004 -1.8580005
H 13.7480038 2.8710008 -2.0000006
O 12.0960034 4.2730012 14.1200040
H 12.8830036 4.8190013 14.2540040
H 11.3160032 4.7170013 14.5650041
O -4.5090057 3.2819427 -8.1764677
H -4.2016453 2.8990162 -7.3238278
H -4.4026824 2.4549183 -8.7086016
O -6.1110017 0.7540002 12.7640036
H -6.7210019 1.5580004 12.7370036
H -5.4660015 0.9900003 13.4390038
O 12.1580034 -0.5230001 -8.3250023
H 12.7650036 0.0570000 -7.7830022
H 11.6440033 0.2290001 -8.6380024
O 9.9930028 0.5320001 9.6150027
H 9.0020025 0.5370002 9.5700027
H 10.1960029 1.1810003 10.3220029
O -3.5270010 -15.4840043 -4.3260012
H -4.4260012 -15.0780042 -4.2400012
H -3.0370008 -14.7480041 -4.6760013
O -1.5712925 2.1718834 -0.1076446
H -2.2803862 1.7150044 -0.5958008
H -1.4923111 1.5668448 0.6575101
O 0.5330001 2.1110006 15.0860042
H 1.1340003 2.0040006 14.3240040
H -0.1240000 2.7900008 14.7510041
O 16.0470045 2.8360008 -4.6070013
H 15.4890043 2.6630007 -3.7780011
H 16.0120045 1.8850005 -5.0290014
O -17.1730048 8.2340023 4.0720011
H -17.0830048 8.2160023 5.0830014
H -16.6610047 7.4640021 3.9020011
O 0.1730000 -10.6150030 -13.2690037
H 0.8270002 -10.0750028 -12.8660036
H -0.5750002 -10.5040029 -12.5230035
O -0.5823017 -11.3475753 5.7824498
H -0.0991530 -11.8405231 5.0963559
H -0.4923739 -11.9593288 6.5365943
O 0.2561558 6.2176088 -13.2902281
H 1.1687752 5.9250648 -13.0841786
H 0.3696596 7.1938322 -13.2917129
O -2.4340898 7.8817971 4.8232839
H -2.4557197 8.7154568 5.3320112
H -1.8261535 8.1010173 4.0875420
O -2.5987320 -10.6821611 -2.3935843
H -3.2540598 -10.6292855 -1.6602521
H -1.9163327 -10.0703326 -2.0456168
O -8.3480023 -9.0120025 13.4690038
H -8.0380022 -9.9170028 13.6630038
H -8.3550023 -8.8790025 12.4720035
O -0.6181472 7.9234167 -3.0229025
H -0.5009451 7.9162721 -3.9991358
H -1.5765483 8.1151755 -2.9609104
O -2.7680008 8.6140024 13.8640039
H -2.3270007 8.3740023 14.6720041
H -2.1430006 9.2530026 13.5890038
O 11.7250033 -9.1760026 -6.4400018
H 11.4530032 -9.0900025 -5.4770015
H 12.0870034 -10.1140028 -6.3890018
O 16.7530047 7.9590022 -3.4810010
H 17.1170048 7.0770020 -3.1870009
H 15.7900044 7.6120021 -3.3390009
O 9.5980027 4.9270014 15.4950043
H 8.6650024 4.7290013 15.3320043
H 9.5500027 5.0250014 16.4620046
O -13.9880039 5.6310016 1.9490005
H -13.7670039 6.0490017 1.0430003
H -14.2560040 4.7650013 1.7790005
O 3.8260011 -13.9840039 3.3100009
H 4.3010012 -14.4810041 2.6340007
H 3.5660010 -14.7580041 3.8680011
O 1.9910006 4.0360011 -15.0200042
H 2.3340007 3.6180010 -14.2200040
H 2.5240007 4.8580014 -15.0180042
O -1.2226754 3.6922088 3.4144097
H -0.4676425 4.1300414 2.9848254
H -1.3237665 4.2585233 4.2108968
O -13.6280038 3.8050011 -5.6880016
H -13.0410036 3.5950010 -6.4430018
H -14.5150041 3.6620010 -6.1430017
O -15.7790044 2.1920006 9.2170026
H -16.3500046 2.5960007 9.9080028
H -16.4730046 1.8460005 8.5420024
O 4.6620013 -15.8140044 -5.9060017
H 3.9260011 -16.3930046 -5.6440016
H 4.6700013 -15.0780042 -5.2240015
O 4.8160013 -13.5550038 8.1700023
H 5.1050014 -12.8590036 7.5570021
H 3.9010011 -13.1700037 8.3720023
O 5.3269723 3.7184385 -7.4898388
H 4.6357133 3.4299430 -8.1186862
H 5.1704776 3.0512693 -6.7916849
O 3.8638179 2.9463660 9.2842542
H 4.6051292 3.5666248 9.1395429
H 3.2008757 3.2889579 8.6473313
O -9.9100028 8.3690023 -11.7480033
H -10.5100029 8.8210025 -12.2890034
H -9.0760025 8.8580025 -11.9710034
O -12.4860035 10.9560031 2.8690008
H -12.6410035 10.3110029 2.1880006
H -13.2630037 10.9860031 3.4070010
O 1.4767867 -12.6279524 4.3477840
H 1.9162203 -11.9004554 4.8376442
H 2.2498155 -13.1396409 4.0464770
O 2.7973044 5.6345620 -12.3108782
H 3.7621916 5.8333448 -12.3548542
H 2.8709343 4.6598082 -12.3876216
O 4.0930550 9.4893955 4.8475671
H 4.6060300 9.4040379 5.6799531
H 3.1899148 9.3947281 5.2160098
O -8.5900024 -13.7090038 -4.1450012
H -8.7930025 -14.4100040 -3.4720010
H -8.8920025 -12.9170036 -3.7590011
O -8.5070024 9.3220026 -5.3120015
H -8.4910024 8.4690024 -4.8180013
H -7.5590021 9.3650026 -5.5630016
O -11.2390031 11.4530032 8.5570024
H -10.3610029 11.3530032 8.7840025
H -11.6200033 11.4490032 9.4080026
O 8.3870023 -13.8100039 -8.8040025
H 8.3470023 -13.3350037 -7.9140022
H 7.4170021 -13.9130039 -8.8390025
O 5.7640016 -7.7810022 13.9260039
H 6.3880018 -8.0210022 13.2950037
H 6.0700017 -6.8940019 14.2700040
O 9.9460028 7.9440022 -8.0430023
H 10.4100029 8.2360023 -8.7970025
H 9.6950027 8.7650025 -7.5970021
O 7.5950021 9.5270027 11.4730032
H 8.4920024 9.1400026 11.2070031
H 7.0330020 8.8480025 11.0970031
O -5.1330901 -4.7303695 -12.1084563
H -6.0530134 -4.3988480 -12.1775410
H -5.0030302 -4.7186867 -11.1356347
O -6.1926984 -7.0996434 6.6398752
H -6.0395578 -7.6355477 7.4388295
H -6.7931317 -7.7219272 6.1753006
O -0.8640002 11.3890032 -11.3040032
H -0.6370002 12.1010034 -10.7090030
H -0.7510002 10.5740030 -10.7490030
O -3.8320011 13.5570038 6.6310019
H -3.3480009 13.4620038 5.7560016
H -3.4510010 14.4090040 6.9800020
O 11.5400032 -3.7070010 -12.6990036
H 10.6040030 -3.9610011 -12.9290036
H 11.8450033 -4.5940013 -12.5620035
O 11.5890032 -6.0850017 7.1840020
H 11.2780032 -6.8000019 6.6080018
H 12.5230035 -6.4300018 7.4250021
O 8.2550023 9.9150028 -13.4280038
H 8.4780024 10.5770030 -14.1100039
H 7.8210022 10.4450029 -12.7210036
O -11.2920032 -13.7810039 -1.4470004
H -10.7430030 -13.9600039 -0.6600002
H -10.9410031 -14.5080041 -2.0360006
O -10.8474242 4.2260094 -3.2353808
H -10.0918465 3.7000070 -2.8909187
H -11.5241740 3.5349881 -3.3608225
O 3.7790011 -16.0220045 -2.8370008
H 4.4970013 -16.6150047 -2.7730008
H 3.2210009 -16.4950046 -3.5420010
O 4.4920013 -13.5820038 12.4550035
H 4.6770013 -14.5510041 12.4000035
H 5.3490015 -13.1360037 12.2210034
O 7.8157644 0.5500762 -4.8225109
H 7.2121006 0.9389851 -4.1551531
H 8.1104352 1.3651046 -5.2822066
O 2.8382947 -1.3832824 10.3193276
H 2.2778691 -1.7564253 9.6172852
H 2.1928855 -0.7845846 10.7559161
O -6.0810017 -11.3940032 -14.3630040
H -5.6080016 -12.1820034 -14.0670039
H -6.1250017 -10.8960030 -13.5330038
O -5.9500017 -12.5750035 2.4990007
H -5.1240014 -12.4470035 2.9780008
H -5.6210016 -12.7070036 1.6270005
O -6.0843194 5.8055806 -12.4521129
H -5.7650003 5.1961427 -11.7534500
H -6.2038631 5.1404188 -13.1578184
O -8.1303986 7.9670842 2.2190278
H -8.0926239 8.2245258 1.2722551
H -8.8431458 8.5759897 2.5311529
O 10.0330028 -9.8010027 2.7220008
H 10.5860030 -10.4510029 3.2050009
H 10.7630030 -9.3260026 2.2040006
O 12.3600035 8.6370024 2.1880006
H 13.0810037 8.3910023 2.7880008
H 12.3030034 7.7080022 1.8180005
O -14.6590041 5.0770014 -9.7970027
H -15.0810042 5.3540015 -10.6530030
H -14.3980040 4.1800012 -10.1200028
O -3.3740009 -13.1960037 7.5540021
H -3.8080011 -12.3560035 7.7590022
H -4.0980011 -13.7130038 7.1560020
O -0.0940088 1.4778369 -9.7711367
H 0.2708377 1.1826488 -8.9148802
H -0.2170872 2.4413370 -9.6321363
O 0.0710742 7.7323957 6.9823179
H 0.2860271 6.9634858 7.5364655
H -0.8048749 7.9470189 7.3759335
O -3.1600009 -15.7620044 -7.2070020
H -2.7870008 -16.6180047 -7.5130021
H -3.5760010 -16.1660045 -6.4320018
O -2.6140007 -15.4080043 9.1790026
H -2.6600007 -15.0780042 10.0460028
H -2.6750007 -14.5120041 8.7740025
O 1.1773413 5.4144623 -6.0492502
H 0.5360475 4.6948290 -6.0447528
H 1.6517972 5.2125487 -6.8865946
O -2.1370006 4.3900012 15.9180045
H -3.0390009 4.1240012 15.6300044
H -1.9080005 5.0710014 15.2760043
O 16.2560045 5.2620015 -5.6980016
H 15.7270044 4.6150013 -5.1550014
H 17.0300048 4.6200013 -5.8070016
O 15.3040043 5.2850015 9.3830026
H 15.9800045 4.6950013 8.9500025
H 14.9580042 4.5410013 9.8260028
O -5.2650015 -17.5070049 -6.0490017
H -5.9320017 -17.0750048 -6.5540018
H -5.6990016 -17.3060048 -5.1950015
O -5.4796523 0.3204837 -5.8790680
H -5.8317174 0.3701737 -4.9627161
H -4.8246732 1.0482886 -5.8796281
O -7.7280022 2.7990008 13.5460038
H -8.6610024 3.0640009 13.6810038
H -7.3980021 2.6710007 14.4500040
O 13.2130037 1.2870004 -6.6200019
H 12.7800036 0.7990002 -5.8370016
H 12.9760036 2.1930006 -6.3990018
O 9.2330026 1.6670005 12.3760035
H 8.8520025 0.9170003 12.0270034
H 8.4260024 2.2380006 12.3440035
O 3.7348690 -6.3054601 -11.8362473
H 4.3814944 -5.5772677 -11.7614468
H 3.1113096 -6.1468474 -11.1008748
O 0.8770193 -5.2366605 1.2268832
H -0.0534330 -5.4245861 1.4527381
H 0.8082367 -5.0499051 0.2691494
O 3.4850010 12.0140034 3.8290011
H 2.5430007 12.2110034 3.9410011
H 3.5940010 11.0880031 4.1260012
O 18.4580052 -5.9760017 4.1250012
H 17.7280050 -6.4310018 4.5680013
H 18.0960051 -6.0240017 3.2450009
O -12.6760035 -6.2990018 -4.8780014
H -12.6070035 -5.3350015 -4.6060013
H -13.5020038 -6.4650018 -4.4100012
O 2.4618939 -4.1100677 -3.0143168
H 3.2228966 -4.4711525 -2.5038292
H 1.7560436 -4.1296233 -2.3313489
O 0.7920002 -5.0050014 15.0740042
H 1.2700004 -4.8510014 14.2040040
H 0.8580002 -5.9960017 15.0940042
O 5.2114024 10.7895477 -2.2689354
H 5.7685163 10.7235567 -1.4660215
H 5.7577574 10.3016533 -2.9181068
O 3.1070009 13.0990037 13.7850039
H 3.8380011 13.0890037 14.3960040
H 2.9160008 14.0590039 13.8710039
O -16.2080045 3.6790010 -6.5310018
H -16.6130046 3.6240010 -7.4440021
H -16.9370047 3.7800011 -5.9110017
O 0.1912788 -11.3167407 -4.2276469
H -0.5581545 -11.9079398 -4.4114997
H -0.2052261 -10.4314017 -4.3297383
O -2.7420008 -13.7770039 11.6760033
H -3.0430009 -13.6220038 12.5290035
H -1.7960005 -13.7920039 11.8560033
O 4.2764334 7.9774830 -4.2369499
H 3.6771937 7.2422308 -3.9719002
H 3.6498666 8.7330253 -4.2658278
O 0.2873878 5.8592986 9.0611358
H -0.4527166 5.2151744 9.1481818
H 0.1083092 6.4315606 9.8412547
O -16.8740047 -2.8900008 -3.5400010
H -16.6110046 -2.9760008 -4.5020013
H -17.4800049 -2.0970006 -3.5510010
O 0.4453819 -3.0495508 -7.0226860
H 0.6848479 -2.6304494 -7.8837092
H 1.2593538 -2.8488088 -6.5035717
O -2.3080006 -3.1550009 15.2930043
H -2.0230006 -2.2570006 15.2470043
H -1.4340004 -3.6290010 15.1480042
O -2.0230006 14.2850040 -6.1270017
H -2.0460006 15.2990043 -6.3200018
H -2.6740007 14.1120039 -5.3880015
O 18.1760051 -4.0540011 -5.0550014
H 17.4960049 -3.4180010 -4.8300014
H 18.0030050 -4.6610013 -4.3130012
O 13.4520038 0.2040001 11.4890032
H 12.9010036 1.0440003 11.6310033
H 12.8100036 -0.4630001 11.7050033
O -17.1540048 0.6530002 1.0540003
H -17.2540048 1.5760004 1.4240004
H -16.2150045 0.7060002 0.8970003
O 1.5420004 -2.7040008 -14.2210040
H 1.9070005 -2.2090006 -15.0060042
H 1.8390005 -3.5890010 -14.5070041
O -3.6105723 -0.1784665 6.9649307
H -3.1151269 -0.7208550 7.6134360
H -3.2471943 0.7104227 7.1681729
O 4.9720014 15.3230043 2.2750006
H 4.0290011 15.3380043 2.3560007
H 5.2340015 15.6800044 3.1440009
O 18.3110051 -3.2280009 5.1360014
H 18.0690051 -3.5260010 6.0690017
H 18.3200051 -4.1730012 4.8750014
O -16.2400045 -5.6370016 -4.1580012
H -15.7280044 -5.9630017 -3.3530009
H -16.7990047 -4.9410014 -3.8100011
O 1.5204633 -6.2579427 -4.4311862
H 1.9783250 -5.5769946 -3.8954196
H 0.6595217 -5.8068015 -4.5547778
O -0.5350001 -9.1820026 15.0460042
H 0.3530001 -9.3950026 15.4680043
H -0.1380000 -8.9430025 14.2170040
O 2.9800008 15.1970043 -3.4600010
H 3.1060009 14.3820040 -2.8840008
H 3.0610009 14.9090042 -4.2870012
O 1.6400005 14.0600039 11.1830031
H 2.4950007 14.1170040 11.5510032
H 1.2960004 13.1410037 11.1990031
O -2.1020006 -12.9230036 -3.8630011
H -2.0650006 -13.4840038 -3.0990009
H -2.1480006 -12.0500034 -3.4750010
O -4.3040012 -11.8100033 10.5040029
H -3.6470010 -11.2450031 10.0890028
H -3.6390010 -12.5580035 10.6190030
O 2.5958105 5.9295539 -3.7248525
H 2.0793115 5.7486465 -4.5391500
H 1.8935479 5.9280402 -3.0427804
O -5.2940015 10.1460028 13.0180036
H -4.6740013 9.5180027 13.4160038
H -6.2090017 10.0860028 13.4690038
O 11.7260033 5.5120015 10.2270029
H 12.2020034 5.9080017 9.4500026
H 11.7310033 4.5950013 9.8980028
O -3.6330459 -7.1097547 -4.1695308
H -4.4797058 -7.5653578 -3.9708891
H -3.9807016 -6.1909255 -4.2206034
O -3.6790010 -6.0560017 13.9640039
H -3.9410011 -5.7930016 14.8810042
H -2.7110008 -5.9930017 14.0530039
O -0.2240198 7.7601309 -5.7047223
H 0.4284154 7.0599381 -5.9202546
H 0.0382186 8.4645902 -6.3391042
O -1.5200004 12.7580036 11.8640033
H -1.6410005 12.2990034 12.7080036
H -1.8440005 13.6610038 12.1180034
O 15.3740043 -3.7410010 -7.0980020
H 16.1390045 -3.2840009 -7.4550021
H 15.5010043 -3.8020011 -6.1710017
O 11.6910033 -7.0420020 14.1090039
H 11.4510032 -6.3050018 13.5100038
H 11.2680032 -6.7480019 14.9610042
O -10.1200028 -5.7340016 -12.8480036
H -10.8760030 -5.1350014 -12.9340036
H -10.6630030 -6.4300018 -12.4240035
O -13.4110038 -5.8020016 4.1060011
H -13.7420038 -4.8980014 4.2450012
H -12.5770035 -5.6210016 3.6180010
O 7.7370022 -7.9650022 -15.3460043
H 7.8530022 -7.4420021 -14.5070041
H 7.8470022 -7.3720021 -16.0660045
O 3.7147372 -6.9238380 5.9721592
H 2.9390925 -6.3812314 6.2107191
H 4.1096232 -6.3804813 5.2670041
O 8.6640024 13.8340039 4.8770014
H 8.8590025 12.9460036 5.1340014
H 7.6770021 13.7700039 4.8180013
O -12.4773791 -2.1853205 0.5292507
H -12.9374722 -1.8019656 -0.2500776
H -11.6829293 -2.5539666 0.0973577
O 5.2710015 -0.6120002 -17.1120048
H 6.1820017 -0.9200003 -17.2510048
H 5.1890015 0.0900000 -17.8420050
O 4.8120026 -5.3564255 3.8932525
H 4.4457582 -4.4607199 3.7265724
H 4.3212811 -5.8427846 3.1849500
O 0.8620002 0.0750000 17.2950048
H 0.5690002 0.4880001 16.4330046
H 1.7950005 -0.2040001 17.1350048
O -6.2560018 -15.0960042 -5.1210014
H -6.7670019 -15.4110043 -5.8610016
H -6.8550019 -14.4200040 -4.7160013
O -6.8160019 -12.6300035 9.4980027
H -6.5340018 -13.5350038 9.2440026
H -5.9580017 -12.3000034 9.7500027
O -3.3821461 2.0934698 -6.0687100
H -2.8473227 2.7638019 -5.5989697
H -2.7047973 1.4860344 -6.4426312
O -3.7500010 5.8580016 14.4070040
H -3.9570011 6.6620019 13.9740039
H -4.2100012 5.9780017 15.2290043
O 13.6450038 5.9820017 -6.8240019
H 13.9170039 6.9330019 -6.9800020
H 14.5010041 5.7200016 -6.4580018
O 12.6590035 5.5020015 7.6250021
H 13.5260038 5.1100014 7.5490021
H 12.0090034 4.7590013 7.4360021
O -6.8319116 -3.1512363 -7.2140568
H -7.0727800 -2.2091629 -7.1370746
H -6.9463387 -3.2763022 -8.1751306
O -7.9677838 -1.1080722 9.4121164
H -8.3658887 -0.2170637 9.4270000
H -8.7280167 -1.5922461 9.8059122
O -4.6130013 15.3070043 -8.2400023
H -4.7760013 14.3420040 -8.1250023
H -4.8820014 15.6310044 -7.4000021
O 12.9740036 -3.2220009 -8.6030024
H 12.9720036 -2.3080006 -8.3350023
H 13.8640039 -3.5180010 -8.2260023
O 11.4550032 -1.6760005 8.9320025
H 10.8350030 -0.8840002 9.0730025
H 11.0630031 -2.2210006 8.1780023
O -8.5140024 -6.7220019 -14.7730041
H -7.6530021 -6.2660018 -14.4690040
H -9.1510026 -6.3090018 -14.0810039
O -11.4000032 -11.5590032 1.9900006
H -11.3070032 -10.5920030 2.2300006
H -12.0930034 -11.7870033 2.5660007
O -8.9450025 7.4990021 -14.4200040
H -9.4030026 7.9110022 -13.6710038
H -7.9730022 7.6060021 -14.2640040
O -10.6242156 6.0213795 1.1468649
H -11.1503763 5.3839896 0.6158287
H -10.8626300 6.8737167 0.7250887
O 5.6270016 -13.4880038 1.3180004
H 4.8150013 -13.6820038 0.7740002
H 5.6480016 -12.4950035 1.3490004
O 9.6750464 5.4260146 -2.8084928
H 10.4816378 5.8983912 -2.5152759
H 10.0419405 4.5307008 -2.9762997
O 4.7860013 8.3970024 15.4090043
H 4.4380012 8.9900025 16.0940045
H 5.7840016 8.4870024 15.5570044
O -6.6480018 -9.1009931 -0.8762293
H -7.3104769 -9.7512316 -1.1923516
H -5.8699655 -9.6830852 -0.7863759
O -5.7262514 7.4477461 -1.2489262
H -6.5179895 7.8874201 -0.8846127
H -6.1594157 6.6665004 -1.6437565
O 14.0010039 -7.6470021 0.2760001
H 14.4100040 -8.0470023 1.0370003
H 13.1430037 -8.0550023 0.2510001
O 13.6640038 13.8370039 -2.1020006
H 13.0480037 13.2360037 -2.5640007
H 13.0090036 14.0550039 -1.4090004
O -7.4650021 -14.6890041 0.0900000
H -7.3240020 -13.9910039 -0.5440002
H -6.4870018 -14.9990042 0.0700000
O -8.0953430 6.9091075 -4.0754498
H -8.5336877 6.2772035 -4.6807857
H -8.0329426 6.3826949 -3.2448687
O -6.5420018 3.4810010 16.1020045
H -7.1540020 3.3990010 16.8760047
H -6.4290018 4.4420012 15.9940045
O 11.4930032 -11.3860032 -4.7570013
H 11.2430031 -11.2030031 -3.8610011
H 10.8170030 -12.0570034 -4.9050014
O 11.2381334 3.1665045 -5.6619472
H 11.2187914 3.1194600 -4.6836381
H 11.2268914 4.1368635 -5.8126919
O 4.5840013 7.1010020 12.3450035
H 4.6050013 6.4410018 11.6120032
H 5.4470015 6.9570019 12.7390036
O -7.1920020 -10.0870028 -7.5660021
H -6.5600018 -9.4480026 -8.0450023
H -7.8090022 -10.3560029 -8.3390023
O -8.8400025 -10.4340029 9.5220027
H -9.4960027 -11.1360031 9.7950027
H -7.9720022 -10.8180030 9.7900027
O -7.5699208 6.0423085 -8.3217689
H -7.4339096 7.0049400 -8.4447819
H -7.8158519 5.7828737 -9.2349351
O -6.8632362 8.8037174 7.9417956
H -7.2107972 9.6184425 8.3695378
H -6.3249156 9.1988192 7.2252154
O 8.3037472 -7.0369758 7.3058810
H 9.0372982 -7.3284766 6.7365424
H 7.5780134 -7.0927693 6.6401364
O 11.7040033 8.1810023 -11.4610032
H 11.6700033 7.2600020 -11.1870031
H 12.0390034 8.6080024 -10.7040030
O 9.7120027 8.7640025 10.2080029
H 9.8920028 8.2150023 9.3680026
H 10.6330030 8.7280024 10.5970030
O -5.4270015 -13.9120039 -9.0610025
H -5.0970014 -14.4470040 -8.3220023
H -4.6260013 -14.0350039 -9.5650027
O -4.6665202 -10.8141270 6.8427204
H -4.0316912 -10.1105976 7.0832356
H -5.4944749 -10.4737709 7.2155305
O -2.6618220 5.3042365 -8.5368961
H -2.6423510 5.6811802 -7.6342789
H -3.3410107 4.6089204 -8.4569497
O -2.6416316 6.8919906 10.9001269
H -3.4411928 7.4380614 11.0438869
H -3.0234960 5.9960562 10.9711197
O 14.1850040 7.9000022 9.8470028
H 14.4640040 6.9670019 9.9260028
H 14.4370040 8.1330023 8.9400025
O -16.3750046 7.3470021 6.8350019
H -15.9250045 6.4780018 7.0370020
H -15.7180044 7.9680022 7.1240020
O 0.1410000 -13.2470037 -7.0790020
H 0.4840001 -13.6840038 -6.2700018
H 0.4700001 -12.3290035 -6.8340019
O -0.2680001 -13.1780037 7.7790022
H -0.7530002 -13.8480039 7.2530020
H 0.0530000 -13.7540038 8.5020024
O 1.6535947 7.5896173 -10.7478839
H 2.0113762 6.8070548 -11.2228771
H 2.0069355 8.2999924 -11.3295084
O 1.6188897 9.7002973 6.0279778
H 1.0859490 8.9239474 6.3364381
H 1.5694569 10.2632811 6.8118195
O 15.6070044 6.0500017 5.7300016
H 15.4580043 5.0880014 5.7680016
H 16.3620046 6.1260017 6.3180018
O -15.2710043 5.1690014 8.7660025
H -16.2210045 5.3430015 8.8880025
H -15.2500043 4.2520012 8.6470024
O 0.9770003 -14.6990041 -9.2740026
H 0.7320002 -14.3090040 -8.4130024
H 0.8380002 -15.6540044 -9.0990025
O 0.9520003 -14.4110040 10.0040028
H 0.7140002 -14.3190040 10.9110031
H 1.6930005 -13.8380039 10.0620028
O 2.9019023 7.1433327 -8.3361495
H 2.7280563 6.1820350 -8.3836491
H 2.4648194 7.4151841 -9.1688299
O 2.6280515 7.3534272 9.2034495
H 1.8191168 6.8106580 9.1672323
H 2.4547803 7.8793734 10.0045215
O -12.4230035 9.9530028 -8.0140022
H -13.2360037 9.5120027 -7.6680021
H -12.2080034 9.4620026 -8.8100025
O -11.7250033 7.6260021 8.3140023
H -11.2190031 7.4390021 7.4490021
H -11.5950032 6.7870019 8.8390025
O 5.8370016 -15.0540042 -9.3020026
H 4.9440014 -15.4680043 -9.4010026
H 6.3730018 -15.3650043 -10.0810028
O 2.5150007 -12.3870035 8.5100024
H 2.4110007 -11.5200032 8.9900025
H 1.8460005 -12.4430035 7.8090022
O 7.1999902 5.4765242 -6.4867197
H 6.5886957 4.7633394 -6.7729847
H 6.5792570 6.2313835 -6.5978482
O 2.6058156 3.0706842 11.8616930
H 2.7333506 2.9718832 10.8995019
H 1.6465162 3.2628539 11.9241501
O -7.6288102 2.6265043 -9.5769804
H -7.7325344 1.6850074 -9.8283739
H -7.9976036 2.6292477 -8.6885514
O -10.3430029 3.0870009 13.9330039
H -10.4670029 2.1570006 13.6770038
H -11.0110031 3.5800010 13.4700038
O 8.5340024 -14.0870039 11.1190031
H 9.3920026 -13.9460039 10.7030030
H 7.9600022 -13.9680039 10.3170029
O 13.4720038 2.4850007 -9.8160027
H 13.1860037 2.2640006 -10.6770030
H 12.6050035 2.3540007 -9.3570026
O 10.9130031 3.4250010 7.7140022
H 11.1500031 2.4940007 7.6930022
H 9.9600028 3.4030010 7.5120021
O -5.9470017 -15.3160043 9.2960026
H -5.5590016 -15.7310044 10.0780028
H -6.0090017 -16.0230045 8.7190024
O -3.7408479 0.9143388 -9.1871933
H -3.3110841 0.6599850 -10.0277776
H -3.0557516 0.6460328 -8.5485857
O -4.1727550 4.5539185 10.7090161
H -4.9660662 4.8136618 11.2376386
H -4.3721572 3.5901525 10.6038897
O 15.9570045 3.8590011 -9.0000025
H 15.0670042 3.3780009 -9.0380025
H 16.3160046 3.4720010 -9.8530028
O 12.9490036 1.0800003 8.3090023
H 13.3990037 0.8770002 7.4410021
H 12.4590035 0.2190001 8.4820024
O -3.3268739 -1.8852526 -11.9300233
H -2.8027391 -1.0534478 -11.8714953
H -3.1732632 -2.1509864 -12.8563309
O -1.6740615 3.9235027 9.2867959
H -2.5158861 4.0865556 9.7444401
H -1.9480295 3.2838916 8.5930156
O 16.9400047 3.7350010 7.8500022
H 16.4300046 3.5710010 7.0440020
H 17.4120049 2.9150008 7.8020022
O -14.9530042 5.9690017 -7.1940020
H -14.9910042 5.7650016 -8.1200023
H -15.3510043 5.1730014 -6.9080019
O 1.5860004 -17.0670048 -7.7650022
H 1.8060005 -17.9600050 -8.1010023
H 2.3970007 -16.6000046 -8.2100023
O 2.0351244 4.5168997 -8.4813776
H 1.2330938 4.4098671 -9.0366380
H 2.5566176 3.7256716 -8.7395110
O 1.8597668 4.0215008 7.7178812
H 1.3594859 4.7541016 8.1294788
H 1.7044111 4.1943180 6.7689505
O -8.4450024 3.0300008 -15.4250043
H -8.2830023 3.2890009 -16.3380046
H -8.3900023 2.0800006 -15.3540043
O -15.9150045 5.7330016 3.8540011
H -15.1350042 5.5520016 3.2590009
H -15.8970044 4.9860014 4.5390013
O 5.5250015 -15.5120043 6.3300018
H 4.9810014 -16.2570045 6.6260019
H 5.1430014 -14.8170041 6.9370019
O 5.7134826 2.1682923 -11.3686800
H 5.8429926 2.9178401 -10.7506052
H 6.4896965 2.3186906 -11.9469344
O 4.0419315 1.9929086 3.5992680
H 4.0884373 2.0678881 2.6245372
H 4.1185413 2.9149508 3.8949676
O 2.6840008 4.9850014 18.4910052
H 2.8150008 3.9660011 18.7090052
H 3.5380010 5.2100015 18.8230053
O -5.9127617 -1.5087002 -11.2175562
H -6.1889159 -2.2710042 -10.6738114
H -4.9511693 -1.6918102 -11.3415110
O -10.2490029 0.4360001 12.7550036
H -10.2470029 0.3830001 11.7650033
H -9.3490026 0.1040000 12.9850036
O -6.5390018 13.0630037 7.5350021
H -6.9970020 12.5880035 6.8040019
H -5.7720016 13.3510037 7.0430020
O 13.3100037 -0.0550000 -11.1490031
H 12.8120036 -0.4940001 -10.4370029
H 14.2360040 -0.3310001 -11.0060031
O 11.4839632 -1.2642300 5.4457926
H 10.5688895 -0.9121161 5.4571393
H 11.3447573 -2.1038043 5.9291827
O -1.7303634 0.2581288 -7.3196274
H -0.7489749 0.2801332 -7.3679315
H -1.8860041 -0.6983982 -7.4532304
O -4.7182857 1.9380279 10.6464509
H -5.2543412 1.3485584 11.2100619
H -4.0157506 1.3124201 10.3766898
O 18.1280051 0.7850002 -7.3650021
H 18.1940051 1.7400005 -7.3850021
H 17.2130048 0.6080002 -7.7400022
O 13.7240038 3.1080009 10.1180028
H 13.3150037 2.5850007 9.4570026
H 13.0480037 3.1820009 10.8670030
O -1.5967467 -1.0805821 -14.2987419
H -2.1217777 -0.2525120 -14.3039541
H -0.9540222 -0.8591014 -14.9970741
O -7.8237104 -0.3850754 3.8104132
H -8.6573575 0.1340399 3.8460199
H -7.3093388 0.0117219 4.5430304
O 2.2490006 19.2120054 4.9780014
H 1.2800004 19.1560054 4.7410013
H 2.7090008 19.2380054 4.1380012
O 12.2916539 -1.6855256 2.8985101
H 12.0465219 -1.4312220 3.8201103
H 13.1912851 -2.0476438 3.0501223
O 0.1493715 -2.2477410 -9.6234505
H -0.5533841 -2.6701429 -10.1396094
H 0.7353597 -1.9232656 -10.3389042
O -2.9366800 -0.1412270 10.3057379
H -2.4389670 -0.6753326 9.6499613
H -3.8025768 -0.6167382 10.2834855
O -3.7830011 17.7080050 7.7200022
H -3.7680011 17.0290048 8.4610024
H -3.9590011 17.2650048 6.8820019
O 15.0910042 0.3330001 6.5720018
H 15.4340043 0.3620001 5.6620016
H 15.9000044 0.6300002 7.0550020
O -13.6630038 2.3210006 -12.4830035
H -12.8010036 2.8260008 -12.2130034
H -13.7360038 1.5710004 -11.8880033
O -17.5570049 0.5350001 7.5420021
H -18.0520051 -0.3370001 7.5200021
H -18.3290051 1.2030003 7.4180021
O 0.2640001 -16.9500047 8.6390024
H 0.0750000 -17.5670049 9.3200026
H 0.2360001 -16.1520045 9.1420026
O 3.5718811 2.2766497 -9.0960747
H 3.1865007 1.8579143 -9.8945442
H 4.2268622 1.5895453 -8.8515147
O 1.7038047 1.0961934 4.9614230
H 2.1011354 0.5425671 5.6626208
H 2.4891224 1.3036008 4.4193073
O 17.6860049 1.0920003 7.6100021
H 18.5560052 1.1930003 7.2600020
H 17.8830050 0.9560003 8.5580024
O -13.3170037 0.3970001 -10.6440030
H -12.8220036 -0.4460001 -10.7740030
H -12.8060036 0.7380002 -9.9310028
O -12.9680036 2.3580007 9.8740028
H -13.0390036 2.7070008 10.8130030
H -13.8830039 2.0980006 9.6020027
O 8.4889821 -0.7335835 -10.1749412
H 9.1959026 -0.5947105 -10.8338864
H 8.5708742 0.0647898 -9.6117017
O 5.9059485 2.9125323 6.4868409
H 5.1819438 3.2923281 5.9474383
H 5.8342455 3.4616349 7.2937745
O -0.8135678 -3.4000014 -12.9190288
H -1.2060657 -2.6058958 -13.3344901
H 0.0857285 -3.3160574 -13.2831237
O -7.1981956 -2.4496881 7.1039255
H -8.1571452 -2.5777763 6.8889547
H -7.3086586 -2.0088197 7.9728044
O -1.2040003 14.3800040 5.9260017
H -1.0100003 14.6260041 5.0270014
H -0.8760002 15.0750042 6.4680018
O 13.0860037 -5.3680015 4.1080011
H 13.8910039 -4.9900014 4.4130012
H 12.9270036 -4.8110013 3.3710009
O -0.1440000 -6.9190019 -13.0190036
H -0.4570001 -6.8150019 -13.9740039
H -0.4550001 -6.0520017 -12.6850036
O -4.7455854 -3.9628457 3.0307331
H -3.8786659 -3.8304788 3.4736029
H -5.3635267 -3.4878398 3.6273661
O -3.1610009 -2.2470006 18.8060053
H -3.3000009 -3.2080009 18.8580053
H -2.2360006 -2.1130006 18.9310053
O -0.8300002 14.3160040 2.7940008
H -1.5790004 14.1840040 2.2200006
H -0.5190001 15.2170043 2.4980007
O 14.7390041 -2.9160008 2.9810008
H 15.6960044 -3.0840009 3.2480009
H 14.7550041 -3.4660010 2.1980006
O -1.6950005 -17.7210050 3.7530011
H -1.4630004 -17.4100049 2.8870008
H -2.4310007 -17.1480048 3.9440011
O 0.1260000 -0.6260002 -16.5090046
H 1.0950003 -0.5770002 -16.2560045
H -0.0440000 0.2570001 -16.8770047
O -6.1808420 0.0211441 6.0593097
H -5.2384946 -0.0355264 6.3411476
H -6.5288755 -0.7780310 6.4919700
O 15.0120042 -0.4680001 1.3810004
H 14.5440041 0.1290000 1.9830006
H 15.2890043 -1.2090003 1.9600005
O -13.0720037 -2.5770007 -9.1920026
H -12.7000036 -3.4040010 -8.9100025
H -12.7930036 -2.5370007 -10.0570028
O -16.0450045 -2.4250007 7.4830021
H -15.5990044 -1.7000005 7.9770022
H -16.8830047 -2.4960007 8.0020022
O 4.9713563 -2.8869748 -6.7875520
H 5.4459570 -3.6911529 -7.0804810
H 5.7458816 -2.2940434 -6.6817081
O 2.9159312 -0.5220405 6.8848168
H 3.5069865 -1.0898673 6.3442918
H 3.5650366 -0.1492505 7.5182935
O 5.4160015 13.4160038 -9.4260026
H 5.9380017 13.9540039 -10.0290028
H 5.8870016 13.5270038 -8.5480024
O -10.7890030 3.6840010 -11.6840033
H -10.0600028 3.9800011 -12.3230034
H -10.3770029 3.4100010 -10.8080030
O -12.6177999 2.8320113 4.9220713
H -11.7503159 2.7131618 5.3461305
H -12.5982955 3.7601582 4.6292411
O 5.8880070 -0.5975594 -11.1354943
H 5.7338290 0.3699437 -11.0508206
H 6.7844195 -0.6747740 -10.7419205
O 5.7577223 -0.2199093 3.5514246
H 5.5977816 -0.3979358 2.5991413
H 5.1874092 0.5650382 3.6853814
O -2.2488546 -3.7010829 -10.1381285
H -1.9000347 -4.5450338 -10.5017897
H -2.4967204 -3.2106178 -10.9543890
O -5.1304441 -4.5654918 6.9939980
H -5.6008650 -5.4218258 6.8986009
H -5.8602911 -3.9203566 6.9449171
O -1.8672571 11.4818457 -6.7907780
H -2.5799875 11.2960869 -7.4363570
H -1.8863242 12.4573687 -6.7404600
O -4.9350014 14.2060040 12.3870035
H -5.3340015 13.5080038 11.8600033
H -5.1890015 13.8840039 13.2750037
O 10.8028823 -3.4306443 6.9477638
H 9.8520089 -3.6513607 6.8300153
H 11.1855059 -4.3348773 6.9555793
O -1.3913394 -6.3312870 -10.4455625
H -0.7109305 -6.8180446 -10.9378416
H -2.0280470 -7.0635865 -10.2760083
O -2.7273751 -7.9156815 5.1413693
H -3.5117223 -7.4835681 4.7391576
H -2.5725987 -8.6237706 4.4743440
O -1.9210005 12.6190035 -13.3620037
H -1.6630005 12.3260034 -12.5290035
H -2.3360007 13.5160038 -13.1920037
O 0.9260003 12.7590036 4.0350011
H 0.9110003 12.9460036 5.0230014
H 0.0790000 13.1300037 3.7510010
O 15.7240044 -7.0860020 5.2250015
H 15.5690044 -6.3680018 5.8750016
H 15.2440043 -7.7880022 5.7230016
O -16.5510046 -5.4540015 5.7230016
H -17.4590049 -5.4030015 6.0180017
H -16.6340047 -5.5240015 4.7390013
O 2.3642833 -6.6628061 -6.9748221
H 2.1625934 -6.4704155 -6.0328322
H 1.5762331 -6.2670889 -7.4065186
O -2.3499366 -4.1436111 7.2565468
H -3.2799043 -4.3550115 7.0419206
H -1.8574623 -4.8129434 6.7536225
O 2.1660006 14.7020041 -10.1390028
H 1.7740005 15.5310043 -10.5040029
H 2.7280008 15.2720043 -9.5560027
O 1.6750005 13.6550038 8.3440023
H 2.2260006 13.8080039 9.1020025
H 2.4150007 13.5810038 7.6520021
O -14.6220041 -3.6110010 5.7160016
H -15.1600042 -4.4270012 5.5850016
H -15.1620042 -3.1350009 6.4150018
O 5.9340017 -4.5560013 -11.5360032
H 6.4140018 -5.3850015 -11.4730032
H 6.5150018 -3.7630011 -11.1940031
O 0.5143488 -2.8765852 5.6612827
H -0.2742675 -2.3038528 5.5659982
H 0.8015104 -2.9130836 4.7207935
O 4.9720014 13.9570039 -12.2350034
H 4.4650012 13.4030038 -11.6050032
H 4.3670012 14.0120039 -13.0330036
O 0.8310002 16.4030046 5.3400015
H 0.5090001 17.2060048 4.8720014
H 1.3730004 16.7580047 6.0630017
O -13.7390038 -5.3720015 -10.1660028
H -13.5450038 -6.2090017 -9.6480027
H -14.0780039 -4.8520014 -9.4310026
O -16.2260045 -7.3690021 7.5970021
H -16.4310046 -6.4490018 7.6820021
H -15.2950043 -7.2550020 7.2750020
O 4.7434782 -6.8147074 -8.2865504
H 4.5588180 -7.5177778 -8.9467044
H 3.8496919 -6.6646345 -7.9076009
O 0.5911645 -7.7545188 8.6306514
H 0.5874636 -8.0834734 7.7043426
H -0.3415565 -7.4809596 8.7420182
O 7.2020020 13.6600038 -7.2990020
H 7.2480020 13.3700037 -6.3840018
H 7.3720021 14.5830041 -7.1320020
O 3.8870011 13.1170037 6.5870018
H 4.5820013 12.4740035 6.7860019
H 4.4490012 13.8990039 6.7250019
O -3.5590012 -7.4748596 -6.9332139
H -3.6031344 -7.5045072 -5.9577728
H -3.5156989 -6.5025168 -7.0596089
O -6.0140017 -9.0390025 8.7960025
H -6.4960018 -8.6510024 9.4870027
H -5.1380014 -9.0530025 9.1850026
O -5.2320015 12.7280036 -7.2940020
H -6.1480017 12.5170035 -7.0590020
H -4.8090013 11.8840033 -7.6780021
O -5.4490015 12.1400034 3.1830009
H -5.8190016 12.9810036 2.8370008
H -6.0080017 11.4710032 2.7620008
O 9.5610027 -9.0370025 11.4920032
H 9.7750027 -9.7290027 10.8540030
H 10.2750029 -8.4190024 11.2570032
O 11.4400032 11.9390033 -10.2840029
H 11.2990032 11.2850032 -9.6250027
H 12.1270034 11.5240032 -10.8150030
O 10.6200030 13.4320038 7.4690021
H 9.7340027 13.0290036 7.3610021
H 10.9330031 12.8650036 8.1280023
O -17.0490048 -5.0560014 3.1780009
H -17.2880048 -5.9660017 2.8730008
H -17.4790049 -4.5570013 2.4140007
O -3.0970009 -11.1220031 -9.0500025
H -2.9730008 -12.0960034 -8.8630025
H -3.3090009 -10.9030031 -8.1040023
O -2.7850363 -9.0261316 7.6181473
H -2.6790645 -8.6596244 6.7099003
H -2.5171866 -8.2462676 8.1498743
O -0.7126923 8.8945422 -10.0472254
H 0.0637781 8.3515307 -10.3100050
H -1.4333321 8.4380840 -10.5292070
O -5.6450591 8.7079341 3.0491874
H -5.5258180 9.3299816 2.3100701
H -6.5482253 8.3748175 2.8614389
O 0.6146301 -9.2733208 -8.9961947
H 0.2817556 -9.9066842 -9.6661484
H -0.1408332 -9.2447275 -8.3668808
O -2.0099415 -7.0662549 9.2928638
H -2.1966857 -7.6031831 10.0908656
H -2.2518400 -6.1733657 9.6177613
O 0.1686512 9.7322578 -7.5905634
H -0.2208395 9.4426032 -8.4451661
H -0.4615158 10.4295325 -7.3158468
O -2.9760008 12.7120036 9.3800026
H -2.2220006 12.3110034 8.9330025
H -2.4160007 12.9800036 10.1810028
O -2.3480007 -13.5580038 -8.2350023
H -1.4580004 -13.4730038 -7.7760022
H -2.6660007 -14.3400040 -7.7330022
O -1.1440003 -6.1330017 12.7720036
H -0.7690002 -7.0120020 12.6740035
H -0.3620001 -5.6060016 12.6140035
O -0.4543062 4.2121469 -9.6991528
H -0.7344350 4.4743447 -10.5985605
H -1.1843826 4.6457058 -9.2037458
O -2.1658187 8.0560146 8.4310466
H -2.7390839 8.8316724 8.5573922
H -2.2522692 7.5968047 9.2877830
O 13.9540039 8.6430024 -6.8040019
H 13.6650038 8.8690025 -5.9270017
H 14.6100041 9.2920026 -6.9930020
O -7.5180021 -16.0440045 -7.3960021
H -7.3800021 -16.3280046 -8.3410023
H -8.1950023 -15.3480043 -7.5530021
O -5.7385382 5.1140913 -6.5233921
H -5.3163812 4.4849340 -7.1415203
H -6.4171710 5.4920830 -7.1243059
O -6.5170018 5.0580014 11.9770034
H -7.0730020 5.8570016 12.0020034
H -6.9490019 4.4130012 12.5660035
O 12.8380036 5.6510016 -9.3620026
H 13.2030037 5.9290017 -8.4960024
H 12.4480035 4.8530014 -9.0790025
O 9.9130028 6.4610018 12.1490034
H 10.6070030 5.9170017 11.7100033
H 9.4290026 6.8810019 11.4150032
O -8.5090024 -10.9290031 -1.7730005
H -9.3500026 -11.0870031 -1.2580004
H -8.9870025 -10.6650030 -2.6120007
O -5.3920291 7.1215284 -4.6449484
H -5.3245223 6.3720244 -5.2756993
H -6.3032077 6.9937983 -4.3096370
O 10.3010029 -10.7320030 -1.9200005
H 9.4890027 -10.2780029 -1.6380005
H 10.2890029 -11.5210032 -1.3120004
O 10.1441925 9.2206323 -3.4664943
H 9.9239473 9.0558636 -2.5285820
H 9.5757280 8.5656042 -3.9083920
O -4.8450014 -11.8810033 -3.6070010
H -4.8610014 -11.7770033 -4.6100013
H -4.0750011 -11.3940032 -3.3800009
O -7.9436464 5.5200277 0.8944013
H -7.7437081 6.2715887 1.4801929
H -8.9233764 5.5159905 0.9629447
O 6.9180019 -12.0940034 -2.3150006
H 6.3620018 -11.6730033 -1.6250005
H 7.5830021 -11.3460032 -2.4780007
O 12.4230518 3.6458237 -0.8516570
H 11.5288013 3.9199125 -0.5540720
H 12.8795951 3.7103521 0.0124869
O -8.3823321 -9.8479114 3.0029874
H -9.2940002 -9.5678200 2.7747129
H -7.8737420 -9.0847764 2.6566835
O -5.9500017 8.0080022 -14.3920040
H -5.1030014 8.1000023 -14.8900042
H -5.8050016 7.0420020 -14.2130040
O -8.1306753 8.6431277 -0.4425920
H -8.1063924 9.1742121 -1.2708354
H -9.1009750 8.5070948 -0.3585088
O 8.6570024 -11.1900031 0.8070002
H 9.1690026 -10.6160030 1.4730004
H 9.1840026 -11.9970034 0.6090002
O 9.3760026 10.4250029 1.1300003
H 8.6990024 10.8910030 1.6340005
H 10.2310029 10.8270030 1.4840004
O -9.0570025 -9.2070026 -11.7240033
H -9.3330026 -8.7900025 -12.5550035
H -9.1300026 -10.1230028 -11.9730034
O -11.1320031 -14.0880039 5.0540014
H -10.5250029 -13.3560037 5.3530015
H -10.5290029 -14.7000041 4.5240013
O -8.6660024 5.5860016 -10.8490030
H -8.9840025 6.4650018 -11.0070031
H -8.3810023 5.3760015 -11.7500033
O -9.9056648 6.8062874 6.3294409
H -10.0776931 6.4530410 5.4259505
H -8.9266987 6.7036414 6.3470756
O 9.0200025 -10.2270029 5.5240015
H 8.7220024 -10.7890030 4.7120013
H 8.2480023 -10.2960029 6.1330017
O 8.4620024 7.5410021 -11.8220033
H 7.5150021 7.7260022 -11.6440033
H 8.7550025 8.3090023 -12.3230034
O 7.7807238 9.0528157 4.3238793
H 8.3738515 8.3787803 3.9334276
H 7.0454716 9.0475146 3.6889459
O -9.0040025 -14.0890039 9.4230026
H -8.3330023 -13.3780037 9.4250026
H -9.7110027 -13.4770038 9.7710027
O -10.1960029 4.2740012 -9.1590026
H -10.8370030 4.7880013 -9.6700027
H -9.3150026 4.4640012 -9.5100027
O -11.2120031 3.6370010 8.5920024
H -11.7440033 3.0840009 9.2770026
H -11.9220033 4.0920011 8.1000023
O 6.8330019 -16.6130046 -7.2560020
H 5.9480017 -16.5600046 -6.8430019
H 6.6060018 -15.9600045 -7.9390022
O 6.3340018 -15.3370043 9.7070027
H 5.7840016 -14.7640041 9.0960025
H 5.7440016 -15.4750043 10.4430029
O 8.1398219 1.5146445 -8.5169834
H 7.1825830 1.3192369 -8.4997128
H 8.2283578 2.0256529 -7.6848559
O 5.8658476 4.7587556 8.5221349
H 6.7533200 5.1692709 8.4780254
H 5.3276591 5.4719327 8.1168431
O -9.7860027 -15.7380044 -2.7630008
H -9.9170028 -16.2920046 -3.5220010
H -9.5540027 -16.4610046 -2.1290006
O -8.8826486 2.8504703 -5.5151990
H -9.1155893 2.0578951 -4.9786030
H -7.9711512 2.9863865 -5.1682758
O 8.5652008 2.8686673 -6.1710673
H 8.3322526 3.8109579 -6.1128666
H 9.5437598 2.9116080 -6.0637994
O 4.6640013 2.5050007 13.4810038
H 4.5250013 3.2810009 14.0940039
H 4.0210011 2.7230008 12.7690036
O -6.5745190 0.2125283 -3.3619344
H -7.5072491 0.4238007 -3.5643817
H -6.4274890 0.8137947 -2.6003156
O 5.6510016 -17.9360050 -2.4890007
H 5.2880015 -18.8140053 -2.7450008
H 6.5570018 -18.0650051 -2.8280008
O 7.5260046 1.5261679 -0.4579005
H 7.6190192 0.5698157 -0.6149377
H 7.1064925 1.7972122 -1.2959139
O 6.7560019 0.8760002 15.3770043
H 5.9020017 0.8220002 14.8660042
H 6.4240018 0.6070002 16.2550045
O -10.0710028 -14.0290039 0.8400002
H -9.1460026 -14.3240040 0.7170002
H -9.9160028 -13.2600037 1.4380004
O -7.6207935 5.4605301 -1.8162219
H -8.0147316 4.5720953 -1.9448205
H -7.6822520 5.5038617 -0.8360064
O 7.5759120 5.0186796 -1.0477742
H 8.2065564 5.1425769 -1.7877775
H 6.9502016 5.7527072 -1.2148494
O 4.5550013 0.4670001 17.4120049
H 4.2240012 -0.3190001 17.0650048
H 3.9160011 1.0710003 17.0500048
O -14.7900041 -8.5760024 3.9190011
H -14.0980039 -7.8890022 3.9930011
H -15.0050042 -8.6430024 2.9920008
O -9.0983127 3.5540092 4.5709316
H -9.4201593 4.4165368 4.2373396
H -8.1394263 3.7308964 4.5455711
O 8.5360024 -12.5340035 3.8600011
H 8.2790023 -13.3890037 3.5150010
H 9.4600026 -12.6890036 3.8230011
O 4.9670014 5.3870015 -15.9340045
H 5.0950014 6.0170017 -16.7010047
H 4.8040013 4.5080013 -16.3940046
O 7.2915581 7.7788483 0.8779152
H 6.6706545 8.3166181 1.4042599
H 6.7192562 7.4773428 0.1443441
O -7.6531538 -0.5536853 -7.2706382
H -6.8497059 -0.0985167 -6.9305762
H -7.6970019 -0.2599430 -8.2019010
O -12.5660035 -0.9320003 13.8530039
H -12.8280036 -0.5410002 14.7160041
H -11.9100033 -0.2760001 13.5400038
O 8.0900023 -14.8850042 6.8390019
H 8.4810024 -15.7460044 7.0230020
H 7.2300020 -15.2080043 6.4750018
O 10.8500030 1.7360005 -9.0400025
H 10.7060030 1.8080005 -9.9810028
H 9.9540028 1.8780005 -8.7000024
O 6.9690020 3.1440009 11.9030033
H 6.1710017 3.0740009 12.4060035
H 6.7450019 3.9030011 11.4440032
O -9.5560027 -5.0690014 -8.9100025
H -10.4360029 -5.0160014 -8.5200024
H -9.6180027 -5.8300016 -9.5090027
O -9.9760028 -2.4400007 10.6080030
H -10.4180029 -2.7540008 11.4270032
H -10.6950030 -2.4560007 9.9530028
O -7.7610022 15.0020042 9.5160027
H -8.4170024 15.5970044 9.0430025
H -7.5340021 14.2580040 8.9100025
O 8.2130023 -3.5050010 -10.1450028
H 8.3190023 -2.4940007 -9.9980028
H 9.1320026 -3.7610011 -10.1510028
O 6.7487038 -2.7813898 10.1594734
H 7.4365655 -3.4584066 10.1377737
H 6.4540557 -2.7851553 9.2231636
O -9.5319981 -0.1558624 -1.3838178
H -10.1967714 0.4719678 -1.0342666
H -9.1822643 -0.5439296 -0.5631994
O 7.6854988 -1.2369754 -1.0011087
H 8.2513719 -1.2664619 -1.8082558
H 8.2620798 -1.7164251 -0.3618672
O 5.2480015 -0.5880002 13.2170037
H 5.1800014 -1.5190004 13.5770038
H 4.2860012 -0.4540001 13.1810037
O 9.9820028 16.3910046 -2.3540007
H 9.8660028 16.6380047 -3.2340009
H 9.0000025 16.1660045 -2.1850006
O -5.6650016 -17.2870048 -3.1200009
H -5.5430016 -16.5250046 -2.4950007
H -5.9640017 -17.9870050 -2.4690007
O -8.8545590 3.0080871 -1.7062500
H -7.9999335 2.5313270 -1.7516935
H -9.1471576 2.6588240 -0.8350985
O 9.2764742 -2.2948647 0.9018494
H 8.8406165 -2.2033707 1.7786305
H 9.9565773 -1.5928123 0.9466842
O -7.9125096 -0.0636950 -10.0382298
H -8.6130797 -0.4498360 -10.5835507
H -7.1435876 -0.5678894 -10.3804405
O -7.2838159 3.6358912 8.8545250
H -6.9710591 3.5876758 9.7646046
H -7.9211454 4.3733257 8.8952852
O 3.5890010 -17.0990048 7.9110022
H 2.7640008 -16.6180047 7.6460021
H 3.4100010 -17.3370049 8.8200025
O 10.1690028 -0.9610003 -12.5460035
H 10.8010030 -1.6940005 -12.5440035
H 9.3430026 -1.3570004 -12.9730036
O 3.2994663 5.3029352 1.2099410
H 4.2244188 4.9999015 1.3447934
H 3.4389335 6.1555210 0.7447958
O -7.6027338 -3.4238319 -9.8888616
H -8.3639241 -3.8918943 -9.4765686
H -7.7413212 -3.6760049 -10.8244204
O -12.0430034 -1.0570003 8.9840025
H -12.9490036 -0.8400002 8.7670025
H -12.0330034 -1.8260005 8.3530023
O 10.7390030 -4.4290012 -9.6380027
H 10.9140031 -4.9360014 -10.4730029
H 11.6280033 -4.0750011 -9.5440027
O 6.8198652 0.3799367 7.0620874
H 6.1615532 0.1520351 7.7462165
H 6.4608578 1.2407101 6.7677943
O -11.7880033 -4.6510013 -7.5880021
H -11.8370033 -4.6750013 -6.6330019
H -11.9460033 -5.6150016 -7.6880022
O -13.3110037 -5.5620016 9.1120026
H -12.8740036 -6.3110018 9.6840027
H -13.6320038 -6.0550017 8.4220024
O -10.6420030 12.9240036 -9.1070025
H -10.0680028 12.3840035 -8.4330024
H -10.8300030 13.7510038 -8.6870024
O 6.6451732 -4.8929965 -7.8542495
H 7.1100083 -4.5873288 -8.6535977
H 6.0131880 -5.5646547 -8.1943520
O 3.8105870 -4.8591064 8.5203725
H 3.1723222 -4.9909322 7.7921326
H 3.2375646 -5.1158709 9.2719313
O 8.2150023 11.3410032 -9.4320026
H 7.6250021 11.8030033 -8.8030025
H 8.8580025 10.9710031 -8.8150025
O 4.4000012 13.6380038 9.4960027
H 4.6980013 14.4510040 9.0560025
H 4.9390014 13.0030036 9.0300025
O -8.6780741 -3.5031423 -3.3290902
H -8.9039450 -2.8283952 -4.0068210
H -8.3729928 -4.2330796 -3.8866084
O -8.7230024 16.5410046 -3.7780011
H -8.1680023 15.9040045 -3.3440009
H -8.0920023 17.2570048 -4.0160011
O 7.2122248 -3.9955882 -4.0945732
H 7.1200166 -4.7768153 -4.6575639
H 8.1093372 -3.7062046 -4.3589493
O 4.8460014 -2.8390008 14.5830041
H 5.4870015 -2.7300008 15.3260043
H 5.2360015 -3.4460010 13.9320039
O -14.1130039 -3.5230010 2.5330007
H -13.4790038 -3.0120008 1.9700006
H -14.2210040 -2.9430008 3.3090009
O 6.9647868 -4.3849651 2.2908033
H 7.3231527 -3.5687942 2.6922826
H 6.3495081 -4.6923585 2.9770219
O 4.0090011 -6.3100018 17.3370049
H 4.9890014 -6.1510017 17.4520049
H 3.5980010 -5.4850015 17.3630049
O -8.0480023 -2.9720008 -14.8710042
H -8.3590023 -2.7550008 -15.7740044
H -7.2660020 -2.2690006 -14.9330042
O -14.5860041 1.4840004 6.2340017
H -14.6100041 0.7720002 5.5710016
H -13.7870039 1.9780006 5.9790017
O 7.6150021 -1.5980004 -13.4520038
H 6.9060019 -2.2450006 -13.4780038
H 7.1220020 -0.7370002 -13.3990037
O 7.9326203 -1.9458320 3.3057836
H 7.1509984 -1.3548444 3.3328549
H 8.3937013 -1.6084997 4.1023241
O -4.7148130 -4.6442631 -9.3751817
H -3.8394160 -4.2905010 -9.6312978
H -4.5600430 -4.7299877 -8.4111426
O -12.1970034 -3.5130010 7.5250021
H -12.2790034 -4.3650012 8.0670023
H -12.9770036 -3.6080010 6.9170019
O -9.7840027 13.2470037 6.7570019
H -10.3240029 13.3530037 5.9600017
H -9.1750026 12.5720035 6.4440018
O 11.9160033 -6.2570018 -11.2350031
H 11.8690033 -7.1860020 -11.2020031
H 12.8450036 -6.1400017 -11.5510032
O 8.2197449 -4.2842304 6.5573381
H 8.0223864 -5.1801506 6.8804842
H 7.4183500 -3.8029002 6.8583200
O -10.2760029 -11.8380033 -9.2220026
H -9.2900026 -12.0050034 -9.2440026
H -10.5570030 -12.1030034 -10.1500028
O -9.0670025 -8.0200022 8.4920024
H -8.7780025 -8.9550025 8.5210024
H -8.5270024 -7.7570022 9.2340026
O -7.2600020 8.7910025 -8.5890024
H -6.5690018 8.7260024 -9.3020026
H -6.9790020 9.5050027 -8.0830023
O -7.9340022 11.2740032 5.8970017
H -7.2030020 10.7290030 5.5680016
H -8.5710024 10.4940029 5.9940017
O 10.6740030 -9.4060026 -8.7570025
H 11.3760032 -9.1130026 -9.3790026
H 11.1640031 -9.4320026 -7.9000022
O 6.3720018 -8.9250025 9.0580025
H 6.4760018 -9.1380026 10.0390028
H 7.1770020 -8.4310024 8.8880025
O 7.7740022 9.9060028 7.4440021
H 8.4740024 10.3460029 6.9020019
H 7.2080020 9.5390027 6.7460019
O -10.8670030 -7.0520020 -2.2560006
H -11.5920032 -6.3990018 -2.0660006
H -11.3510032 -7.9280022 -2.3890007
O -6.8980019 14.5230041 -2.5090007
H -7.5640021 13.7950039 -2.5240007
H -6.2120017 14.1630040 -3.1120009
O 7.9910022 -6.3160018 -5.8430016
H 7.4650021 -5.9570017 -6.6020018
H 8.8880025 -6.1280017 -6.2350017
O 6.6340019 -5.3830015 14.1920040
H 6.9640019 -5.1720014 13.2980037
H 6.8690019 -4.6150013 14.7450041
O 9.6020027 11.4600032 -5.0760014
H 10.0820028 10.9310031 -4.3720012
H 9.3540026 12.2400034 -4.4800013
O -5.3700015 -7.4170021 -15.2640043
H -5.9770017 -7.8040022 -15.8850044
H -5.1670014 -6.4840018 -15.5930044
O -6.9806482 -4.5984630 -0.4471600
H -6.3265259 -5.2148741 -0.8251594
H -7.7467344 -5.2110975 -0.4292139
O -5.9696531 10.5131180 0.8361368
H -5.8000117 9.9266218 0.0871208
H -5.2192571 11.1471221 0.7370800
O 9.3209568 -4.8989095 -0.1651688
H 9.3684503 -4.0082083 0.2461919
H 9.3311016 -5.4744202 0.6301963
O -9.3640026 -4.7870013 -16.9110047
H -8.7830025 -5.2130015 -16.2570045
H -9.9560028 -4.2460012 -16.3680046
O -9.5155289 -3.5996092 1.5212578
H -9.3086474 -2.6484074 1.5274445
H -9.7449264 -3.7072155 0.5723833
O 9.1914766 -1.2770601 -3.2477228
H 9.5348805 -2.0017908 -3.8144513
H 8.7553758 -0.7014557 -3.9124786
O 11.5960032 14.9860042 -0.5270001
H 10.9700031 15.4230043 -1.1890003
H 11.8800033 15.6830044 0.1380000
O -6.9384305 -6.0685376 -8.1917952
H -7.8267528 -5.9669250 -8.5869837
H -6.4217973 -5.4265838 -8.7129641
O -11.0440031 -6.1870017 6.7710019
H -10.5720030 -5.9080017 5.9870017
H -10.3270029 -6.7530019 7.1180020
O -7.9100022 12.4600035 -6.5980018
H -8.7670025 12.0270034 -6.8770019
H -8.3230023 13.2510037 -6.2500017
O -11.6400033 13.2120037 4.6160013
H -12.1340034 13.5660038 3.8270011
H -12.3260034 12.6730035 4.9060014
O 6.8133034 -6.9602338 5.0470901
H 6.1179362 -6.3539376 4.7279997
H 6.9211847 -7.5322308 4.2608861
O 9.3460026 11.0550031 5.3520015
H 8.6900024 10.4630029 4.8570014
H 10.1530028 10.9060031 4.9280014
O -12.6810035 -3.5610010 -4.9410014
H -13.2700037 -3.2750009 -5.6570016
H -12.0710034 -2.7900008 -5.0460014
O -12.8010036 -7.5120021 11.1000031
H -12.0790034 -7.4020021 11.8190033
H -13.6080038 -7.4470021 11.6060032
O -6.5110018 11.4920032 -4.4060012
H -6.2080017 10.6830030 -4.9430014
H -7.0120020 11.8810033 -5.1340014
O 8.6790024 -7.5080021 -9.7740027
H 9.3230026 -8.2350023 -9.6440027
H 8.5830024 -7.2010020 -8.8670025
O 9.6930027 -5.3660015 9.3480026
H 10.5060029 -5.6990016 8.8710025
H 8.9550025 -5.8210016 8.8700025
O 6.5060018 12.4570035 7.3910021
H 7.2840020 12.8340036 7.8330022
H 6.6620019 11.5030032 7.3670021
O -10.3898883 -3.4775476 -1.0613012
H -10.9486312 -4.1543562 -1.4792012
H -9.7048947 -3.3617174 -1.7542080
O -11.0630031 -7.6730021 13.2180037
H -11.0080031 -7.9920022 14.1470040
H -10.3470029 -7.0150020 13.2100037
O -4.6220013 14.1770040 -4.7490013
H -5.1250014 14.9280042 -4.9980014
H -4.8810014 13.5120038 -5.4680015
O 8.2220023 -9.7200027 -5.1260014
H 8.8390025 -8.9660025 -4.8560014
H 7.3920021 -9.3290026 -5.4560015
O 8.1690023 -5.5450016 11.6100032
H 8.7480024 -5.5720016 10.7880030
H 7.3920021 -5.6580016 11.0620031
O 12.7150036 11.9090033 -6.2800018
H 12.7210036 11.8650033 -5.3210015
H 12.3000034 12.8250036 -6.3560018
O -12.6170035 -9.4280026 -1.9850006
H -13.4090038 -9.7800027 -1.4920004
H -11.9170033 -9.9870028 -1.5710004
O -10.6460030 8.7860025 -2.7820008
H -9.6340027 8.8370025 -2.9380008
H -10.9010031 8.2410023 -3.5520010
O 6.0435738 -10.9995317 0.1807489
H 5.9097217 -10.0377049 0.2544779
H 7.0072563 -11.0587244 0.3836380
O 4.6130013 -9.0710025 15.8540044
H 5.0620014 -8.3710023 15.3110043
H 3.9440011 -8.4340024 16.1230045
O 6.9163055 11.1964061 -0.1467893
H 6.8855688 11.6264260 0.7286906
H 7.8120910 10.8159240 -0.1233488
O 3.0280008 6.6770019 14.5070041
H 3.4710010 6.6380019 13.6560038
H 3.6350010 7.3720021 14.9370042
O -8.5880024 -6.9760020 -10.5810030
H -9.0560025 -7.7180022 -10.9950031
H -7.8320022 -6.8870019 -11.2430031
O -9.1973793 -6.7229556 4.6973646
H -8.7016381 -7.5156644 4.9750558
H -8.5184736 -6.2247526 4.1947756
O -6.8010019 14.0990039 -10.7370030
H -7.4730021 14.1820040 -11.4360032
H -6.8170019 14.9680042 -10.3550029
O -8.6200024 11.6500033 0.8800002
H -7.7970022 11.2520031 0.5000001
H -8.7190024 10.8950030 1.5330004
O 11.9500033 -9.1310026 -11.1190031
H 11.3620032 -9.4300026 -11.7920033
H 12.6280035 -9.8430028 -11.1400031
O 10.1420028 -7.7520022 5.2070015
H 9.7170027 -8.6100024 5.1360014
H 10.6530030 -7.7420022 4.3690012
O 11.5510032 11.9160033 1.3970004
H 11.2650032 12.1610034 0.4450001
H 12.4810035 12.1780034 1.3520004
O -7.4430021 -11.9530033 -9.6600027
H -7.3130020 -12.3150034 -10.5920030
H -7.0970020 -12.6830035 -9.1850026
O -7.6130021 -11.5940032 6.8910019
H -8.4330024 -11.8790033 6.6160019
H -7.5160021 -11.7710033 7.8410022
O -5.4136988 3.7981770 -10.7283609
H -6.2847613 3.3806270 -10.5462024
H -5.0600275 3.8105246 -9.8208912
O -5.0990742 6.0447703 8.5046510
H -5.1138115 6.9199024 8.9223636
H -4.8075676 5.4860178 9.2498237
O 11.8130033 -10.5700030 6.7920019
H 11.3510032 -10.4420029 7.6490021
H 11.1410031 -10.4400029 6.0890017
O 10.7620030 6.5770018 -14.1690040
H 10.6030030 5.8820016 -13.5110038
H 11.3530032 7.2040020 -13.7250038
O 8.5809469 3.3561040 6.1444543
H 7.6562848 3.0663128 6.2921401
H 8.4266468 4.2580076 5.7936470
O -0.8580002 -10.9610031 -10.7280030
H -1.6670005 -10.8770030 -10.1560028
H -0.8370002 -11.9430033 -10.8780030
O -3.9346221 -11.9092887 4.2587897
H -3.2630245 -11.2309736 4.0682180
H -4.1814222 -11.6969296 5.1788932
O -1.8402855 5.2475738 -11.9095736
H -2.2577158 6.1071862 -11.6982124
H -1.0873106 5.5513255 -12.4676179
O -4.3413337 6.3228210 3.5869605
H -4.7671674 7.1532355 3.2911045
H -3.6277794 6.7128697 4.1351989
O 12.9150036 -12.8120036 5.9410017
H 12.2900034 -13.4230038 6.3210018
H 12.7130036 -12.0760034 6.4840018
O 14.9660042 8.3950023 7.2770020
H 15.8770044 8.6920024 7.0880020
H 14.8080041 7.6300021 6.6950019
O 2.5000007 -12.6320035 -10.4220029
H 3.0510009 -12.6090035 -9.6020027
H 1.9140005 -13.3260037 -10.1130028
O 0.5444793 -8.9140323 6.1214314
H 1.3979428 -9.3816404 5.9934867
H -0.0626437 -9.6827211 6.0218507
O 2.5840007 9.5970027 -12.3290035
H 2.7760008 10.3440029 -11.6890033
H 3.3340009 9.7540027 -12.9740036
O 1.1068792 10.0398797 3.3792525
H 0.9098525 10.9973282 3.4023840
H 1.2510039 9.8729813 4.3373445
O 6.3760018 -9.8690028 -12.0080034
H 5.4280015 -10.0060028 -12.4270035
H 6.8960019 -10.5800030 -12.4650035
O 0.4365443 -7.7215739 3.6251642
H 0.4755829 -8.1654310 4.4971451
H 1.2139167 -8.1197020 3.1803038
O 2.6353137 10.3324079 -8.7506045
H 3.1410355 9.5051861 -8.7053341
H 1.8135684 10.0881345 -8.2746041
O 5.0700014 9.2110026 7.3730021
H 5.7230016 9.0370025 8.0830023
H 4.4010012 9.7270027 7.9060022
O -11.8910033 -7.6650021 -12.2760034
H -12.8380036 -7.4200021 -12.3680035
H -12.0420034 -8.6050024 -12.2620034
O -10.8830030 -8.7860025 2.7030008
H -11.2550031 -8.0410023 2.2300006
H -10.9270031 -8.4810024 3.6310010
O -11.0880031 11.4200032 -11.4590032
H -10.5360029 11.8270033 -12.2040034
H -10.9720031 12.0270034 -10.6850030
O -9.9790028 9.7930027 2.9440008
H -10.8190030 10.1990029 2.6590007
H -10.0090028 9.9110028 3.8940011
O 6.4637360 -10.7817046 3.8889688
H 6.7733799 -9.9358518 3.4911439
H 7.1962626 -11.3924097 3.6611172
O 6.7760019 11.4560032 -11.7330033
H 6.1630017 12.2320034 -11.7080033
H 7.2490020 11.6470033 -10.8720030
O 7.3030020 11.6440033 2.6210007
H 6.8080019 12.1090034 3.3270009
H 6.8400019 10.7820030 2.5310007
O -5.7540016 -10.2110029 -11.8610033
H -6.0360017 -9.4190026 -11.3940032
H -5.6020016 -10.8440030 -11.1620031
O -5.2146258 -9.8173557 2.0885443
H -5.8286631 -9.0529205 2.1019736
H -5.7667809 -10.5154652 2.4842828
O -5.7970016 8.0190022 -10.8860030
H -6.1460017 7.2960020 -11.4680032
H -6.3360018 8.6960024 -11.3610032
O -5.5522412 9.7127428 5.6404682
H -5.5296704 9.2891606 4.7571325
H -4.6316155 10.0151479 5.7167361
O 11.5790032 -8.2730023 -0.5820002
H 11.5090032 -9.1210026 -1.0440003
H 11.0400031 -7.5960021 -1.0500003
O 11.7530033 10.8030030 4.1460012
H 11.7630033 11.5460032 3.4660010
H 11.5940032 10.0710028 3.5030010
O -3.1200009 -8.4340024 -10.1370028
H -3.2480009 -9.0860025 -9.5080027
H -4.0560011 -8.1790023 -10.3170029
O -2.6689200 -9.6823232 3.0840680
H -3.5576526 -9.7244985 2.6704803
H -2.1349368 -9.3012410 2.3594489
O -2.8695114 7.8727509 -11.5529788
H -3.8325023 7.8864361 -11.4068875
H -2.7744043 8.4528116 -12.3394025
O -2.9313074 12.3633777 4.1984713
H -3.8393724 12.2614063 3.8268594
H -2.5598862 13.0507649 3.6356414
O 11.8690033 -7.6170021 2.9740008
H 12.4680035 -6.8630019 3.1810009
H 12.5430035 -8.3490023 2.6890008
O 13.4720038 10.7990030 6.1760017
H 13.0670037 10.8480030 5.3130015
H 14.0280039 10.0380028 6.0280017
O -15.8470044 8.9020025 1.6530005
H -16.4250046 8.2570023 1.1150003
H -16.2540045 8.7150024 2.5390007
O 1.9040005 -8.5840024 -12.3950035
H 2.2860006 -7.9500022 -11.7340033
H 1.0940003 -8.1060023 -12.4210035
O -2.2822237 -3.8640638 4.1226769
H -1.6808512 -4.4755366 4.5948016
H -2.0659268 -3.0129769 4.5589009
O 2.0240006 13.4070038 -13.3950037
H 1.9780006 12.7280036 -14.1940040
H 2.2760006 12.8670036 -12.6300035
O 3.0784826 9.6545854 1.4790884
H 2.6573806 10.2960050 0.8670436
H 2.4475963 9.7115539 2.2271377
O -13.7560038 -6.9130019 6.4590018
H -13.8890039 -6.6340019 5.5430016
H -12.7600036 -6.7030019 6.6220019
O -15.2230043 12.0830034 1.8070005
H -15.4620043 11.1670031 1.7550005
H -14.6620041 12.2900034 1.0720003
O 3.9400011 -10.0760028 -13.2540037
H 3.1540009 -9.5340027 -13.0520037
H 4.3300012 -9.5300027 -13.9240039
O 2.3658046 -9.0657969 2.1369023
H 1.9401437 -9.4898819 1.3622918
H 2.9506475 -9.7939464 2.4364021
O 4.7270013 9.2660026 -14.4390040
H 4.8180013 10.2050029 -14.7900041
H 5.6740016 9.0520025 -14.3520040
O 5.6052114 9.3598751 2.5629671
H 4.8345920 9.5411686 1.9808992
H 5.1104158 9.3341865 3.4151894
O -14.8510042 -10.0700028 6.0640017
H -14.2080040 -9.4560026 6.4050018
H -15.0470042 -9.5110027 5.2100015
O -7.4090021 9.3760026 -12.6130035
H -7.3800021 10.2840029 -12.9810036
H -6.6260019 8.9770025 -13.0970037
O -13.3520037 12.9590036 -0.0480000
H -12.4370035 13.0170036 0.1390000
H -13.3200037 13.1620037 -1.0200003
O 3.9090011 -8.8700025 -16.3320046
H 4.5320013 -9.2130026 -16.9830048
H 3.5810010 -9.7440027 -16.0590045
O 3.9072393 -11.1836066 3.1144981
H 4.8484141 -11.0103944 3.3402290
H 3.9129467 -12.1631460 3.0669623
O 5.5241492 5.4341625 -12.3166136
H 6.3245731 5.4140349 -12.8579610
H 5.8725959 5.1901674 -11.4357101
O 6.1330017 13.0420037 4.5460013
H 5.2580015 12.6690035 4.6640013
H 5.8700016 14.0000039 4.3810012
O -4.3172981 -10.6726728 -0.3031289
H -4.5466706 -10.2835040 0.5676800
H -4.2116924 -11.6123725 -0.0461109
O -4.4610012 -11.8770033 14.4810041
H -3.9880011 -11.0380031 14.3200040
H -3.7200010 -12.4300035 14.8540042
O -3.8910011 8.0070022 -16.2830046
H -2.9990008 8.3400023 -16.4600046
H -3.7370010 7.0400020 -16.2350045
O -3.3954913 6.3113553 -0.2878893
H -4.2220893 6.7315081 -0.6050186
H -2.9248610 7.1191869 0.0256194
O 10.0350028 -13.0860037 -0.5340001
H 10.4080029 -13.6520038 0.0940000
H 9.8260028 -13.6880038 -1.2330003
O 12.3770035 9.4940027 -0.6120002
H 12.1200034 10.4290029 -0.7690002
H 12.2560034 9.4610026 0.4060001
O -3.7390010 -13.2150037 0.6890002
H -3.4530010 -13.8580039 0.0080000
H -2.9590008 -13.3020037 1.3260004
O -1.3590004 9.0370025 -16.8340047
H -1.0550003 9.0140025 -17.7900050
H -1.0780003 9.9220028 -16.5890046
O -2.2016071 8.6178486 0.4842392
H -1.6953050 8.4514346 1.3065056
H -1.8157972 9.4663303 0.1899419
O 15.1340042 7.8960022 -0.0410000
H 15.8700044 7.9910022 0.5700002
H 14.9230042 8.8550025 -0.1290000
O -18.5280052 6.2630018 2.4970007
H -17.6520049 6.1360017 3.0200008
H -18.1290051 6.2530018 1.6270005
O -1.0920003 -11.0120031 -15.7360044
H -0.9120003 -11.8220033 -15.2410043
H -0.8310002 -10.4110029 -15.0750042
O -1.8140005 -14.2830040 2.5960007
H -1.3320004 -15.1050042 2.1650006
H -1.8130005 -14.4940041 3.5190010
O 0.3570001 8.9070025 -13.5840038
H -0.4500001 9.4460026 -13.6630038
H 1.0830003 9.4770027 -13.2750037
O 1.6594922 11.0019758 -0.4248474
H 1.7336925 10.2813706 -1.0869119
H 2.1235910 11.7298269 -0.8801400
O 12.9570036 -10.0560028 2.3720007
H 12.6290035 -10.8280030 2.8550008
H 13.7710039 -10.4290029 1.9990006
O 1.8820005 -7.0700020 -16.4330046
H 1.2320003 -7.7590022 -16.6700047
H 2.6680007 -7.6500021 -16.5910046
O -1.8177930 -5.6487813 -2.6340529
H -1.3671661 -5.3318030 -3.4431598
H -2.3913923 -6.3365048 -3.0210420
O 4.0790011 13.1720037 0.8580002
H 4.7820013 13.7710039 1.0330003
H 3.6250010 13.0380036 1.7080005
O 15.0380042 -4.6540013 0.8590002
H 15.2720043 -4.4620012 -0.0140000
H 14.3770040 -5.2910015 0.7770002
O -12.6030035 -5.1850015 -1.4830004
H -12.6020035 -5.0810014 -0.5460002
H -13.3480037 -4.5910013 -1.7730005
O -10.8540030 8.4970024 -0.1070000
H -11.0580031 8.5790024 -1.1010003
H -11.3940032 9.2610026 0.2450001
O 5.4700015 -6.5940018 -16.5050046
H 5.1370014 -7.4710021 -16.2600046
H 4.8370014 -6.3650018 -17.2230048
O 7.9549838 -9.3650872 -1.7054194
H 7.4113990 -8.9880174 -0.9898067
H 7.8931411 -8.6558383 -2.3777958
O 7.4230021 15.6750044 -2.1520006
H 6.9910020 14.7950041 -2.1810006
H 7.2850020 15.8850044 -1.1540003
O -6.8231218 -7.6453393 2.5116173
H -7.2398287 -6.7804240 2.3305010
H -6.0660540 -7.3424756 3.0580165
O -4.3506107 11.7896814 -2.4991009
H -3.5514327 11.6016595 -3.0313730
H -5.0526721 11.7272976 -3.1684858
O 7.8999107 -7.0991452 -3.2733330
H 7.9895477 -6.8426340 -4.2228709
H 8.6745902 -6.6466670 -2.8903202
O 9.8130027 -2.0280006 12.7670036
H 9.0650025 -1.5500004 12.3180034
H 9.7580027 -1.5340004 13.6710038
O 9.3549316 8.4970671 -0.8313637
H 9.5908924 9.2183980 -0.2088536
H 8.6139605 8.1110790 -0.3258710
O -6.4850018 -12.6270035 -1.4980004
H -7.3370021 -12.1580034 -1.6780005
H -5.9750017 -12.4050035 -2.3240007
O -7.3780021 -7.9480022 15.9800045
H -7.7090022 -8.8570025 15.8840044
H -7.9140022 -7.6400021 15.2910043
O -3.3592516 8.4218007 -3.2820086
H -3.9664820 7.8814481 -3.8324607
H -3.8435188 8.4041962 -2.4421505
O -7.8410022 9.2650026 14.2530040
H -7.8790022 9.4620026 15.1970043
H -7.8640022 8.2950023 14.3040040
O 10.4430029 -8.6420024 -3.7960011
H 10.4460029 -9.2780026 -3.0840009
H 10.3850029 -7.8080022 -3.3560009
O 12.9460036 8.6840024 -4.3160012
H 12.0610034 8.5070024 -4.0430011
H 13.4290038 8.0440023 -3.7950011
O -9.8060027 -6.8160019 -5.4200015
H -9.0520025 -6.1820017 -5.4030015
H -10.4060029 -6.5170018 -4.7250013
O -7.4190021 -7.8320022 10.9260031
H -6.5220018 -7.8810022 11.2720032
H -7.7930022 -7.2770020 11.5720032
O -5.7583729 9.4093482 -6.0324335
H -5.5698545 8.6365373 -5.4520396
H -5.1610546 9.1709606 -6.7706420
O -7.6260021 11.2030031 9.0480025
H -7.3410021 11.8850033 8.3460023
H -7.2380020 11.6220033 9.8260028
O 12.8000036 -6.6760019 -6.8830019
H 13.7730039 -6.9340019 -6.8100019
H 12.4150035 -7.5870021 -6.6120019
O 10.5330029 10.7380030 -7.5680021
H 11.3300032 11.2270031 -7.8300022
H 10.3610029 10.9930031 -6.6430019
O 8.4060024 12.9940036 9.4440026
H 9.2060026 12.5560035 9.8910028
H 8.3760023 13.7000038 10.0700028
O -13.3720037 6.6340019 -0.5010001
H -13.9190039 7.2090020 -1.1490003
H -12.7400036 6.1660017 -1.0230003
O -0.7367232 -8.9980174 -1.2746594
H -1.0373688 -8.5437317 -0.4607077
H 0.0143609 -9.4888159 -0.8843803
O -2.3570007 -10.6970030 13.4100038
H -2.0530006 -11.6290033 13.5500038
H -1.7030005 -10.0890028 13.7720039
O -1.1388261 11.0992084 -0.2401642
H -1.0496207 11.8069655 -0.9102641
H -0.1882916 10.9858987 -0.0370900
O -1.5900004 11.1710031 14.4090040
H -0.9930003 11.7810033 14.8080041
H -2.2520006 10.9010031 15.1770042
O 15.3930043 10.3240029 -2.8200008
H 15.7090044 9.3920026 -2.9950008
H 15.5840044 10.4430029 -1.8650005
O -17.0060048 -8.4730024 -2.0390006
H -17.0330048 -8.5470024 -3.0050008
H -16.0980045 -8.0500023 -2.0280006
O -13.4830038 10.5850030 -2.9220008
H -12.5260035 10.4120029 -2.9750008
H -13.6250038 11.5390032 -3.0810009
O 4.0647150 -8.6190209 -1.6045976
H 4.3925991 -8.1883388 -2.4254901
H 3.1437321 -8.3288754 -1.6022433
O 2.0040006 -7.6460021 15.7080044
H 2.6630007 -6.9610019 15.9030045
H 1.3120004 -7.6910022 16.3690046
O 6.4750018 13.3350037 -1.8570005
H 6.4480018 12.6170035 -1.2110003
H 6.0380017 12.8680036 -2.6220007
O -11.4830032 -8.8050025 -5.0370014
H -12.0610034 -8.0510023 -4.9750014
H -10.6880030 -8.3000023 -5.4380015
O -10.2100029 10.9980031 -6.8950019
H -10.8920030 10.4410029 -7.2530020
H -9.6730027 10.3950029 -6.3840018
O 5.2495215 -7.3331086 -3.7024086
H 5.3010690 -7.6987778 -4.6067526
H 6.2075091 -7.2374044 -3.5069888
O 1.7764851 -5.7803809 10.1635280
H 1.0419478 -5.1376226 10.0565212
H 1.4468921 -6.5364789 9.6321080
O 5.3390015 13.2920037 -4.8190013
H 5.0880014 12.4900035 -5.2750015
H 4.7640013 13.9100039 -5.3040015
O 2.3180006 10.2840029 14.0620039
H 2.5490007 11.1390031 13.6690038
H 2.7610008 10.3700029 14.9140042
O -7.4860021 -9.9090028 -4.8330014
H -7.5680021 -9.9240028 -5.8070016
H -7.9290022 -10.7490030 -4.6030013
O -8.8970025 -12.0910034 12.6900036
H -9.7970027 -12.0580034 12.2850034
H -8.3750023 -12.2250034 11.8810033
O -2.6124881 6.4590206 -6.0859044
H -2.5503595 5.7117746 -5.4528177
H -1.7961587 6.9600128 -5.8692912
O -8.1780023 6.6270019 15.1950043
H -8.8730025 6.6060018 15.8090044
H -8.7100024 6.5110018 14.3940040
O 7.5790021 -11.9280033 -6.7680019
H 6.8250019 -11.5260032 -7.2030020
H 7.7770022 -11.2220031 -6.1330017
O 10.8580030 5.8230016 -6.1080017
H 10.2840029 6.5110018 -6.4670018
H 11.7480033 6.0070017 -6.3890018
O -3.6909217 -4.7330163 -6.8317246
H -4.1285275 -4.5746885 -5.9671738
H -3.1328761 -3.9390422 -6.9065372
O -5.0800014 -7.7070022 12.0540034
H -4.3330012 -8.0290022 11.4460032
H -4.5720013 -7.3000020 12.7540036
O -3.8952682 10.7224404 -8.4974048
H -3.8265135 9.7463679 -8.5567040
H -3.8561793 11.0129910 -9.4308271
O -5.9090017 12.0580034 11.0460031
H -5.8470016 11.4150032 11.7990033
H -5.0770014 11.9600033 10.5520030
O 15.9380045 -6.9120019 -8.1570023
H 15.7880044 -6.3230018 -8.9230025
H 16.6370047 -6.4960018 -7.6310021
O 11.8990033 -7.6500021 10.8090030
H 11.8190033 -7.8810022 9.8870028
H 12.7600036 -7.2190020 10.8010030
O 10.9910031 11.9890034 9.6780027
H 11.3290032 11.1290031 9.4020026
H 11.3310032 12.0300034 10.5990030
O -1.1438648 -8.7513365 -4.2259088
H -2.0152697 -8.3301618 -4.1293875
H -0.7956432 -8.6619951 -3.3183798
O -2.6239966 -4.8258922 10.7375881
H -2.3448884 -5.1453709 11.6192430
H -1.8250062 -4.3260900 10.4677522
O -0.2021705 13.1626688 -1.8659750
H 0.5397053 13.3788770 -1.2562053
H 0.2610302 12.8147572 -2.6515334
O 15.9160045 -6.6980019 -4.6690013
H 15.4380043 -5.8180016 -4.8200013
H 15.3830043 -6.9350019 -3.8810011
O 9.2150026 -8.5960024 14.5960041
H 9.0730025 -9.4510026 14.2750040
H 9.3310026 -8.1740023 13.7020038
O -17.0560048 7.9180022 -6.1490017
H -16.4260046 7.3550021 -5.7440016
H -16.6480047 8.8070025 -6.1490017
O 2.4005840 -9.3734122 -6.8781393
H 1.8563083 -9.5288092 -7.6798205
H 2.4738750 -8.3982351 -6.9404647
O -1.9004687 -11.1815985 9.1195587
H -1.6014216 -11.8588567 8.4828531
H -2.1333320 -10.4445129 8.5137696
O 2.5962303 10.1752205 -4.5046174
H 1.8805752 10.8452473 -4.4652765
H 3.1907882 10.5902292 -5.1660830
O 1.2840004 11.4190032 11.1520031
H 0.5900002 11.1570031 11.7820033
H 1.8410005 10.6000030 11.1210031
O -10.1590028 -10.9930031 -3.8910011
H -10.9080031 -11.6380033 -3.8370011
H -10.7320030 -10.2350029 -4.1600012
O -11.3070032 6.6050018 -4.7410013
H -10.7060030 6.1910017 -5.4150015
H -11.1660031 5.8980017 -4.0990011
O -12.2470034 5.9810017 11.6920033
H -12.8640036 5.2250015 11.8720033
H -12.8070036 6.7470019 11.4460032
O 9.2770026 -12.9260036 -4.6940013
H 8.6780024 -12.5130035 -5.3030015
H 8.9000025 -13.7660039 -4.7150013
O 3.3390009 -9.7610027 12.7000036
H 4.0020011 -10.1450028 12.1090034
H 3.9620011 -9.2610026 13.2640037
O 6.6517636 9.2221464 -4.0381470
H 5.8297638 8.7117214 -4.2027934
H 7.3313762 8.5170625 -4.1323578
O 7.9660022 11.7810033 12.8410036
H 7.0690020 12.1630034 12.6700035
H 7.7870022 11.0550031 12.1820034
O -5.5169835 -8.3113769 -8.7177739
H -6.1040558 -7.5320027 -8.5934345
H -4.7965212 -8.0750376 -8.0931756
O -7.7613988 -9.0879235 5.5657255
H -7.9457089 -9.4780493 4.6839878
H -7.6195254 -9.9096839 6.0804558
O -4.3060012 12.6650035 -10.5150029
H -3.8570011 13.4720038 -10.1190028
H -5.2240015 12.9370036 -10.5240029
O -3.9005902 10.2093786 8.6373326
H -3.7809835 11.1502162 8.8826586
H -3.7485593 10.2728115 7.6746372
O 13.5740038 -8.3370023 7.2710020
H 12.9980036 -8.9180025 6.6880019
H 13.8640039 -8.9530025 7.9410022
O 10.6730030 7.5020021 8.1240023
H 11.2130031 6.9390019 7.6040021
H 11.0630031 8.4060024 8.0900023
O -1.3143624 -9.1194768 -7.0354379
H -1.1109943 -9.0132847 -6.0861853
H -2.0812181 -8.5225628 -7.1282343
O -2.3170006 -8.9610025 11.2540031
H -1.4110004 -9.1560026 11.0030031
H -2.3860007 -9.5790027 12.0440034
O -4.0610905 8.0351922 -7.8726926
H -3.9678954 7.4207080 -8.6169675
H -3.5824985 7.5371024 -7.1750144
O -2.7035416 10.4457230 6.1067474
H -2.7716772 11.1544577 5.4237317
H -1.9646133 10.7938284 6.6385957
O 14.2380040 -6.1100017 10.3710029
H 15.0380042 -6.1350017 10.9100031
H 14.0000039 -5.1690014 10.2130029
O 12.2030034 9.8900028 8.5920024
H 12.4180035 10.1900029 7.6800021
H 13.0350036 9.5570027 9.0790025
O -5.3120015 -11.8790033 -6.7480019
H -5.0120014 -12.3440035 -7.4980021
H -5.9740017 -11.2950032 -7.1990020
O -5.7920016 -13.6140038 12.4840035
H -5.1840015 -13.4260038 11.7520033
H -5.4840015 -12.8670036 13.0970037
O -2.2385693 4.1416038 -4.5795502
H -2.8605562 3.8436436 -3.8762277
H -1.3772181 3.8995011 -4.1941058
O -4.8950014 8.4260024 10.5160029
H -4.5230013 8.9270025 9.7600027
H -5.3150015 9.0860025 11.0520031
O 9.9370028 -11.0980031 9.4260026
H 10.5550030 -11.8210033 9.4730027
H 9.1310026 -11.6300033 9.1330026
O 13.0860037 9.2060026 -9.4280026
H 12.9400036 8.9830025 -8.5150024
H 14.0260039 9.0670025 -9.4880027
O 11.9690033 8.7900025 11.8260033
H 12.3960035 8.0680023 11.4240032
H 12.4010035 8.7940025 12.6940036
O -12.5720035 -7.1800020 -7.9840022
H -13.3660037 -7.5500021 -7.5330021
H -12.1830034 -8.0230022 -8.3260023
O -14.1610040 8.7110024 8.0260022
H -14.2950040 9.1020025 8.9490025
H -13.3070037 8.2040023 8.0930023
O 9.1500026 -10.3610029 -10.8170030
H 8.2560023 -10.1020028 -10.4610029
H 9.7320027 -10.0960028 -10.1320028
O 2.7244303 -10.4760339 5.5125979
H 3.4114574 -10.0971606 6.1075137
H 3.2104804 -10.4927649 4.6639995
O 5.8245709 9.4197431 -8.3271289
H 5.6915774 8.5783234 -7.8481026
H 6.5513113 9.8143246 -7.8071573
O 3.5910010 10.6670030 8.9460025
H 3.0740009 11.3470032 9.3850026
H 3.2510009 9.9020028 9.4070026
O -10.7540030 -9.3790026 5.9810017
H -11.4240032 -9.1310026 6.6350019
H -10.0170028 -8.9930025 6.5080018
O -11.6120032 6.6380019 -9.8680028
H -10.9440031 7.2240020 -9.4600026
H -12.1320034 6.4380018 -9.0910025
O -13.4140038 8.3310023 4.5310013
H -14.2630040 8.8130025 4.4260012
H -12.8510036 9.0370025 4.8320014
O 6.1530412 -11.5593802 6.6282633
H 5.6387924 -10.7401452 6.8066041
H 6.2247034 -11.4973030 5.6567950
O 6.4690557 4.3965481 -9.9339004
H 6.1130950 4.2668854 -9.0352109
H 7.3406342 4.7960589 -9.7120716
O 4.2895609 6.5571338 7.1746615
H 4.6486328 7.4566135 7.0515774
H 3.6255965 6.7566704 7.8728507
