14
Source-verbatim DFT/PBE0 optimized geometry from publisher ESI Table S11
N 0.000000000 0.000000000 -0.019180415
C 1.337421793 0.408208553 0.477326965
C -1.022229873 0.954136972 0.477326965
C -0.315191920 -1.362345524 0.477326965
H 1.360997714 0.415443678 1.564978048
H -1.040283637 0.970936756 1.564978048
H -0.320714078 -1.386380434 1.564978048
H 1.528839525 1.392503276 0.069799891
H -1.970362975 0.627762229 0.069799891
H 0.441523450 -2.020265505 0.069799891
H 2.045864251 -0.301469016 0.069876671
H -0.761852299 1.922504923 0.069876671
H -1.284011952 -1.621035906 0.069876671
O 0.000000000 0.000000000 -1.379761850
