17
Source-verbatim SI 3 (R/U)B3LYP/6-31+G(d) geometry
C 3.21965 -0.48992 -0.38895
C 2.01102 0.14552 -0.63260
C 0.93277 0.18834 0.24660
C -0.35729 0.90788 -0.02412
C -1.58719 0.02730 0.20717
C -1.76047 -1.09049 -0.61059
C -2.48202 0.34530 1.21780
H -2.34569 1.22071 1.84597
H -3.35083 -0.27735 1.41455
H -0.43672 1.79489 0.62313
H -0.35921 1.27993 -1.05754
H 1.89319 0.65418 -1.59191
H 3.40404 -1.01301 0.54632
H 1.02136 -0.31577 1.20958
H -1.04433 -1.34047 -1.38739
H -2.62166 -1.74277 -0.49420
H 4.01825 -0.48737 -1.12383
