17
Source-verbatim SI TS-1-4 CASSCF(6,6)/6-31+G(d) geometry
C 2.26681 -0.95434 -0.45176
C 1.46210 0.02528 0.01297
C 1.15753 1.26679 -0.68457
C 0.52956 -0.08112 1.19156
C -0.79349 0.39967 0.61796
C -1.62938 -0.46395 -0.15946
C -2.92712 -0.20123 -0.48554
H 2.38427 -1.88336 0.07732
H 2.81201 -0.84153 -1.37254
H 0.47344 -1.08504 1.60189
H 0.84448 0.57863 1.99529
H 1.00741 2.16222 -0.11041
H 1.43690 1.40643 -1.71502
H -1.24916 1.27665 1.04541
H -1.18552 -1.37755 -0.52268
H -3.49909 -0.87858 -1.09237
H -3.42078 0.69556 -0.15377
