26
four-state degeneracy 4SD; verbatim CASSCF(14,12)/ANO-S coordinates from ACS SI
H 0.001567 -2.402999 -0.292074
H -0.000029 2.419103 -0.294359
H 2.446719 -2.462959 -0.358374
H -2.443541 -2.464565 -0.358080
H 2.437254 2.474247 -0.400423
H -2.437383 2.472644 -0.400034
H 4.524273 -1.230003 -0.876183
H -4.521641 -1.232991 -0.877044
H 4.520190 1.239966 -0.898432
H -4.519289 1.236984 -0.898851
C 0.001281 -1.459219 0.255327
C 0.000321 1.469762 0.242032
C 1.262694 -0.693721 -0.085781
C -1.260675 -0.694542 -0.085579
C 1.261185 0.704602 -0.098390
C -1.260048 0.703780 -0.098319
C 2.443493 -1.381930 -0.367043
C -2.440968 -1.383536 -0.367008
C 2.438995 1.393262 -0.391081
C -2.438337 1.391654 -0.390940
C 3.615797 -0.685894 -0.657369
C -3.613646 -0.688278 -0.657734
C 3.613604 0.696735 -0.669911
C -3.612397 0.694351 -0.670118
O 0.001720 -1.808873 1.609612
O 0.000454 1.756340 1.612409
