17
Source-verbatim SI 6 CASSCF(6,6)/6-31+G(d) geometry
C 2.25346 1.00630 -0.33301
C 2.03123 -0.36444 -0.31762
C 0.95130 -1.02790 0.27199
C -0.19187 -0.35819 0.99513
C -1.32750 0.07969 0.07387
C -1.96155 -0.88635 -0.71814
C -1.71703 1.41082 0.03810
H -1.24915 2.15360 0.65727
H -2.50274 1.74169 -0.61676
H -0.58782 -1.05025 1.73293
H 0.16791 0.50061 1.55067
H 2.76218 -0.98388 -0.81195
H 1.58179 1.70335 0.13038
H 0.91890 -2.09956 0.18477
H -1.66630 -1.91849 -0.69411
H -2.77092 -0.62112 -1.37333
H 3.11800 1.41454 -0.82177
