16
Exact ACS SI CASSCF/6-31G* geometry for TS19-20; DOI 10.1021/ja906679g
C       -0.675276      -1.140390      -0.720696
C       -1.507907      -0.217485      -0.121990
H       -0.970465      -1.480127      -1.698416
C        0.614505      -1.410413      -0.266223
C        1.245365      -0.788167       0.927252
H        1.217722      -2.086154      -0.844223
H        0.547616      -0.416563       1.663212
C        1.818726       0.273677       0.045622
H        1.992664      -1.408790       1.401391
C        1.064155       1.378082      -0.362130
H        2.791426       0.118949      -0.382873
H        1.488619       2.015969      -1.125392
N       -0.157707       1.586347       0.082825
H       -0.585051       2.353075      -0.407685
N       -2.567273       0.031762       0.457285
H       -2.765079       1.005048       0.602212
