14
Exact ACS SI CASSCF/6-31G* geometry for TS27-28; DOI 10.1021/ja906679g
C       -0.681880      -1.153037      -0.599345
C       -1.510302      -0.209880      -0.019318
H       -1.095583      -1.601102      -1.484353
C        0.653543      -1.342208      -0.268693
C        1.364809      -0.725524       0.867123
H        1.209865      -2.027518      -0.880858
H        0.730490      -0.394298       1.678311
C        1.805129       0.372742      -0.048905
H        2.178378      -1.324902       1.248655
C        0.908051       1.387044      -0.365999
H        2.784181       0.355286      -0.488177
H        1.224150       2.172077      -1.044426
O       -2.509323       0.182469       0.393563
O       -0.274125       1.423235       0.054146
