10
Exact ACS SI CASSCF(6,6)/6-31G* geometry for 25 (3A"); DOI 10.1021/jo0256991
C       0.9660117      0.0302070      0.0000000
C       0.2583473      1.2204795      0.0000000
C      -1.1453162      1.1001822      0.0000000
C      -0.9517024     -1.1424712      0.0000000
N       2.3337023      0.0326306      0.0000000
N       0.3376292     -1.1685778      0.0000000
N      -1.7445940     -0.0490220      0.0000000
H       0.7498219      2.1735373      0.0000000
H      -1.7650774      1.9798864      0.0000000
H      -1.4640772     -2.0863900      0.0000000
