17
Source-verbatim SI 4 (R/U)B3LYP/6-31+G(d) geometry
C 2.94274 -0.63011 0.00000
C 1.57617 -0.38728 0.00000
C 0.99973 0.87817 0.00000
C -0.47078 1.20520 -0.00000
C -1.41534 0.01194 0.00000
C -1.83175 -0.51965 1.21680
C -1.83175 -0.51965 -1.21680
H -1.50306 -0.09963 2.16280
H -2.50032 -1.37558 1.25699
H -0.69114 1.84068 0.87269
H -0.69114 1.84068 -0.87270
H 0.90860 -1.24821 0.00000
H 3.66283 0.18498 0.00000
H 1.66667 1.74193 0.00000
H -1.50306 -0.09963 -2.16280
H -2.50032 -1.37558 -1.25699
H 3.33675 -1.64135 0.00000
