16
VERBATIM chair cyclohexane-1,4-diyl to 1,5-hexadiene transition structure, CASSCF(6,6)/6-31G*, scanned SI p. 8
C 0.614311 1.316836 -0.002561
C 0.703446 0.585770 -1.233548
C -0.703446 -0.585770 -1.233548
C -0.614311 -1.316836 -0.002561
C -0.647660 -0.527001 1.236501
C 0.647660 0.527001 1.236501
H 0.000000 2.203995 0.001922
H 0.593096 1.167612 -2.138344
H 1.545512 -0.086460 -1.310416
H -0.593096 -1.167612 -2.138344
H -1.545512 0.086460 -1.310416
H 0.000000 -2.203995 0.001922
H -1.533929 0.092371 1.311427
H -0.572791 -1.131247 2.133058
H 1.533929 -0.092371 1.311427
H 0.572791 1.131247 2.133058
