17
Source-verbatim SI 5 CASSCF(6,6)/6-31+G(d) geometry
C -2.98751 -0.00019 -0.53495
C -2.21889 0.00053 0.61779
C -0.81817 -0.00035 0.67485
C 0.08176 -0.00251 -0.53712
C 1.55168 0.00003 -0.16093
C 2.20571 -1.21663 0.02881
C 2.20168 1.21924 0.02699
H 1.69304 2.15394 -0.12001
H 3.23394 1.25968 0.32370
H -0.13165 -0.87295 -1.15325
H -0.13349 0.86427 -1.15771
H -2.74072 0.00182 1.56093
H -2.54856 -0.00156 -1.51541
H -0.34841 -0.00007 1.64160
H 1.70023 -2.15326 -0.11675
H 3.23810 -1.25315 0.32560
H -4.05999 0.00059 -0.48144
