25
TS: 18 <--> 8  triplet; source-verbatim CASSCF(14,12) optimized coordinates from JA043988W SI
C        0.693228      -0.408916      -0.014146
C        3.502541      -0.724784       0.121452
C        1.609124       0.732050      -0.287133
C        1.214266      -1.693091       0.126908
C        2.593961      -1.880070       0.161192
C        3.033710       0.507223      -0.064882
C       -0.370885       2.283428       0.474093
C       -2.750639      -0.465681      -0.048572
C       -4.032250      -1.228521      -0.196618
C       -2.579153       0.928900       0.151367
C       -1.219687       1.111606       0.250798
N       -0.658178      -0.130011       0.084046
N        1.055181       1.883502      -0.655402
N       -1.589233      -1.084549      -0.087512
H        0.543233      -2.520837       0.245392
H        3.002199      -2.864950       0.280850
H        3.695603       1.355571      -0.106812
H        4.556049      -0.894491       0.249689
H       -3.340045       1.676081       0.240785
H        0.120334       2.337967       1.431807
H       -0.810562       3.218734       0.171449
H        1.707196       2.646614      -0.685129
H       -3.822077      -2.277194      -0.363901
H       -4.613113      -0.856237      -1.034701
H       -4.646294      -1.139545       0.694435
