25
5b (heteropentalene); source-verbatim CASSCF(14,12) optimized coordinates from JA043988W SI
C       -2.341403      -0.172738       0.000000
C       -0.945927      -0.253422       0.000000
C       -0.237831      -1.469419       0.000000
C       -0.968079      -2.678218       0.000000
C       -2.349648      -2.608916       0.000000
C       -3.037972      -1.371666       0.000000
C        2.247506       0.905693       0.000000
C        1.668679       2.186920       0.000000
C        0.289764       2.054022       0.000000
C       -0.811237       3.063356       0.000000
C        3.662529       0.431252       0.000000
N        1.102989      -1.283181       0.000000
N        1.218432       0.044443       0.000000
N        0.049732       0.709972       0.000000
H       -2.854874       0.770218       0.000000
H       -4.112312      -1.362463       0.000000
H       -0.452213      -3.619935       0.000000
H       -2.921045      -3.519816       0.000000
H        2.206043       3.112454       0.000000
H        4.333632       1.281247       0.000000
H        3.873075      -0.173843       0.875614
H        3.873075      -0.173843      -0.875614
H       -0.385859       4.058957       0.000000
H       -1.442394       2.969791       0.878806
H       -1.442394       2.969791      -0.878806
