19
2a (NH) triplet, Cs symmetry; source-verbatim CASSCF(14,12) optimized coordinates from JA043988W SI
C       -2.006467      -2.435344       0.000000
C       -0.770734      -3.129655       0.000000
C        0.172909      -2.141066       0.000000
C       -0.001326       0.372724       0.000000
C        1.391886       0.667126       0.000000
C        1.804796       2.031816       0.000000
C        0.883156       3.053088       0.000000
C       -0.483943       2.738257       0.000000
C       -0.911133       1.433600       0.000000
N       -1.824919      -1.137571       0.000000
N       -0.494635      -0.945480       0.000000
N        2.357742      -0.268372       0.000000
H       -1.214455       3.526358       0.000000
H       -0.603524      -4.185540       0.000000
H        2.860028       2.231791       0.000000
H        1.206047       4.077489       0.000000
H       -3.000023      -2.833428       0.000000
H       -1.957010       1.208354       0.000000
H        1.235975      -2.198724       0.000000
