10
Exact ACS SI CASSCF(6,6)/6-31G* geometry for 26; DOI 10.1021/jo0256991
C       1.3178225     -0.7025152     -0.0321018
C       0.3430413      1.4042265      0.0206874
C      -0.8162135     -0.6140157      0.1888672
C      -0.9032942      0.7791785      0.5034625
H       2.2829720     -1.1700651     -0.0536908
H       0.4529041      2.4740831     -0.0559176
H      -1.5211287      1.2105926      1.2647059
N       1.3512515      0.6864340     -0.2741836
N       0.2903382     -1.4386790      0.2094774
N      -1.6787163     -0.1720699     -0.6023133
