19
TS: 2a (NN) <--> 14a (NN) (diradicaloid) singlet; source-verbatim CASSCF(14,12) optimized coordinates from JA043988W SI
C       -2.077504       1.093893      -0.311037
C       -2.982811      -0.813666       0.310660
C       -3.295021       0.496857      -0.139756
C        0.256322       0.308187       0.046034
C        0.914835       1.466829       0.087142
C        2.381992       1.515011       0.032026
C        3.152195       0.392043       0.160993
C        2.478665      -0.854329       0.375727
C        1.092672      -0.902088      -0.060996
N       -1.131936       0.167863       0.022234
N       -1.686729      -0.993190       0.402147
N        1.122250      -1.848269      -0.893849
H        4.223914       0.461080       0.200765
H        2.841673       2.481568      -0.058158
H        0.385806       2.400107       0.144708
H       -3.650810      -1.611108       0.561525
H       -4.259815       0.919444      -0.323311
H       -1.811088       2.063985      -0.668450
H        2.963759      -1.748250       0.703013
