30
Source-verbatim SI 5c (R/U)B3LYP/6-31+G(d) geometry used for CASPT2(6,6)
C 3.39776 0.89227 0.00000
C 2.22673 0.15287 0.00000
C 0.92593 0.66932 0.00000
C 0.65827 2.16121 0.00000
C -0.80796 2.56870 0.00000
C -1.45744 2.76056 1.21520
C -1.45744 2.76056 -1.21520
H -0.94615 2.61749 -2.16260
H -2.50339 3.05317 -1.25204
H 1.15667 2.60532 0.87433
H 1.15667 2.60532 -0.87433
H 2.32516 -0.93142 0.00000
H 3.40410 1.97771 0.00000
H -0.94615 2.61749 2.16260
H -2.50339 3.05317 1.25204
H 4.36258 0.39613 0.00000
O -0.17533 -0.11961 0.00000
Si -0.47302 -1.78952 0.00000
C -2.34909 -1.88609 0.00000
H -2.76730 -1.39204 -0.88504
H -2.69368 -2.92823 0.00000
H -2.76730 -1.39204 0.88504
C 0.24085 -2.57950 -1.55789
H 1.33556 -2.53741 -1.59082
H -0.05122 -3.63653 -1.61656
H -0.13835 -2.08078 -2.45838
C 0.24085 -2.57950 1.55789
H -0.13835 -2.08078 2.45838
H -0.05122 -3.63653 1.61656
H 1.33556 -2.53741 1.59082
