26
APO ground-state minimum; verbatim CASSCF(14,12)/ANO-S coordinates from ACS SI
H 0.000000 -2.330880 0.847163
H 0.000000 2.330880 0.847163
H 2.307825 -2.500525 -0.471037
H -2.307825 -2.500525 -0.471037
H 2.307825 2.500525 -0.471037
H -2.307825 2.500525 -0.471037
H 4.210723 -1.238207 -1.479923
H -4.210723 -1.238207 -1.479923
H 4.210723 1.238207 -1.479923
H -4.210723 1.238207 -1.479923
C 0.000000 -1.244115 0.719920
C 0.000000 1.244115 0.719920
C 1.224750 -0.702103 0.038620
C -1.224750 -0.702103 0.038620
C 1.224750 0.702103 0.038620
C -1.224750 0.702103 0.038620
C 2.302277 -1.413106 -0.486892
C -2.302277 -1.413106 -0.486892
C 2.302277 1.413106 -0.486892
C -2.302277 1.413106 -0.486892
C 3.370800 -0.700824 -1.048626
C -3.370800 -0.700824 -1.048626
C 3.370800 0.700824 -1.048626
C -3.370800 0.700824 -1.048626
O 0.000000 -0.740680 2.087252
O 0.000000 0.740680 2.087252
