19
2a TS:  (NN) <--> (NH) open-shell singlet; source-verbatim CASSCF(14,12) optimized coordinates from JA043988W SI
C        3.011082      -0.033052      -0.767154
C        3.168812      -0.180968       0.633310
C        1.887221      -0.295437       1.103628
C       -0.348396      -0.251395       0.014833
C       -1.082991       1.032980       0.073712
C       -2.558661       0.961262       0.039643
C       -3.183818      -0.212558      -0.023995
C       -2.445157      -1.460468      -0.070665
C       -1.034083      -1.438841      -0.054458
N        1.743065      -0.056794      -1.116482
N        1.064185      -0.224311       0.024563
N       -0.485821       2.152674       0.165770
H       -2.971418      -2.393090      -0.125561
H        4.076261      -0.197305       1.198502
H       -3.096076       1.890103       0.071715
H       -4.257889      -0.251046      -0.045126
H        3.767320       0.086462      -1.515191
H       -0.478860      -2.356902      -0.105460
H        1.496882      -0.415760       2.091516
