19
TS: 17 <--> 7; source-verbatim CASSCF(14,12) optimized coordinates from JA043988W SI
C       -3.007300      -0.657456      -0.091963
C       -1.387131       0.826243       0.089766
C       -2.788953       0.721254      -0.106935
C        0.434864      -0.471523       0.030054
C        0.796571       0.887248      -0.012583
C        2.161187       1.249003      -0.026798
C        3.098877       0.235067      -0.043347
C        2.713826      -1.132035      -0.018439
C        1.383652      -1.506770       0.026348
N       -1.886230      -1.389442       0.012837
N       -0.929905      -0.480390       0.110608
N       -0.292714       1.732016      -0.040305
H        1.078672      -2.535166       0.054039
H        3.476376      -1.889007      -0.030796
H        2.444995       2.284331      -0.044469
H        4.144882       0.479552      -0.074642
H       -3.504188       1.512120      -0.159092
H       -3.949065      -1.162651      -0.153450
H       -1.046056       1.427374       1.085664
