19
TS: 13a (NN) <--> 2a (NN) (diradicaloid) singlet; source-verbatim CASSCF(14,12) optimized coordinates from JA043988W SI
C       -2.498613       0.163107       1.018207
C       -3.052399      -0.565502       0.054746
C       -2.347937      -0.838954      -1.209503
C       -1.011836      -0.583018      -1.352357
C       -0.313085      -0.015236      -0.236767
C       -1.163066       0.716238       0.724681
C        2.919741      -0.340377       0.874494
C        3.232795      -0.072108      -0.485036
C        2.013526       0.086676      -1.082878
N        1.069843      -0.092827      -0.115216
N       -0.726408       1.897174       0.736808
N        1.623460      -0.346317       1.079230
H       -4.041458      -0.969460       0.174924
H       -2.891885      -1.315087      -2.003569
H       -0.484045      -0.906801      -2.230744
H        3.589110      -0.529102       1.688038
H        4.198060       0.000046      -0.938974
H        1.741883       0.326639      -2.088022
H       -2.996822       0.390449       1.941625
