26
singlet biradical 1BRxy; verbatim CASSCF(14,12)/ANO-S coordinates from ACS SI
H 0.000659 -2.382052 -0.356864
H 0.002739 2.424162 -0.323372
H 2.463211 -2.458187 -0.321144
H -2.463310 -2.456956 -0.315958
H 2.432643 2.478620 -0.419245
H -2.432932 2.478942 -0.431201
H 4.543194 -1.219833 -0.826349
H -4.541302 -1.222543 -0.822860
H 4.521230 1.261207 -0.876612
H -4.528261 1.245334 -0.885240
C -0.000185 -1.460942 0.231952
C 0.000136 1.473632 0.211621
C 1.263484 -0.688163 -0.087782
C -1.266031 -0.691006 -0.085459
C 1.261064 0.704785 -0.117450
C -1.261201 0.708366 -0.119067
C 2.456179 -1.377425 -0.345285
C -2.453503 -1.376158 -0.340952
C 2.443723 1.397556 -0.400823
C -2.438920 1.398184 -0.406409
C 3.627201 -0.681722 -0.626245
C -3.627495 -0.679019 -0.625249
C 3.614483 0.715337 -0.654766
C -3.620584 0.702312 -0.660302
O 0.004594 -1.939125 1.540559
O 0.020778 1.708620 1.590759
