22
VERBATIM heavy-atom coordinates for the full VASP-optimized pSb precursor from jp046147k SI; hydrogens were not included in the source table; precursor was truncated/reduced for the reported CASSCF/CASPT2 model; heavy-atom formula C21N1
C -6.050320 0.726190 0.110340
C -7.351330 -0.064070 -0.134820
C -7.208540 -1.547610 0.192720
C -6.150110 -2.156310 -0.712970
C -4.897730 -1.340350 -0.858360
C -4.815830 -0.036360 -0.425670
C -3.595530 0.726660 -0.443040
C -2.294990 0.292290 -0.387600
C -1.155300 1.145880 -0.436150
C 0.093260 0.527510 -0.325430
C 1.330610 1.186980 -0.350050
C 2.626720 0.694540 -0.216710
C 3.108390 -0.627200 -0.069470
C 4.503240 -0.780640 0.059020
C 5.192800 -1.973290 0.190840
C 7.291270 -3.296710 0.413060
C -6.218130 2.081650 -0.607820
C -5.859650 0.981890 1.623070
C -3.796870 -2.078590 -1.562350
C -1.331600 2.620950 -0.617680
C 2.194620 -1.816570 -0.082860
N 6.521730 -2.057240 0.326330
