30
Source-verbatim SI TS-1c-6c (R/U)B3LYP/6-31+G(d) geometry used for CASPT2(6,6)
C 1.92832 2.25815 0.19409
C 0.85724 1.42728 0.29946
C 0.70806 0.16936 -0.37476
C 1.82214 -0.43045 -1.20805
C 1.92934 -1.45628 0.91557
C 2.75090 -0.87772 -0.09509
C 4.04066 -0.47213 0.03930
H 1.06628 -2.05251 0.63698
H 2.29903 -1.59275 1.93123
H 1.41780 -1.27668 -1.77428
H 2.27147 0.27067 -1.92299
H 0.04713 1.71590 0.96675
H 2.75627 2.06403 -0.47717
H 4.55425 0.06731 -0.75180
H 4.60798 -0.68708 0.94137
H 1.98737 3.15982 0.79682
O -0.51648 -0.35622 -0.60712
Si -2.08295 -0.09559 0.01774
C -2.70394 1.61206 -0.48422
H -3.75604 1.73304 -0.19333
H -2.13580 2.42416 -0.01703
H -2.64338 1.74610 -1.57125
C -2.07525 -0.30940 1.89015
H -3.10159 -0.26188 2.27789
H -1.65739 -1.28238 2.17546
H -1.49335 0.46490 2.40313
C -3.09267 -1.44252 -0.81589
H -4.14869 -1.38302 -0.52269
H -3.04228 -1.35224 -1.90766
H -2.72475 -2.43964 -0.54613
