16
VERBATIM cyclohexane-1,4-diyl twist-boat intermediate, CASSCF(6,6)/6-31G*, scanned SI p. 5
C -1.206145 0.740264 -0.242130
C -0.000348 1.417093 0.341958
C 1.323765 0.759501 -0.177391
C 1.206145 -0.740264 -0.242130
C 0.000348 -1.417093 0.341958
C -1.323765 -0.759501 -0.177391
H -2.110210 1.312116 -0.362493
H 0.000000 2.475485 0.103060
H -0.020311 1.347996 1.431446
H 2.154808 1.058665 0.460849
H 1.544240 1.153595 -1.167481
H 2.110210 -1.312116 -0.362493
H 0.000000 -2.475485 0.103060
H 0.020311 -1.347996 1.431446
H -2.154808 -1.058665 0.460849
H -1.544240 -1.153595 -1.167481
