16
VERBATIM cyclohexane-1,4-diyl boat interconversion transition structure, CASSCF(6,6)/6-31G*, scanned SI p. 10
C 0.000000 1.371966 -0.384531
C 1.270934 0.810828 0.173389
C 1.270934 -0.810828 0.173389
C 0.000000 -1.371966 -0.384531
C -1.270934 -0.810828 0.173389
C -1.270934 0.810828 0.173389
H 0.000000 1.659458 -1.423645
H 2.131585 1.171369 -0.377991
H 1.393209 1.135937 1.203069
H 1.393209 -1.135937 1.203069
H 2.131585 -1.171369 -0.377991
H 0.000000 -1.659458 -1.423645
H -2.131585 -1.171369 -0.377991
H -1.393209 -1.135937 1.203069
H -1.393209 1.135937 1.203069
H -2.131585 1.171369 -0.377991
