16
VERBATIM twist-boat cyclohexane-1,4-diyl to chair transition structure, CASSCF(6,6)/6-31G*, scanned SI p. 6
C 0.000000 0.000000 0.000000
C 1.359816 0.000000 0.631325
C 1.267663 -0.451834 2.125806
C 0.000000 0.000000 2.794709
C -1.075309 0.842657 2.165356
C -1.022994 0.922154 0.592364
H -0.078057 -0.219071 -1.051892
H 2.044678 -0.648903 0.096137
H 1.783637 1.005064 0.588799
H 2.139517 -0.098014 2.675260
H 1.317891 -1.538829 2.154263
H -0.096990 -0.043035 3.866701
H -2.041311 0.439079 2.458995
H -1.047022 1.851562 2.577932
H -0.794793 1.947593 0.296102
H -2.006093 0.704748 0.187919
