10
Exact ACS SI CASSCF(6,6)/6-31G* geometry for 10 (1A"); DOI 10.1021/jo0256991
C       0.9916805      0.0051549      0.0000000
C       0.1476872      1.2299271      0.0000000
C      -0.8973738     -1.2458804      0.0000000
C      -1.7003876     -0.0479897      0.0000000
N       2.2513481      0.1209611      0.0000000
N       0.3718441     -1.2569178      0.0000000
N      -1.1187559      1.1941444      0.0000000
H       0.6463077      2.1828919      0.0000000
H      -1.4037927     -2.1972559      0.0000000
H      -2.7699273     -0.0936918      0.0000000
