19
TS: 2a (NN) <--> 5a; source-verbatim CASSCF(14,12) optimized coordinates from JA043988W SI
C        1.782509       2.692367      -0.018113
C        0.458318       2.313205      -0.017229
C        2.509424       1.487384      -0.120693
C       -0.560945      -0.002491      -0.010158
C        0.007969      -1.295955       0.178308
C       -0.868192      -2.414768       0.097171
C       -2.239505      -2.205836       0.034665
C       -2.771614      -0.915556      -0.113520
C       -1.919939       0.193596      -0.180137
N        0.440045       0.962244      -0.117708
N        1.675657       0.467288      -0.199721
N        1.273987      -1.435045       0.478351
H       -2.316195       1.175943      -0.361702
H       -3.830921      -0.779264      -0.225378
H       -0.453006      -3.401709       0.166754
H       -2.901639      -3.052485       0.047390
H        3.564629       1.328352      -0.177444
H       -0.441962       2.880507       0.071310
H        2.169671       3.688127       0.025686
