17
Source-verbatim SI TS-1-5 CASSCF(6,6)/6-31+G(d) geometry
C -2.77912 -0.11366 -0.56647
C -2.03712 0.15902 0.54723
C -0.64920 -0.12327 0.74633
C 0.24950 -0.87450 -0.21210
C 1.48150 -0.00793 -0.20513
C 1.03989 1.37720 -0.26757
C 2.74024 -0.41966 0.05773
H 2.97660 -1.46181 0.17924
H 3.54967 0.28196 0.15935
H 0.43621 -1.89986 0.09466
H -0.18355 -0.90657 -1.20677
H -2.53334 0.65829 1.36381
H -2.37393 -0.61187 -1.42760
H -0.27068 -0.02637 1.74841
H 1.68287 2.17815 0.05651
H 0.25862 1.64388 -0.95464
H -3.81672 0.16114 -0.61317
