18
Exact ACS SI CASSCF/6-31G* geometry for TS29-30; DOI 10.1021/ja906679g
H       -0.901397      -1.695764       1.484242
C       -0.378840      -1.188530       0.692666
C        0.974698      -0.943493       0.907692
C       -0.969528      -1.292980      -0.704748
H        1.386734      -0.979216       1.901777
C        1.760300      -0.217653       0.021553
C       -2.026754      -0.191144      -0.691308
H       -1.362186      -2.286467      -0.904025
H       -0.211147      -1.094597      -1.451045
C       -1.615916       0.687618       0.481653
H       -3.013587      -0.600021      -0.500886
H       -2.078242       0.360768      -1.624473
C       -0.561442       1.609734       0.419843
H       -2.353368       0.866851       1.246397
H       -0.505967       2.347801       1.210977
N        0.426738       1.487248      -0.440991
H        1.110003       2.213961      -0.321312
O        2.730861      -0.040671      -0.589854
