16
VERBATIM 1,5-hexadiene boat-Cope transition structure, CASSCF(6,6)/6-31G*, scanned SI p. 14
C 0.000000 1.503809 -0.426828
C 1.226306 1.272734 0.185135
C 1.226306 -1.272734 0.185135
C 0.000000 -1.503809 -0.426828
C -1.226306 -1.272734 0.185135
C -1.226306 1.272734 0.185135
H 0.000000 1.671557 -1.492143
H 2.144359 1.460829 -0.340269
H 1.296364 1.218295 1.256017
H 1.296364 -1.218295 1.256017
H 2.144359 -1.460829 -0.340269
H 0.000000 -1.671557 -1.492143
H -2.144359 -1.460829 -0.340269
H -1.296364 -1.218295 1.256017
H -1.296364 1.218295 1.256017
H -2.144359 1.460829 -0.340269
