17
Source-verbatim SI 3 CASSCF(6,6)/6-31+G(d) geometry
C 3.26636 0.14487 -0.43526
C 2.11057 -0.00960 0.32253
C 0.86459 -0.36655 -0.18962
C -0.36273 -0.59013 0.65403
C -1.60659 0.06232 0.06749
C -1.66126 1.46176 0.01969
C -2.64270 -0.72396 -0.41459
H -2.60216 -1.79669 -0.37303
H -3.51954 -0.28122 -0.85146
H -0.54303 -1.65732 0.76290
H -0.18856 -0.20703 1.65587
H 2.18356 0.16647 1.38485
H 3.26332 -0.01609 -1.49833
H 0.77157 -0.55307 -1.24734
H -0.85274 2.06596 0.38666
H -2.51704 1.97131 -0.38397
H 4.19514 0.43541 0.01819
