17
Exact ACS SI CASSCF/6-31G* geometry for TS17-18; DOI 10.1021/ja906679g
C        0.621026      -1.137840      -0.748389
C        1.450608      -0.203118      -0.171748
H        0.860879      -1.480675      -1.742201
C       -0.649730      -1.429531      -0.245502
C        2.607721       0.089546       0.400622
C       -1.246259      -0.775681       0.953208
H       -1.275528      -2.107334      -0.797576
H       -1.995559      -1.372939       1.453478
C       -1.814206       0.276555       0.057735
H       -0.524753      -0.400026       1.662233
C       -1.064253       1.380848      -0.365164
H        3.283016      -0.689848       0.709487
H       -2.780904       0.108183      -0.379842
H       -1.471954       1.982011      -1.166399
H        2.894843       1.103583       0.607432
N        0.142241       1.613118       0.109357
H        0.584835       2.360545      -0.396685
