18
Exact ACS SI CASSCF/6-31G* geometry for 29; DOI 10.1021/ja906679g
C        0.503612      -2.068538      -0.187947
C       -0.189367      -0.720741      -0.512940
C       -1.238514      -0.314145       0.491891
H       -0.592981      -0.637211      -1.514761
C        1.246855      -0.033445      -0.348319
C        1.698244      -1.300836       0.411620
C        1.362215       1.300580       0.319120
N        1.862759       2.302466      -0.288701
H       -1.098863      -0.481544       1.544264
C       -2.375505       0.255450       0.144135
O       -3.376967       0.747943      -0.162012
H        1.862484       3.117026       0.303048
H       -0.034410      -2.746259       0.463919
H        0.777958      -2.603204      -1.090508
H        1.602590      -1.183124       1.487380
H        2.694104      -1.670871       0.199101
H        1.721947       0.028224      -1.319648
H        0.998349       1.366202       1.338845
