17
Source-verbatim SI 1 (R/U)B3LYP/6-31+G(d) geometry
C -2.71139 -0.51734 -0.36233
C -1.92523 0.45270 0.11673
C -0.49894 0.31109 0.55330
C 0.59686 1.14280 -0.20567
C 1.49345 -0.08374 -0.12005
C 2.81147 -0.26748 -0.17427
C 0.31652 -0.98134 0.23514
H 0.95224 2.06732 0.26307
H 0.28953 1.36361 -1.23661
H 0.45557 -1.70771 1.04327
H -0.07662 -1.50637 -0.64509
H -2.33761 1.45963 0.21580
H -2.36338 -1.54156 -0.47694
H -0.42599 0.53716 1.62626
H 3.25706 -1.24654 -0.01000
H 3.49293 0.55455 -0.38385
H -3.74015 -0.32026 -0.65290
