19
2a TS:  (NN) <--> (NH) triplet; source-verbatim CASSCF(14,12) optimized coordinates from JA043988W SI
C        3.002500      -0.041757      -0.762989
C        3.155926      -0.210188       0.634991
C        1.870930      -0.299113       1.103387
C       -0.366247      -0.217678       0.013877
C       -1.094445       0.996195       0.066685
C       -2.513147       0.940927       0.044902
C       -3.160002      -0.258382      -0.019128
C       -2.434117      -1.459098      -0.066529
C       -1.041190      -1.431961      -0.052037
N        1.733777      -0.031434      -1.112665
N        1.050928      -0.189695       0.026304
N       -0.471906       2.190017       0.144962
H       -2.951216      -2.399036      -0.116548
H        4.062227      -0.252961       1.200687
H       -3.060113       1.864813       0.081943
H       -4.234376      -0.286000      -0.034064
H        3.761443       0.069112      -1.509632
H       -0.472581      -2.341739      -0.099893
H        1.476914      -0.422515       2.089464
