16
Exact ACS SI CASSCF/6-31G* geometry for 19; DOI 10.1021/ja906679g
C       -1.240338      -1.087652       0.148039
C       -1.937472       0.024653      -0.008260
H       -1.721898      -1.901614       0.661463
C        0.105901      -1.324144      -0.458761
C        1.293830      -1.577539       0.413893
H        0.088843      -1.886051      -1.378892
H        1.148085      -1.500032       1.478316
C        1.257970      -0.302232      -0.378442
H        1.997418      -2.337711       0.122983
C        1.113031       1.002903       0.314876
H        1.889359      -0.247154      -1.247292
H        0.547628       1.005993       1.238326
N        1.644676       2.053996      -0.169470
H        1.459723       2.848075       0.420323
N       -2.481560       1.124406       0.056748
H       -3.108494       1.353748      -0.694249
