17
Source-verbatim SI TS-1-5 (R/U)B3LYP/6-31+G(d) geometry
C -2.74523 -0.11894 -0.54730
C -1.98756 0.17373 0.55113
C -0.61506 -0.14413 0.74983
C 0.26528 -0.92224 -0.20554
C 1.46131 0.00417 -0.22757
C 0.94068 1.34077 -0.29963
C 2.73861 -0.34389 0.06383
H 3.02882 -1.38269 0.19486
H 3.51684 0.40698 0.17739
H 0.49457 -1.94124 0.13148
H -0.19671 -0.99763 -1.19754
H -2.46703 0.72280 1.36213
H -2.35400 -0.66981 -1.39803
H -0.20757 -0.01205 1.74866
H 1.54172 2.19804 0.00153
H 0.08168 1.55494 -0.92664
H -3.78651 0.18384 -0.60235
