17
Source-verbatim SI TS-1-4 (R/U)B3LYP/6-31+G(d) geometry
C 2.22134 -1.03941 -0.26976
C 1.45021 0.04254 -0.00642
C 1.07883 1.06914 -0.94332
C 0.56155 0.22237 1.20561
C -0.76105 0.53061 0.51715
C -1.58154 -0.49164 -0.03594
C -2.88085 -0.33089 -0.41536
H 2.38314 -1.81686 0.47188
H 2.70213 -1.16808 -1.23666
H 0.52402 -0.65914 1.85729
H 0.87803 1.07444 1.82029
H 0.87051 2.07400 -0.58982
H 1.29509 0.97314 -2.00637
H -1.21732 1.50587 0.67991
H -1.12210 -1.47368 -0.16171
H -3.45238 -1.14903 -0.84313
H -3.39207 0.62306 -0.30337
