25
TS: 2b (NMe) <--> 18 singlet; source-verbatim CASSCF(14,12) optimized coordinates from JA043988W SI
C       -1.311577       1.103314       0.253095
C       -2.650719       0.825432       0.197051
C       -2.725170      -0.570397      -0.078691
C        0.730409      -0.314207       0.019648
C        1.641285       0.758139      -0.263561
C        3.023331       0.494480      -0.138872
C        3.494061      -0.800404       0.084512
C        2.586417      -1.818607       0.333673
C        1.205728      -1.551963       0.338002
C       -0.580591       2.363535       0.503658
C       -3.949258      -1.415844      -0.258964
N       -1.522162      -1.081687      -0.184777
N       -0.658436      -0.069241       0.005925
N        1.325741       1.954992      -0.790201
H        4.551133      -0.992248       0.110194
H        2.927847      -2.813977       0.549933
H        0.507948      -2.335319       0.558992
H       -3.459878       1.513413       0.328985
H        3.697347       1.315406      -0.293233
H       -3.664340      -2.441245      -0.456053
H       -4.571994      -1.396056       0.629992
H       -4.550184      -1.060933      -1.090303
H        0.207348       2.422680      -0.444616
H       -0.014244       2.398839       1.420761
H       -1.183883       3.249414       0.367271
