10
Exact ACS SI CASSCF(6,6)/6-31G* geometry for 25 (1A"); DOI 10.1021/jo0256991
C       1.0251178      0.0314474      0.0000000
C       0.2286988      1.2508799      0.0000000
C      -1.1879316      1.0882260      0.0000000
C      -0.9067656     -1.1693476      0.0000000
N       2.2989925      0.0788251      0.0000000
N       0.3570896     -1.1992092      0.0000000
N      -1.7513171     -0.0583656      0.0000000
H       0.6965079      2.2141708      0.0000000
H      -1.8197390      1.9603580      0.0000000
H      -1.4294558     -2.1082232      0.0000000
