12
Dewar benzene TCSCF/6-31G* conrotatory TS; verbatim ACS SI coordinates (angstrom)
H -1.4391964648 -0.5263601610 -1.9438889814
H -1.4391964648 -0.5263601610  1.9438889814
C  0.6131372431 -0.3155042105 -1.2896401554
C  0.6131372431 -0.3155042105  1.2896401554
C -0.6958360302 -0.1493023661 -1.2654857571
C -0.6958360302 -0.1493023661  1.2654857571
C  1.1719981152  0.1960959307  0.0000000000
C -0.9634320510  0.6087619156  0.0000000000
H -0.7288532649  1.6604706577  0.0000000000
H  1.2153875724 -0.7703139191 -2.0592250370
H  1.2153875724 -0.7703139191  2.0592250370
H  2.0800898300  0.7782597749  0.0000000000
