16
VERBATIM bicyclo[2.2.0]hexane to boat-Cope mountain top, CASSCF(6,6)/6-31G*, scanned SI p. 12
C 0.000000 1.408999 -0.399430
C 1.230076 0.918367 0.173520
C 1.230076 -0.918367 0.173520
C 0.000000 -1.408999 -0.399430
C -1.230076 -0.918367 0.173520
C -1.230076 0.918367 0.173520
H 0.000000 1.561310 -1.468804
H 2.129270 1.223852 -0.342184
H 1.322218 1.106191 1.233755
H 1.322218 -1.106191 1.233755
H 2.129270 -1.223852 -0.342184
H 0.000000 -1.561310 -1.468804
H -2.129270 -1.223852 -0.342184
H -1.322218 -1.106191 1.233755
H -1.322218 1.106191 1.233755
H -2.129270 1.223852 -0.342184
