26
triplet biradical 3BRxy; verbatim CASSCF(14,12)/ANO-S coordinates from ACS SI
H 0.000486 -2.383340 -0.349732
H 0.002494 2.425094 -0.317069
H 2.462213 -2.458153 -0.322658
H -2.462879 -2.457197 -0.316401
H 2.432230 2.478873 -0.417915
H -2.432493 2.478778 -0.432244
H 4.541282 -1.219754 -0.831506
H -4.539958 -1.222829 -0.827467
H 4.519659 1.261253 -0.880371
H -4.526847 1.244971 -0.890086
C -0.000368 -1.460103 0.235699
C -0.000181 1.472966 0.215053
C 1.263000 -0.688056 -0.086907
C -1.266100 -0.691086 -0.084342
C 1.260768 0.704924 -0.116252
C -1.261188 0.708294 -0.117914
C 2.455167 -1.377390 -0.346625
C -2.453004 -1.376403 -0.341659
C 2.443103 1.397803 -0.400661
C -2.438364 1.398010 -0.407396
C 3.625721 -0.681653 -0.629414
C -3.626527 -0.679282 -0.628191
C 3.613212 0.715458 -0.657130
C -3.619564 0.702023 -0.663384
O 0.004571 -1.933128 1.546163
O 0.025161 1.703852 1.594669
