30
Source-verbatim SI TS-1c-5c (R/U)B3LYP/6-31+G(d) geometry used for CASPT2(6,6)
C 1.84001 2.87226 -0.00452
C 0.81198 1.98417 -0.01382
C 0.86341 0.60139 -0.40846
C 2.07943 -0.07886 -1.01246
C 2.29711 -1.14793 0.03826
C 2.07237 -0.51316 1.30858
C 2.37272 -2.47844 -0.20344
H 2.42060 -2.87175 -1.21510
H 2.37665 -3.19933 0.61094
H 1.87202 -0.46668 -2.01574
H 2.92739 0.61062 -1.07943
H -0.16136 2.33261 0.32858
H 2.84132 2.62082 -0.34091
H 1.85410 -1.11046 2.19435
H 2.47275 0.47698 1.49921
H 1.68693 3.88814 0.34626
O -0.28874 -0.04435 -0.70604
Si -1.82111 -0.17715 0.02143
C -1.63186 -0.36778 1.88460
H -1.15695 0.50667 2.34434
H -2.61714 -0.49677 2.35199
H -1.02378 -1.24479 2.13396
C -2.86802 1.33593 -0.40126
H -2.84822 1.53948 -1.47905
H -3.91470 1.16459 -0.11598
H -2.53284 2.24237 0.11668
C -2.55070 -1.71520 -0.77252
H -1.93576 -2.59726 -0.55917
H -3.56479 -1.90988 -0.40034
H -2.60943 -1.60477 -1.86217
