25
8 triplet; source-verbatim CASSCF(14,12) optimized coordinates from JA043988W SI
C        0.708610      -0.404649      -0.226027
C        3.472235      -0.752953       0.198575
C        1.605863       0.772579      -0.153161
C        1.259543      -1.762003      -0.052742
C        2.592191      -1.907979       0.146431
C        2.911597       0.593175       0.047557
C       -0.273975       2.268275       0.250435
C       -2.742358      -0.485133       0.023983
C       -4.040940      -1.233498       0.011217
C       -2.540947       0.913214       0.154417
C       -1.181222       1.085724       0.104961
N       -0.632623      -0.149213      -0.041213
N        0.994612       1.999452      -0.412695
N       -1.595503      -1.129771      -0.100491
H        0.586232      -2.592798      -0.108663
H        3.015823      -2.889245       0.259679
H        3.578080       1.437954       0.067749
H        4.517044      -0.874751       0.403029
H       -3.288001       1.670855       0.272289
H       -0.135792       2.492437       1.308669
H       -0.727440       3.135491      -0.211688
H        1.631665       2.763855      -0.331479
H       -3.855834      -2.292660      -0.114476
H       -4.678284      -0.898573      -0.801307
H       -4.586814      -1.089111       0.938589
