3329
4-thiothymidine S1T1-MIN; verbatim full 3329-atom QM/MM coordinates from ACS SI
N 0.6895685 -0.2823550 -0.9494620
C -0.2258848 -0.4291383 -2.0555709
C -0.3579254 0.6413084 -2.9314255
C 0.4486089 1.7384080 -2.7622428
N 1.4670774 1.7046453 -1.8135450
C 1.6831996 0.6754119 -1.0079879
C -2.1203686 -1.2330086 1.6477718
H -2.7966608 -1.3745307 0.8021272
H -2.6482241 -1.5087953 2.5637018
C -0.8766496 -2.1206630 1.4981958
H -1.1896245 -3.1398350 1.7200613
O -0.3800324 -2.1495279 0.1417232
C 0.8339575 -1.3686525 0.0797325
H 1.6667985 -2.0412017 -0.2330564
H -0.9376533 -1.2281863 -2.0258198
C -1.4034254 0.5806606 -4.0084395
H -2.0298577 1.4672298 -3.9941199
H -0.9379208 0.4997064 -4.9867972
H -2.0570683 -0.2677208 -3.8778702
H 1.9488831 2.6206756 -1.5583355
O 2.7310967 0.5433176 -0.3621994
C 0.2616079 -1.7041559 2.4129594
H -0.0842266 -1.1434275 3.2826171
C 1.1072589 -0.8331615 1.5109203
H 0.7219475 0.1876310 1.5852973
O 0.9491225 -2.8710225 2.9241301
O 2.5113534 -0.7591849 1.8346745
H 2.8512659 -0.2190760 1.0568060
H 1.0007079 -3.5597397 2.2163063
O -1.8350952 0.1632562 1.7458505
H -2.6320514 0.5479158 2.1905191
S 0.2414902 3.3478982 -3.7087686
O -13.2220037 2.3610007 -3.2990009
H -13.2790037 2.6980008 -4.1580012
H -14.1220040 2.0690006 -3.0750009
O 1.2560004 -15.7570044 -1.4500004
H 0.9160003 -15.7940044 -2.3930007
H 0.5620002 -15.1610042 -1.1050003
O 4.3273158 -3.2442592 0.1710464
H 4.7084259 -3.0983609 -0.7218723
H 4.0977812 -4.1825806 0.0937122
O 3.0790009 2.5840007 16.4080046
H 3.6480010 3.3420009 16.1760045
H 2.2090006 2.9160008 16.3270046
O 1.8570005 19.4680054 -2.9100008
H 1.0590003 18.9360053 -2.9230008
H 2.5190007 18.9570053 -3.4510010
O -15.6390044 0.8660002 -2.5550007
H -16.3330046 0.5060001 -2.0000006
H -16.2250045 0.9490003 -3.3350009
O 3.5110010 -14.7870041 0.0920000
H 2.7030008 -15.1600042 0.4820001
H 3.3340009 -15.1010042 -0.8120002
O 2.2820006 0.2210001 -19.1820054
H 2.3510007 0.7400002 -18.3970051
H 2.0940006 -0.7160002 -18.8820053
O -8.0660023 -16.6670047 1.8350005
H -8.3200023 -17.4640049 1.3500004
H -8.0450023 -15.9360045 1.1740003
O -6.9489129 3.2457591 2.1115029
H -7.1944655 4.0227632 1.5707828
H -6.7096633 3.6896694 2.9463884
O 11.0770357 -0.2621528 0.9071268
H 11.6100542 -0.7285833 1.5910428
H 11.0036710 0.6125615 1.3109783
O -14.4160040 3.3100009 -0.3490001
H -13.4700038 3.5680010 -0.3200001
H -14.8050041 3.4420010 -1.2650004
O 7.3190020 -14.5080041 -1.1390003
H 6.8100019 -14.4100040 -0.3040001
H 7.2660020 -13.5580038 -1.5450004
O 7.9200022 0.9820003 -17.6480049
H 8.0760023 0.0290000 -17.4910049
H 8.8040025 1.3000004 -17.3330049
O 2.3284852 3.9913416 -1.0139848
H 2.8024660 4.3277484 -0.2210232
H 1.8297340 4.8099386 -1.2495661
O 0.9829586 0.3687170 11.3177608
H 0.0995757 0.3850867 11.7346910
H 0.8770124 1.0927121 10.6536897
O -2.3940007 -14.7170041 -1.4440004
H -1.8350005 -15.4330043 -1.8090005
H -1.7480005 -14.1310040 -0.9410003
O -3.6560010 5.1860015 -17.6390049
H -3.6850010 4.3930012 -18.2250051
H -3.7500010 4.9520014 -16.7040047
O -6.4515320 1.8978733 -1.1224313
H -5.9530144 2.6582652 -0.7566701
H -6.2500496 1.2254486 -0.4360868
O 10.8570030 -15.2270043 -2.7490008
H 11.7160033 -15.1520042 -2.2770006
H 10.9020031 -14.5920041 -3.4690010
O 13.3630037 3.8550011 1.6850005
H 13.4890038 2.9280008 2.1630006
H 14.2750040 4.1680012 1.5700004
O -9.1870854 -1.7143620 -5.3228214
H -8.5355794 -1.3021779 -5.9328792
H -9.9353832 -1.8414471 -5.9485093
O -8.9420025 -5.9920017 12.3410035
H -8.6070024 -5.6600016 13.2350037
H -8.5070024 -5.3400015 11.7390033
O 9.7601109 -3.4374577 -5.0054014
H 10.5983746 -3.9341067 -4.9199233
H 9.8242160 -3.1732650 -5.9496998
O 9.7860027 0.1920001 14.5570041
H 8.8640025 0.3450001 15.0050042
H 9.7020027 0.9100003 13.8840039
O -4.5520013 0.3510001 -18.6490052
H -4.7830013 -0.5720002 -18.8840053
H -3.6500010 0.4980001 -19.0090053
O -8.9576869 1.8757036 0.8692840
H -8.2256257 2.2945202 1.3702181
H -8.7925556 0.9342684 1.0369305
O 8.5450024 -1.4890004 -16.5020046
H 9.2190026 -2.2050006 -16.6950047
H 8.2660023 -1.7790005 -15.5900044
O 10.8398578 0.4355054 -1.8728940
H 10.3023037 -0.2844887 -2.2641648
H 10.9305789 0.1429176 -0.9450909
O -18.7610053 -6.3820018 -1.4570004
H -18.3970051 -7.2910020 -1.4930004
H -18.0480051 -5.8470016 -0.9820003
O -11.7168431 4.2085111 -0.5992806
H -11.5147109 3.2518263 -0.4941635
H -11.4128164 4.3420576 -1.5172522
O 1.1066103 -10.5369144 0.1626134
H 0.6978808 -11.1074967 0.8516894
H 1.3678414 -11.1948535 -0.5064531
O 0.7443542 5.4859532 2.2508894
H 0.2130138 5.3231209 1.4399490
H 1.6572994 5.4456076 1.8856426
O 0.6400002 6.1370017 17.3010048
H 0.3720001 6.3830018 18.1220051
H 1.4950004 5.7600016 17.5540049
O -16.8320047 3.3460009 1.1310003
H -17.4500049 3.7350010 0.5020001
H -16.0480045 3.2180009 0.5580002
O 1.8020005 -18.0550051 1.7210005
H 2.0870006 -17.7560050 2.5900007
H 1.6380005 -19.0430053 1.9460005
O 0.1790001 3.1610009 -17.0310048
H 0.0250000 4.0810011 -17.4470049
H 0.7140002 3.4640010 -16.2400045
O -1.0051681 4.8684777 0.1541243
H -1.2127502 3.9129703 0.0262586
H -1.8938972 5.2633486 0.0441023
O 17.7410050 1.7230005 -1.9780006
H 18.3480051 1.1930003 -2.4890007
H 17.0520048 1.1080003 -1.7660005
O -6.5590018 -6.9800020 -12.4030035
H -5.9000017 -6.2920018 -12.4010035
H -6.2540018 -7.6100021 -13.1090037
O -7.7624024 -5.0557435 3.0701072
H -7.3669614 -4.2880316 3.5312568
H -8.3039070 -4.5871723 2.3983423
O -6.9880020 11.7150033 -13.8220039
H -6.9770020 12.4740035 -13.3070037
H -6.1750017 11.7680033 -14.2810040
O -7.5300021 16.3790046 -0.7660002
H -6.8580019 15.8030044 -0.3520001
H -7.4810021 15.8290044 -1.6200005
O 9.3872951 -6.6885356 1.9818767
H 10.2565199 -7.0484785 2.2423103
H 9.2279477 -6.0478520 2.7064415
O 10.9890031 12.2640034 -1.2580004
H 10.7160030 13.1540037 -0.9770003
H 10.6630030 12.2160034 -2.1780006
O -15.0590042 -3.7000010 -1.5480004
H -15.7440044 -3.6270010 -2.2360006
H -15.0710042 -2.6890008 -1.2730004
O 2.2470006 -2.2720006 -18.1530051
H 1.8080005 -3.1660009 -17.9430050
H 2.9350008 -2.5990007 -18.7430052
O 3.2010366 -6.3736402 1.9662657
H 2.9563679 -7.3202556 1.9401762
H 2.3472633 -5.9439625 1.7545092
O -0.0380000 -4.3410012 17.5470049
H 0.2170001 -4.4020012 16.6370047
H -0.8050002 -4.9430014 17.6360049
O 3.5720010 17.8050050 -4.1120012
H 4.5470013 17.7970050 -4.1570012
H 3.4240010 16.9230047 -3.6500010
O -2.7680008 -5.8890016 -17.9160050
H -1.9280005 -5.6120016 -18.3510051
H -2.7260008 -6.8960019 -18.0800051
O -5.4421037 -6.6939991 -1.4703910
H -5.7618158 -6.8999564 -2.3724045
H -5.7889179 -7.4947365 -1.0213191
O -7.7830022 -4.7940013 14.3360040
H -7.4310021 -4.8730014 15.2010043
H -7.2610020 -3.9900011 14.1550040
O -3.8890011 15.0050042 -2.1220006
H -4.1890012 15.9380045 -2.2300006
H -4.2450012 14.5910041 -2.8410008
O 15.2830043 -2.7450008 -4.4390012
H 15.8410044 -1.9120005 -4.3270012
H 14.4610040 -2.5930007 -3.9380011
O -14.7820041 -7.0280020 -2.1460006
H -14.5000041 -6.6220019 -1.3420004
H -14.0330039 -7.5740021 -2.2810006
O -13.0630037 13.3900037 -2.9660008
H -12.4810035 12.9610036 -3.6420010
H -13.2990037 14.1460040 -3.5320010
O 4.4238951 -5.4924922 -1.7866116
H 5.2433022 -5.4919042 -1.2467144
H 4.6959623 -6.0650528 -2.5310360
O 2.8160008 -1.7670005 16.3250046
H 2.9320008 -2.1720006 17.2220048
H 3.2180009 -2.3680007 15.6650044
O 6.1610017 17.4020049 -3.8660011
H 6.4530018 16.6980047 -3.2620009
H 6.3600018 17.0880048 -4.7370013
O -4.9510014 -2.3400007 -18.9020053
H -5.3340015 -3.1830009 -18.9740053
H -4.4070012 -2.4870007 -18.1140051
O -8.3909411 -0.9572471 1.2197531
H -8.2109728 -0.7355972 2.1586474
H -7.5804481 -1.4691628 1.0149436
O -4.1510012 19.0830053 0.4430001
H -3.8220011 19.3080054 -0.4300001
H -5.1130014 19.2780054 0.3800001
O 12.7100036 0.2510001 -4.0510011
H 12.5370035 -0.7410002 -3.7980011
H 12.0320034 0.6590002 -3.5060010
O -2.2080006 -18.0080050 -0.3020001
H -2.7660008 -18.8190053 -0.1540000
H -2.2990006 -17.7980050 -1.3060004
O -3.7474032 -2.3320603 -1.4991945
H -3.7093634 -3.1806464 -1.0091966
H -4.6511492 -2.3906932 -1.8859169
O -7.1420020 -1.3160004 17.3150048
H -6.4210018 -1.6400005 16.8060047
H -7.8430022 -1.1380003 16.5990046
O 18.1500051 -2.2520006 -1.7830005
H 18.9000053 -1.7270005 -1.6350005
H 17.9500050 -1.8280005 -2.6090007
O -7.7920022 -4.1490012 -12.5320035
H -7.8490022 -3.5440010 -13.2920037
H -8.6080024 -4.8160013 -12.6390035
O -9.8165268 -2.5473243 6.5810107
H -10.2789478 -1.7625397 6.2232847
H -10.5853221 -3.0676109 6.8911616
O -9.5630027 13.9430039 2.8650008
H -10.2170029 14.7090041 2.9770008
H -9.9800028 13.2980037 3.4970010
O 9.0130025 -4.6630013 -13.2630037
H 8.4100024 -4.7070013 -14.0780039
H 8.6090024 -5.3950015 -12.7530036
O 9.5432790 -5.1239453 4.2490470
H 8.9808435 -4.6472471 4.8930890
H 9.7571640 -5.9229037 4.7627048
O 8.8020025 16.7050047 4.7590013
H 7.8470022 16.7150047 4.4780013
H 8.9110025 15.7470044 4.8090013
O -3.5270010 -3.7980011 -14.1270040
H -2.6640007 -4.3430012 -14.1830040
H -4.0620011 -4.3400012 -13.5190038
O -4.9131790 -6.5753164 4.1526644
H -4.9169985 -5.6627665 3.7990665
H -5.3501894 -6.4866008 5.0210747
O -7.1440020 13.9400039 1.8020005
H -7.4750021 13.3210037 1.1560003
H -7.9300022 13.9510039 2.4060007
O 13.7900039 -5.3760015 -2.4890007
H 13.2940037 -5.6660016 -1.6650005
H 14.6620041 -5.1250014 -2.1140006
O 14.0230039 13.0250036 0.8850002
H 14.7370041 13.4770038 0.4480001
H 13.9180039 13.6090038 1.6030004
O -15.9460045 4.4580012 -2.4050007
H -16.4020046 3.9350011 -3.1320009
H -15.1900043 4.9850014 -2.7210008
O 2.2180006 -16.9780048 -5.1200014
H 1.8810005 -17.1470048 -6.0190017
H 2.2420006 -17.8190050 -4.6700013
O -0.0560000 -13.6800038 12.4980035
H 0.0220000 -14.4210040 13.1220037
H 0.8500002 -13.2740037 12.7570036
O -0.0275819 3.6373476 12.6680094
H 0.1493990 4.3847170 13.2806796
H -0.9846145 3.5015986 12.7577122
O -18.5520052 2.9300008 3.7940011
H -17.9840050 3.1780009 3.0810009
H -18.0630051 2.1400006 4.1940012
O -4.8240014 -16.7640047 0.4300001
H -4.8370014 -16.2180045 1.2170003
H -4.0400011 -16.4990046 -0.0160000
O -1.8070005 1.5020004 -17.4900049
H -2.0570006 1.2400003 -16.5590046
H -1.0580003 2.1260006 -17.4290049
O -2.5110007 19.0510053 2.6990008
H -3.1350009 19.1360054 1.8620005
H -3.0680009 19.3230054 3.4840010
O 16.4920046 3.9830011 3.3480009
H 17.3590049 3.7670011 2.8630008
H 16.4560046 4.8620014 2.8930008
O -14.8940042 -5.6620016 0.6570002
H -15.1510042 -4.9500014 0.0880000
H -14.7850041 -5.1440014 1.5240004
O 6.6150443 -5.5502294 -0.1599172
H 6.6168843 -5.1188669 0.7280927
H 7.5267755 -5.3271018 -0.4326208
O -5.2010015 -4.9240014 -18.4350052
H -5.4200015 -4.8350014 -17.5020049
H -4.4080012 -5.4010015 -18.3160051
O -6.0999200 -2.5319673 1.0609734
H -5.5890846 -3.0853051 1.6861046
H -6.4331650 -3.2436075 0.4608080
O -3.0720009 14.7530041 0.9880003
H -3.0890009 13.8330039 0.7280002
H -3.0300008 15.1750042 0.1050000
O 13.4170038 -2.4810007 -0.9530003
H 13.3060037 -3.3940009 -0.5410002
H 13.4510038 -1.9040005 -0.1890001
O -5.7220016 -15.3570043 2.6700007
H -6.0890017 -14.4810041 2.6190007
H -6.4090018 -15.8680044 2.2550006
O -4.2250012 5.3950015 -15.0470042
H -4.6400013 4.6080013 -14.5650041
H -3.2600009 5.2460015 -14.8950042
O -3.7830980 3.8371627 2.4143577
H -2.8371626 3.7627903 2.6661049
H -4.0053325 4.7089643 2.8063177
O 11.8810033 -14.1840040 2.1090006
H 11.3470032 -14.9260042 2.4310007
H 12.7990036 -14.5440041 2.0890006
O 16.6280047 8.2530023 3.2120009
H 17.4000049 7.7030022 3.2600009
H 17.1360048 9.0680025 3.3800009
O -6.4159344 3.3283158 -4.4770569
H -5.6782263 3.1708524 -3.8586526
H -6.0448083 4.0047208 -5.0738285
O -9.5660027 6.5370018 12.7180036
H -9.0680025 7.1420020 12.0870034
H -10.4390029 6.5470018 12.2640034
O 12.9370036 -13.8750039 -4.1800012
H 13.7530038 -13.9040039 -3.6610010
H 12.8400036 -12.8940036 -4.3910012
O 10.9272235 2.9327327 -2.9680248
H 11.6079058 3.1941143 -2.3124391
H 10.6949722 2.0526453 -2.5997343
O 7.2780020 3.6230010 15.3510043
H 7.1360020 3.9330011 16.2500045
H 6.9940020 2.6930008 15.4460043
O -14.5390041 -10.2520029 -0.3070001
H -14.8730042 -9.5330027 0.2280001
H -14.9120042 -10.9050031 0.3420001
O -9.6991387 6.1066508 3.7116503
H -10.2648381 6.0286960 2.9119571
H -9.0057302 6.6940917 3.3623351
O 7.7580022 -14.8240041 2.3460007
H 7.1890020 -15.5800044 2.3960007
H 7.0310020 -14.1660040 1.9950006
O 6.0793259 7.2458069 -1.2658468
H 5.1236349 7.3635118 -1.0650961
H 6.1910948 7.8415460 -2.0315618
O -10.9961715 -5.6026753 2.8579973
H -10.5120859 -4.8880638 2.3985637
H -10.3144283 -5.9493612 3.4635742
O -10.3060029 13.4760038 -0.2670001
H -10.6470030 14.0130039 0.4880001
H -9.7410027 12.7630036 0.1930001
O 7.1944685 -8.3929008 2.6788100
H 6.7239361 -8.3360448 1.8230327
H 8.0535618 -7.9997852 2.4248953
O 9.0340025 14.7620041 1.9870006
H 9.9980028 14.9100042 1.8300005
H 9.0750025 14.2920040 2.8740008
O -17.4190049 7.3950021 -0.0480000
H -16.8920047 7.8060022 -0.7210002
H -18.1870051 8.0560023 -0.0930000
O -0.4460001 -9.1550026 -17.4820049
H -0.4360001 -9.8370028 -16.7780047
H -1.3430004 -8.9670025 -17.6490049
O -1.1693716 -8.0737377 1.3642276
H -1.5584725 -7.1754130 1.4146134
H -0.5355759 -8.0145318 2.1084850
O -3.0990009 -9.1880026 16.4430046
H -3.7470010 -8.6730024 15.9640045
H -2.2920006 -9.1510026 15.8820044
O 1.5210004 14.0460039 0.0620000
H 2.4390007 13.8720039 0.3370001
H 1.1920003 14.4860041 0.8540002
O 15.3060043 -8.2090023 2.8280008
H 15.6150044 -9.1660026 2.8620008
H 15.4000043 -7.9880022 3.7690011
O 15.4460043 10.7520030 -0.1100000
H 16.0220045 11.1870031 0.5030001
H 14.6660041 11.3470032 -0.0430000
O -13.5510038 7.8710022 -5.9490017
H -12.6470035 7.4420021 -5.7960016
H -14.0260039 7.0720020 -6.3110018
O 3.4380010 -12.9130036 -4.9810014
H 4.2160012 -13.3870037 -4.6520013
H 3.4340010 -12.1870034 -4.3000012
O 1.6960005 -10.7140030 16.5440046
H 2.3710007 -10.5890030 15.8370044
H 1.9250005 -9.9760028 17.1230048
O 4.0311241 3.5346096 -3.6023437
H 3.8511499 3.4369394 -4.5436133
H 3.6724857 4.4268596 -3.4297270
O 0.6620002 5.4570015 14.6310041
H 1.4770004 6.0670017 14.6520041
H 0.5090001 5.4470015 15.5530044
O -10.9150031 -11.3250032 -0.5910002
H -11.3450032 -12.0570034 -0.9550003
H -11.1880031 -11.3930032 0.3100001
O -11.6715080 1.4847901 -0.6782656
H -11.9581404 1.1257412 0.1908642
H -12.4176571 1.2710937 -1.2576054
O 5.5280015 -14.0410039 -3.8830011
H 5.9610017 -13.2910037 -3.4380010
H 5.2830015 -14.5600041 -3.0940009
O 2.1830006 -12.2310034 12.2510034
H 2.5070007 -11.2960032 12.5190035
H 3.0830009 -12.6880036 12.2720034
O 2.2020006 5.3150015 -17.7290050
H 1.4090004 5.6970016 -18.1560051
H 2.3190006 5.9390017 -16.9560047
O 5.9778300 1.6328985 -3.1505836
H 5.3618389 0.9523567 -2.7920021
H 5.3967870 2.4263797 -3.1125189
O 4.6650013 4.5740013 15.3250043
H 5.4230015 4.8110013 15.8730044
H 4.0990011 5.3860015 15.2970043
O -13.1250037 -12.7670036 3.7570011
H -13.6670038 -12.7800036 4.5140013
H -12.2870034 -13.2400037 4.1270012
O -8.0230022 0.5440002 -16.5310046
H -8.2080023 -0.4560001 -16.4490046
H -8.2920023 0.6250002 -17.4190049
O -12.9070036 5.7040016 4.3420012
H -13.0100036 6.6160019 4.6610013
H -13.0750037 5.7980016 3.3940009
O 7.8080022 2.5930007 -13.0480037
H 7.4150021 1.9830006 -13.7350038
H 7.7250022 3.4740010 -13.4160038
O 3.9974819 4.5095524 5.2659867
H 3.0342913 4.6060429 5.1247412
H 4.1454481 5.2618982 5.8762080
O -17.4810049 3.1720009 -4.0950011
H -17.2990048 2.4780007 -4.7910013
H -18.3520051 2.9010008 -3.7370010
O -0.6370002 -19.4900055 -4.3850012
H -1.4890004 -19.3230054 -3.9520011
H -0.5220001 -18.6040052 -4.8050013
O 2.7154404 0.0308640 -4.8006844
H 3.1331211 -0.0438512 -3.9163066
H 2.6030952 -0.9203006 -5.0178792
O -0.5277294 -2.3888644 12.3568495
H 0.0237046 -2.3178759 13.1605405
H -1.0065079 -1.5440363 12.3971044
O 15.1860043 -1.0580003 9.8340028
H 15.0100042 -0.7410002 8.9340025
H 14.6470041 -0.5070001 10.4560029
O -15.3760043 -1.4580004 -10.2100029
H -14.9430042 -0.5990002 -10.3270029
H -14.7790041 -1.7550005 -9.5160027
O 5.6247687 0.4663507 -8.1206298
H 5.3083357 0.7493061 -7.2382697
H 6.1378598 -0.3307166 -7.8753463
O -0.0984849 -3.7882104 10.1020334
H 0.2652105 -3.1332712 9.4760401
H -0.1752633 -3.2446203 10.9235390
O -10.3804980 2.0910407 6.5041906
H -9.7611755 2.6083927 5.9442773
H -10.4890252 2.6673521 7.2882331
O 5.7860016 1.3240004 -14.8120041
H 5.1400014 2.0170006 -15.1040042
H 6.3240018 1.3390004 -15.5550044
O 8.2289331 2.7483454 1.7613196
H 7.9920545 2.2146522 0.9671687
H 7.4272184 3.2949289 1.8376935
O -9.2871652 0.6403503 -3.9436818
H -9.4735560 0.4147778 -3.0015024
H -9.3666743 -0.2447265 -4.3551103
O 4.1663227 -0.2445635 -2.4096797
H 4.5271195 -1.1409827 -2.2476956
H 3.7717867 -0.0159622 -1.5195605
O 2.6430378 0.4313634 13.4865324
H 3.3002868 1.1499546 13.5705559
H 2.2251091 0.6359723 12.6233130
O -11.1510031 -0.3150001 -14.0320039
H -11.2490031 0.4060001 -14.6780041
H -11.9410033 -0.8500002 -14.3040040
O -14.8860042 0.1630000 2.9420008
H -15.8530044 0.1200000 3.1370009
H -14.4940041 -0.3660001 3.6630010
O 3.1910009 -16.4360046 4.5060013
H 3.4040010 -17.3870049 4.5080013
H 2.3860007 -16.3830046 5.0600014
O 5.2320015 -3.3520009 -14.8320042
H 5.0230014 -2.4060007 -14.7610041
H 4.4230012 -3.8390011 -14.6980041
O 4.7540820 -1.9512259 5.4102185
H 5.2840374 -1.2478319 4.9791530
H 4.4263742 -2.3967932 4.6013876
O -2.9520008 -17.9980050 -3.3370009
H -3.9040011 -18.0270050 -3.5310010
H -2.7520008 -17.1140048 -3.6600010
O -3.5480180 0.4777515 -1.4101461
H -3.4999069 -0.4893053 -1.5461076
H -4.2036867 0.4794197 -0.6790954
O 15.2030043 0.2980001 -5.2660015
H 14.8930042 0.5390002 -6.1010017
H 14.3110040 0.1440000 -4.8250014
O 12.3990035 -0.6230002 14.9750042
H 11.4190032 -0.3930001 14.9410042
H 12.4560035 -1.4670004 14.4680040
O -0.1460000 -13.7020038 -0.3430001
H 0.3940001 -13.1370037 -0.9680003
H 0.1420000 -13.2930037 0.4610001
O -1.2270003 6.6530019 -15.5920044
H -0.7210002 6.2200017 -14.9090042
H -0.9150003 7.5990021 -15.4790043
O -0.6246456 8.0320709 2.6512100
H 0.0600396 8.7151698 2.8208340
H -0.0890202 7.2192742 2.5876458
O 14.9960042 -8.3460023 -2.4940007
H 14.3790040 -9.1540026 -2.5750007
H 14.8970042 -8.1580023 -1.5010004
O 16.4060046 3.9830011 -1.4080004
H 15.6720044 3.7760011 -1.9390005
H 16.8300047 3.0720009 -1.4430004
O -5.4520015 0.8830002 -15.7750044
H -6.3210018 0.7800002 -16.1870045
H -5.0180014 0.5610002 -16.6070046
O 15.2660043 -0.4270001 -1.3780004
H 14.6800041 -1.1510003 -1.6490005
H 15.2620043 -0.4920001 -0.3600001
O -15.6860044 -8.2440023 1.4930004
H -15.3520043 -7.5590021 0.9070003
H -16.6100046 -7.9390022 1.7500005
O -13.2690037 9.3680026 0.8700002
H -14.2360040 9.4020026 0.9040003
H -13.1410037 8.4720024 0.6320002
O 0.1211220 -12.3415298 1.9987772
H -0.6737927 -12.8454767 2.2697262
H 0.6324860 -12.3754224 2.8357359
O 2.7280008 6.8740019 -15.5300043
H 3.7220010 6.9520019 -15.5790044
H 2.4020007 7.6210021 -14.9180042
O 4.5536459 1.8253190 0.8595869
H 5.0894823 1.0096046 0.8277040
H 3.7674077 1.4516995 0.3629624
O 18.1660051 5.8390016 -2.2490006
H 18.1290051 6.4940018 -1.4960004
H 17.6840049 5.0560014 -1.8200005
O -3.7130010 -15.7530044 -10.3330029
H -3.1880009 -16.1640045 -11.0710031
H -3.1930009 -16.0270045 -9.5500027
O -3.8460011 -16.0270045 4.6380013
H -4.4780013 -16.3200046 5.3410015
H -4.5150013 -15.5820044 3.9800011
O -2.2430208 0.5014684 -11.3386974
H -1.3906498 0.7344686 -10.9111773
H -2.4757500 1.3452942 -11.7797541
O -2.3245273 2.2755148 7.1235419
H -2.8245957 3.0360851 6.7642200
H -1.7792575 2.0034481 6.3542569
O -0.2950001 18.6790052 4.3190012
H -0.6480002 18.4000051 5.1700014
H -1.1730003 18.7250052 3.7710011
O 15.3150043 3.2070009 5.6350016
H 15.7300044 3.2660009 4.7690013
H 14.6130041 2.6240007 5.3120015
O -12.3620035 0.5440002 -7.8660022
H -13.3290037 0.8050002 -7.8110022
H -12.0380034 1.2490003 -7.2880020
O -15.5090043 -0.7790002 11.4150032
H -15.3490043 -1.4120004 10.7110030
H -15.0710042 -1.1920003 12.2390034
O 7.3129579 -1.3704304 -6.8657572
H 8.1522860 -1.7929741 -7.1310561
H 7.6071058 -0.7874997 -6.1353761
O 0.6296398 2.3840310 9.5773810
H -0.1902726 2.9131822 9.6129084
H 1.0709159 2.7718349 8.7989497
O -2.9603055 1.2785939 -14.6314815
H -3.8711307 1.2449937 -14.9907987
H -3.0608179 1.9053392 -13.8891586
O -6.6434452 4.9219666 4.3309726
H -5.7751340 5.3247332 4.1221977
H -6.8511173 5.3919192 5.1638628
O -4.3990012 16.5470046 5.4800015
H -4.5430013 16.0690045 4.6210013
H -5.3920015 16.6770047 5.6990016
O 9.5949498 1.7960494 4.0382301
H 9.2798080 2.4211266 4.7228890
H 9.1377244 2.1287880 3.2386319
O -13.6570038 5.6980016 -3.5030010
H -12.9960036 6.3340018 -3.7740011
H -13.9460039 5.2900015 -4.3330012
O 1.4660004 -12.3200034 -1.9990006
H 1.0270003 -11.8670033 -2.7730008
H 2.4040007 -12.0420034 -2.1590006
O 3.5280019 7.7107770 -0.4315547
H 2.9053721 8.0309089 -1.1202574
H 3.4014582 8.4033706 0.2526043
O -1.0910003 7.8050022 15.6270044
H -0.4980001 7.2150020 16.1290045
H -0.5700002 8.0020022 14.8010041
O -3.3280009 -11.7420033 -13.2320037
H -3.1460009 -11.4460032 -12.3520035
H -3.4140010 -10.8770030 -13.7060038
O -5.9520017 -13.6930038 6.5220018
H -6.3660018 -12.7940036 6.3720018
H -6.7990019 -14.2520040 6.6080018
O -3.2444985 2.8918278 -12.3041514
H -2.6991975 3.7073367 -12.2274073
H -4.0389140 3.1789902 -11.8080751
O -3.8319762 4.5234472 6.5733550
H -4.6224575 3.9326194 6.5465309
H -4.1716032 5.2106444 7.1829569
O 14.1310040 5.9080017 -11.9960034
H 14.2920040 5.9910017 -11.0520031
H 13.4300038 5.2050015 -12.0440034
O 14.1570040 7.5580021 3.9630011
H 14.5940041 6.9160019 4.5260013
H 14.9370042 7.9000022 3.5040010
O -12.2070034 -10.7100030 -6.8700019
H -11.5750032 -11.4460032 -6.7060019
H -11.9490033 -10.0620028 -6.1740017
O -12.7310036 -11.2510031 7.6670021
H -13.3770037 -11.3480032 8.3710023
H -12.3880035 -10.3550029 7.9180022
O -8.1370023 10.1770028 -2.6820008
H -7.4000021 10.6770030 -3.0430009
H -8.6900024 11.0070031 -2.5310007
O 5.6020016 -11.0070031 -8.4050024
H 4.7170013 -11.4730032 -8.2520023
H 5.5260015 -10.6520030 -9.2830026
O 6.1855708 -5.9600249 9.7092515
H 5.4453828 -5.4475768 9.3307304
H 5.8930067 -6.8612818 9.5143199
O 7.2531315 10.3272110 -5.8596376
H 7.0047445 9.9383614 -5.0043160
H 8.1355827 10.6990753 -5.6492753
O 5.7160016 13.2040037 12.0880034
H 4.9180014 13.4300038 12.6230035
H 5.2740015 12.9030036 11.2440031
O -3.7514926 -1.7319721 -5.5255823
H -4.4133527 -1.0264768 -5.6760473
H -3.3432065 -1.8131815 -6.4073187
O -4.5940013 1.8110005 14.8890042
H -4.2610012 1.2970004 15.6630044
H -5.3440015 2.3450007 15.1810042
O 15.6680044 0.4620001 -8.5420024
H 15.6040044 -0.4250001 -8.9570025
H 15.1020042 1.0870003 -9.0310025
O 11.6590033 2.6950008 11.8360033
H 10.7470030 2.3800007 12.1020034
H 11.7810033 3.2680009 12.5980035
O -10.3930029 -13.1260037 -6.5510018
H -9.7610027 -13.4480038 -5.8340016
H -9.9820028 -13.3590037 -7.4090021
O -10.9890031 -11.8530033 10.6610030
H -11.7020033 -12.4180035 10.2330029
H -11.5280032 -11.1860031 11.2030031
O -10.0010028 8.0530023 -8.0560023
H -9.8620028 7.6750021 -7.2150020
H -9.1740026 8.4140024 -8.1720023
O -12.9030036 5.0150014 7.0770020
H -12.8850036 5.1970015 6.1150017
H -13.6990038 5.3540015 7.4210021
O 11.5190032 -12.6940036 -8.2620023
H 10.8850030 -13.1220037 -7.7420022
H 10.9010031 -11.9900034 -8.5940024
O 6.6470019 -9.5540027 11.6620033
H 6.6750019 -10.2250029 12.4160035
H 7.6260021 -9.5820027 11.4440032
O 8.7214706 5.4699204 -8.9091565
H 9.2321640 6.3002636 -8.9155082
H 8.3961909 5.4742901 -7.9927574
O 8.2237855 6.1901850 7.8444358
H 8.1981479 6.1027465 6.8687642
H 9.1319617 6.5364689 7.9743129
O -8.8730025 -15.2040043 4.0870011
H -8.8990025 -14.3900040 3.5520010
H -8.6300024 -15.8630044 3.4230010
O -7.1659784 6.4074114 6.6696136
H -7.0819603 7.3123027 7.0450522
H -6.5137324 5.9631393 7.2468555
O 11.2520031 4.1300012 -15.6760044
H 10.5260029 4.6500013 -16.0550045
H 11.0990031 3.2770009 -16.1750045
O 9.9651854 4.3051287 0.2591115
H 9.1755033 4.5783891 -0.2511976
H 9.5336206 3.6989900 0.8952103
O -8.6640024 -9.5580027 -14.7320041
H -7.7770022 -9.9310028 -14.5880041
H -8.5040024 -8.6110024 -14.8890042
O -8.7700025 -12.6810035 3.0200008
H -7.8520022 -12.4880035 2.7990008
H -8.9810025 -11.7750033 3.1840009
O -5.8050016 6.9870020 -17.7680050
H -5.1110014 6.3140018 -17.8590050
H -5.2790015 7.7730022 -17.5660049
O -4.6427554 3.8171826 -0.2277764
H -4.2279736 4.7033854 -0.2818011
H -4.4853879 3.6420618 0.7252231
O 8.6020024 -16.7130047 -1.8570005
H 9.2420026 -16.0780045 -2.3150006
H 8.0480023 -16.0750045 -1.4410004
O 7.3950021 4.6560013 -14.5760041
H 8.0500023 5.0610014 -15.2450043
H 6.5860018 5.0650014 -14.9680042
O 11.6045358 7.1496705 -1.6969375
H 12.0783481 7.9523326 -1.3761794
H 10.7272284 7.3919204 -1.3388095
O -10.3120029 -11.9100033 6.3330018
H -11.1180031 -11.9670033 6.8060019
H -10.3590029 -10.9730031 6.0470017
O -8.7850025 5.0080014 -13.4550038
H -8.7190024 4.3340012 -14.1980040
H -8.9020025 5.8580016 -13.8040039
O -9.9060028 9.5040027 5.7030016
H -10.8300030 9.7960027 5.8150016
H -10.1180028 8.5080024 5.9710017
O 7.9020022 -12.7240036 8.5810024
H 7.8950022 -13.6060038 8.1620023
H 7.2710020 -12.2310034 8.0330022
O 9.9870028 5.2490015 -11.6770033
H 9.6680027 4.7340013 -10.9250031
H 9.3150026 5.9700017 -11.7230033
O 7.9993936 5.7735089 5.1187280
H 8.5747189 6.1961632 4.4406174
H 7.1368435 5.8483420 4.6926404
O 0.1590000 -13.2930037 -14.1310040
H 0.3560001 -12.4260035 -13.7110038
H -0.3970001 -13.6290038 -13.4270038
O -1.4910004 -14.8980042 5.5800016
H -2.0240006 -14.1940040 5.9490017
H -2.1530006 -15.6180044 5.3190015
O 2.2031932 1.0124376 -11.1959545
H 1.3076439 1.1413675 -10.8190956
H 2.1363529 0.0657375 -11.4487786
O -1.4645179 5.3730672 5.4699209
H -1.6701180 6.3287957 5.3836734
H -2.2806730 5.0746697 5.9288548
O 15.7830044 5.4940015 0.9350003
H 16.2160045 5.1390014 0.1040000
H 15.3810043 6.2900018 0.5780002
O -14.9660042 8.6900024 -1.5750004
H -15.8570044 8.8240025 -2.0170006
H -14.5230041 9.5650027 -1.7910005
O 2.2922064 -8.8890154 -4.1243095
H 1.9702293 -7.9651825 -4.1750331
H 2.1867842 -9.1719051 -5.0537376
O 0.0350000 -11.0440031 11.0450031
H -0.6740002 -11.1730031 10.4110029
H 0.0600000 -11.8970033 11.5290032
O 1.8798474 9.0150512 -2.2738853
H 2.1876863 9.4330078 -3.1069202
H 0.9992419 8.6808045 -2.5480059
O 0.0150000 7.6320021 11.1670031
H -0.9190003 7.4600021 11.2370031
H 0.2120001 7.8650022 12.0950034
O -5.3110015 -15.0220042 -1.6750005
H -5.6190016 -14.0870039 -1.7840005
H -4.3420012 -14.9340042 -1.9200005
O -4.1247546 2.8817268 -2.7638362
H -4.3385409 3.2777508 -1.8908589
H -3.9664371 1.9596684 -2.4746006
O -5.7810016 6.2460017 16.3830046
H -5.9470017 6.4520018 17.3130048
H -6.6050018 6.4950018 15.9140045
O 13.2810037 -10.4440029 -1.7990005
H 14.0060039 -11.0530031 -1.5890004
H 12.5760035 -11.1300031 -1.7170005
O 14.2670040 7.0230020 -2.5910007
H 14.7850041 7.1500020 -1.7530005
H 13.3500037 6.8040019 -2.2880006
O -14.5530041 -8.8390025 -6.8440019
H -13.8960039 -9.4220026 -7.3410021
H -14.5370041 -9.2200026 -5.9890017
O -11.0440031 9.3140026 11.1830031
H -10.8320030 9.0340025 10.2630029
H -10.3570029 9.9090028 11.4420032
O 3.4090010 -11.8860033 -7.4740021
H 3.0930009 -11.1060031 -7.0240020
H 3.4600010 -12.4940035 -6.7430019
O 2.0510440 -9.9442689 9.5768680
H 1.3314815 -10.2453015 10.1630277
H 1.7064951 -9.0853123 9.2678916
O 5.1959253 7.1605649 -7.0640576
H 4.7731774 7.4122022 -6.2143859
H 4.3967531 7.0389138 -7.6250034
O 2.8030008 9.1880026 11.3370032
H 3.6540010 8.7800025 11.5150032
H 2.4500007 9.2910026 12.2620034
O -14.2470040 -10.1500028 -4.3180012
H -14.0600039 -11.1130031 -4.0830011
H -13.3650037 -9.7120027 -4.1310012
O -15.6110044 9.9300028 -5.2900015
H -15.3270043 10.2290029 -4.3570012
H -14.7550041 9.4570026 -5.4920015
O -14.6430041 7.0770020 10.7770030
H -15.1190042 6.3810018 11.2910032
H -14.5760041 6.6880019 9.8620028
O 3.6018679 -10.9927243 -3.0196211
H 4.0946796 -10.4514404 -2.3762704
H 3.0927342 -10.2688572 -3.4562861
O 0.6770002 -8.8780025 12.5090035
H 1.5930004 -8.7060024 12.7050036
H 0.7570002 -9.7360027 12.1340034
O 3.3615054 12.8323841 -1.8925418
H 3.9187870 12.0855311 -2.2062044
H 3.7799453 13.0033830 -1.0255151
O 0.0510000 8.9590025 13.5990038
H 0.9530003 9.1110025 13.7460038
H -0.4840001 9.7170027 14.0220039
O -11.8190033 -2.2580006 -11.6470033
H -11.3130032 -1.8410005 -12.3960035
H -12.0570034 -3.0470009 -12.1200034
O -14.3210040 -3.2050009 10.3560029
H -13.5610038 -3.1730009 10.9660031
H -13.9120039 -3.9060011 9.7360027
O 7.6070021 -6.9860020 -12.1660034
H 7.2490020 -7.8740022 -12.1920034
H 7.9310022 -6.9890020 -11.2180031
O 5.8742665 -3.2564747 7.5800491
H 5.4931872 -2.7299256 6.8427916
H 5.0958269 -3.7888813 7.8509723
O 5.1670014 16.0490045 7.2770020
H 5.6440016 16.5010046 7.9590022
H 4.3080012 16.6110046 7.3420021
O -7.6550021 -15.8090044 6.5100018
H -6.9340019 -16.4110046 6.1460017
H -8.1250023 -15.5900044 5.7080016
O -5.7180016 3.4910010 -13.9580039
H -5.5340015 2.7290008 -13.4190038
H -6.4600018 3.0490009 -14.5340041
O -5.9571050 2.8702346 6.8817023
H -6.4302777 3.0805230 7.7161820
H -6.2242767 1.9499924 6.7157442
O 11.4880032 -12.1060034 3.7520011
H 11.8090033 -12.4800035 4.5900013
H 11.7610033 -12.8000036 3.1540009
O 12.1730034 3.7020010 -13.3150037
H 11.3020032 3.8760011 -12.9170036
H 11.9340033 3.9340011 -14.1990040
O 11.5635761 6.0165593 1.7072001
H 12.2412761 5.3352534 1.8892954
H 10.9787683 5.5070144 1.1104925
O -3.3940009 -9.1400026 -14.1780040
H -2.9130008 -8.5620024 -13.6380038
H -4.0980011 -8.5600024 -14.6410041
O -3.4165964 -4.9805329 -0.6812885
H -2.7967280 -5.2815844 -1.3780397
H -4.1665852 -5.5922986 -0.8536429
O -5.2770015 -6.7170019 17.0740048
H -6.0510017 -7.3190020 16.8490047
H -4.9820014 -7.1100020 17.9340050
O -2.5090007 9.6440027 -13.7350038
H -2.5800007 9.5430027 -14.6670041
H -2.6270007 10.6520030 -13.5730038
O -3.7730011 12.0210034 0.2040001
H -2.9660008 11.4660032 0.1700000
H -3.9030011 12.1610034 -0.7580002
O 17.2670048 -6.2800018 1.5500004
H 16.5510046 -5.6420016 1.5700004
H 16.8230047 -7.0980020 1.6770005
O -17.4310049 -2.4460007 4.9520014
H -17.1650048 -3.3950010 4.6550013
H -16.7400047 -2.4070007 5.5620016
O 1.7086815 -6.9590525 -10.0865273
H 1.4769561 -7.8423430 -9.7227313
H 1.2451521 -6.3844249 -9.4469123
O -0.8992020 -5.9214786 5.3708301
H -0.3042225 -6.2807906 4.6816358
H -1.5426520 -6.6649267 5.4047281
O 2.8050008 11.9890034 -11.0020031
H 2.6600007 11.3520032 -10.2760029
H 2.5890007 12.8020036 -10.6130030
O 2.3290007 15.2780043 2.7610008
H 1.8680005 14.8110041 3.4970010
H 1.7620005 16.0670045 2.7160008
O -12.5950035 -4.5360013 -12.7470036
H -13.1010037 -4.8940014 -11.9280033
H -13.1470037 -4.7490013 -13.4420038
O -13.6480038 -1.3910004 4.8870014
H -13.9720039 -2.0160006 5.4800015
H -12.8420036 -1.0100003 5.2930015
O 7.5570021 -5.0600014 -15.6130044
H 6.9850020 -4.4060012 -15.2240043
H 6.8980019 -5.6980016 -15.9830045
O 1.6628990 -5.1728271 6.6352290
H 1.3902107 -4.3091185 6.2617918
H 0.8254506 -5.6536559 6.5298913
O 5.9320017 16.0170045 4.7230013
H 5.5560016 15.9300045 5.6560016
H 5.9270017 16.9830048 4.7090013
O -11.3081648 2.9423668 -7.0103248
H -10.9223584 3.4044632 -7.7873971
H -10.5231584 2.9011862 -6.4272613
O -14.6530041 -0.2880001 8.3190023
H -14.4090040 0.3590001 7.5950021
H -15.1620042 0.2840001 8.8950025
O 4.1121743 -2.5957419 -10.5984609
H 4.7642773 -1.8665451 -10.6995822
H 4.6350072 -3.3608249 -10.9017575
O 4.6130187 0.3096122 8.8376787
H 4.3756662 1.2203611 9.1168368
H 4.2061915 -0.2288427 9.5428395
O 4.4250012 -8.5980024 -10.3310029
H 4.2610012 -7.8110022 -10.8910030
H 5.2650015 -9.1080025 -10.5760030
O 0.9908785 -1.9860168 8.1901307
H 0.8549711 -2.4826252 7.3539966
H 1.5834629 -1.2908022 7.8236914
O 0.4057358 12.0179321 -4.3752863
H 0.4054598 12.4302824 -5.2608281
H -0.5122634 11.6942536 -4.2927982
O -0.6720002 15.5460044 10.7860030
H 0.1620000 15.0540042 10.5560030
H -0.7680002 15.3170043 11.7760033
O -3.4040010 -2.2010006 -16.7250047
H -3.6370010 -2.2340006 -15.8120044
H -2.5390007 -2.6470007 -16.7910047
O -4.2338054 1.1600947 2.8706050
H -4.1959087 2.1269106 2.6914445
H -4.6304376 1.1518635 3.7509030
O -0.2500001 16.6230047 1.3770004
H -1.1300003 17.0220048 1.5520004
H -0.2680001 16.7100047 0.4480001
O 12.4480035 -5.1930015 0.0900000
H 12.3970035 -6.1390017 0.2170001
H 11.8490033 -4.9150014 0.8280002
O -5.0189487 -4.6316484 -4.3839746
H -5.9119958 -4.8767912 -4.6932422
H -5.2254704 -3.8177582 -3.8779388
O -8.8980025 -1.6510005 15.3000043
H -8.6730024 -1.2080003 14.4670040
H -9.5580027 -2.3640007 15.1210042
O -2.1740006 16.9150047 -6.5670018
H -2.5900007 17.4640049 -5.8890016
H -2.3570007 17.4950049 -7.3520021
O 17.4300049 -0.7820002 -4.3570012
H 16.7540047 -0.2330001 -4.8310014
H 18.2570051 -0.5430002 -4.8640014
O 12.7380036 -3.1410009 13.6830038
H 12.1430034 -3.7730011 13.2280037
H 13.4540038 -3.0880009 13.0100036
O -13.0890037 -0.4790001 -4.2080012
H -12.4790035 0.1370000 -4.6740013
H -13.5270038 -0.8840002 -4.9910014
O 2.6192491 -2.6602423 -5.2977707
H 3.5017935 -2.8760250 -5.6693304
H 2.6168362 -3.1809060 -4.4621218
O -1.5810004 -0.6090002 15.1950043
H -0.5700002 -0.7360002 15.0600042
H -1.6670005 -0.2550001 14.3020040
O 3.3130009 14.4290040 -6.0850017
H 3.3180009 15.0780042 -6.7960019
H 2.6360007 13.7900039 -6.4140018
O -17.2580048 0.6430002 4.6940013
H -17.3130048 -0.2610001 4.4270012
H -16.9860048 0.6040002 5.6270016
O 2.9090865 -1.5927072 -8.2043470
H 3.6030842 -1.9884803 -7.6418814
H 3.1943145 -1.9206089 -9.0773450
O -1.7537141 -1.3074959 5.1900276
H -1.4419674 -0.4005201 4.9731410
H -2.5008660 -1.0688561 5.7733234
O -0.0980000 15.9520045 8.1770023
H 0.7750002 15.5650044 8.4000024
H -0.5750002 15.7770044 9.0310025
O 17.6160049 -4.0290011 7.7500022
H 17.5400049 -3.2940009 8.4490024
H 17.4600049 -4.8100013 8.2780023
O -13.8010039 -1.0060003 -1.5750004
H -14.6110041 -0.4600001 -1.5780004
H -13.3990037 -0.7980002 -2.4230007
O 0.2348258 -4.5573880 -1.3467161
H -0.4475009 -5.1012045 -1.7961213
H -0.2807135 -3.7875908 -1.0571230
O 0.8350002 -1.4380004 14.5470041
H 1.2820004 -0.8150002 13.9080039
H 1.4770004 -1.3290004 15.2500043
O 0.5640002 16.0110045 -4.7950013
H 0.5120001 15.1770042 -5.2630015
H 1.1920003 15.9160045 -4.0210011
O -5.5250015 -4.4190012 -15.7350044
H -6.3240018 -3.9870011 -15.3920043
H -4.8450014 -3.9740011 -15.1890043
O -11.2570867 -0.3453945 5.7088542
H -10.9963042 0.4496367 6.2262688
H -10.9396688 -0.0362178 4.8327964
O -2.5020007 14.9500042 -9.7500027
H -2.4200007 15.8820044 -10.1460028
H -3.3070009 15.1570042 -9.1430026
O -4.7840013 15.3660043 3.1330009
H -5.4260015 14.7330041 2.7940008
H -4.1390012 15.3130043 2.3490007
O 11.2716631 -4.1915745 2.3043796
H 11.4239923 -3.2424230 2.4827813
H 10.6579069 -4.4294965 3.0340620
O 13.5450038 13.6440038 3.4620010
H 14.2580040 12.9990036 3.8480011
H 13.1830037 13.9230039 4.3860012
O 0.2453683 -5.5151635 -8.2828240
H 0.1617868 -4.5964897 -7.9682833
H -0.5327162 -5.6190719 -8.8644270
O -5.0528460 -4.0369662 9.7065789
H -4.1990738 -4.3026293 10.1189779
H -4.8828137 -4.2578213 8.7701878
O -0.1550000 13.3830037 -9.5350027
H -0.9360003 14.0040039 -9.5800027
H 0.6530002 13.8660039 -9.8440028
O -0.7620002 12.2300034 7.6840022
H -1.1640003 12.8800036 7.0030020
H 0.0660000 12.7570036 7.9630022
O 15.1710042 -4.3760012 6.2870018
H 15.9690045 -3.9480011 6.5310018
H 14.5120041 -3.9430011 6.8450019
O -8.5962354 -6.7957948 -0.6732226
H -8.1303899 -7.6461258 -0.7173978
H -9.3744170 -6.9461188 -1.2496241
O -9.2370026 12.7670036 -2.6620007
H -10.0120028 12.6300035 -3.2230009
H -9.6350027 13.1240037 -1.9180005
O 10.3741001 -6.2465327 -2.2988671
H 10.0545734 -5.6633473 -1.5679875
H 10.8875334 -5.6213917 -2.8372148
O 6.9150019 -2.8570008 16.1870045
H 6.7520019 -3.4000010 16.9180047
H 7.8480022 -2.7380008 16.2890046
O 9.3280026 13.4410038 -3.1740009
H 9.6050027 14.1780040 -3.7570011
H 8.6210024 13.8190039 -2.5750007
O -7.4946435 -5.2193932 -5.5936055
H -7.3825075 -4.3504371 -6.0502581
H -7.2994942 -5.7747561 -6.3803475
O -7.5277790 -4.2129681 10.8603551
H -6.7045140 -4.1412096 10.3309233
H -8.1471136 -3.6368511 10.3907467
O -5.9540017 16.3770046 -5.7620016
H -6.0190017 17.1600048 -5.2000015
H -6.5090018 16.6240047 -6.5460018
O 10.1030028 -5.8530016 -7.5080021
H 10.9850031 -6.3800018 -7.5780021
H 10.1960029 -5.3020015 -8.3040023
O 12.4440035 -3.8350011 10.2750029
H 11.9740034 -3.0480009 9.8280028
H 11.7670033 -4.4940013 10.2160029
O 9.7250027 15.3230043 -5.1600014
H 10.3230029 14.8590042 -5.7220016
H 9.2020026 15.7920044 -5.8510016
O -17.6530049 -0.9360003 -1.0040003
H -18.6760052 -0.8670002 -1.0980003
H -17.5280049 -0.5510002 -0.1360000
O 2.3890007 -18.2730051 -0.9480003
H 2.1690006 -17.3260048 -1.3030004
H 2.4110007 -18.1830051 0.0730000
O 2.9410008 -0.5280001 -15.8100044
H 3.7040010 -0.8090002 -16.2980046
H 3.3140009 -0.4650001 -14.8740042
O 3.9782013 -2.9207114 2.9417793
H 4.2129614 -3.0964936 2.0083527
H 3.2964636 -2.2312406 2.7932442
O -0.3900001 -2.0270006 18.6680052
H -0.0300000 -1.2580004 18.1970051
H -0.0220000 -2.7890008 18.2050051
O 2.1300006 18.8340053 0.1270000
H 2.4510007 19.4190054 -0.5660002
H 2.1160006 17.9840050 -0.3110001
O 18.1510051 -1.2260003 3.3700009
H 18.4080052 -1.8380005 2.6110007
H 18.0860051 -1.9480005 4.0470011
O 1.3660004 -4.8160013 -17.7050050
H 0.6050002 -5.2830015 -18.1710051
H 1.7560005 -5.5650016 -17.1920048
O -2.1326155 -2.7363242 -3.6331300
H -2.7589174 -2.4205283 -4.3255522
H -2.7216881 -2.7104751 -2.8524321
O -2.6140007 -5.4430015 16.6760047
H -3.4940010 -5.7160016 17.0050048
H -2.8130008 -4.4600012 16.3510046
O -1.4400004 15.6000044 -1.4120004
H -2.3410007 15.3370043 -1.7520005
H -0.9260003 14.7790041 -1.5190004
O 16.0680045 -4.1350012 -1.6470005
H 16.7230047 -4.7930013 -1.9660006
H 16.5920046 -3.2920009 -1.7140005
O -6.0694672 -2.4593520 -2.9198271
H -6.9747235 -2.7844788 -2.7440257
H -6.2449787 -1.5164870 -3.1282334
O -7.8800022 -1.1860003 12.7690036
H -8.0720023 -1.6440005 11.9560033
H -7.0140020 -0.6690002 12.6070035
O -4.7340013 17.5420049 -2.4170007
H -5.4110015 18.1370051 -2.7590008
H -4.0650011 18.2100051 -2.2900006
O 12.1770034 -2.4110007 -3.3700009
H 12.2830034 -3.3220009 -3.5960010
H 12.3000034 -2.4570007 -2.3600007
O -17.3010048 0.4350001 -4.8700014
H -17.7980050 -0.3010001 -4.4690013
H -17.2360048 0.0490000 -5.7610016
O -0.5735646 -4.5425501 -4.8838969
H -0.2119011 -4.0555470 -5.6505847
H -1.0692444 -3.8189613 -4.4362050
O -4.9220014 -2.7900008 15.6770044
H -3.9140011 -2.8990008 15.6080044
H -5.1920015 -2.9000008 14.7340041
O 0.6960002 13.5120038 -6.8050019
H -0.1360000 13.9920039 -6.7370019
H 0.8070002 13.6400038 -7.7720022
O 14.8240041 -3.5160010 11.1820031
H 15.2270043 -2.8360008 10.6400030
H 13.8940039 -3.5850010 10.8680030
O -17.5800049 -4.0380011 0.4240001
H -17.5020049 -3.1310009 0.3910001
H -18.4780052 -4.2710012 0.1560000
O 2.5240007 -5.3990015 -14.3900040
H 2.5640007 -5.8310016 -13.5260038
H 2.4930007 -6.1180017 -15.0570042
O 6.1059681 -8.2198833 0.1189925
H 5.2730501 -8.3012985 -0.4019111
H 6.2529847 -7.2484425 0.0561070
O 7.1090020 16.1620045 0.6600002
H 7.9640022 15.7490044 1.0420003
H 6.4380018 15.7850044 1.2470003
O -16.8870047 -0.7860002 -7.1630020
H -17.1720048 -1.7110005 -7.0890020
H -17.2710048 -0.5910002 -8.0390022
O -2.1535329 -2.3721025 -7.6663279
H -2.1895305 -2.7214718 -8.5845966
H -1.2193368 -2.5778318 -7.4420236
O -5.3087454 -1.3310370 10.0816377
H -6.2497085 -1.1765992 9.8730375
H -5.2475414 -2.3059081 10.0363118
O 15.3670043 -1.8230005 -9.8670028
H 14.6530041 -2.4120007 -9.6100027
H 15.8600044 -2.3360007 -10.4330029
O 13.8450039 -2.2550006 7.3320021
H 12.9310036 -2.2880006 7.6180021
H 14.0480039 -1.4620004 6.9320019
O -11.3280032 -9.1880026 -9.5670027
H -10.7050030 -8.9270025 -10.2730029
H -10.9710031 -10.0310028 -9.2530026
O -11.9760034 -8.6760024 8.4280024
H -12.2530034 -8.6880024 9.3390026
H -11.1400031 -8.1420023 8.4750024
O -12.5660035 9.3310026 -10.7020030
H -11.9880034 10.1110028 -10.7160030
H -11.9990034 8.6250024 -11.0080031
O -12.3210034 10.1150028 6.5980018
H -11.8380033 10.6630030 7.2940020
H -13.1450037 9.9330028 7.0510020
O 4.7002571 -9.2905856 6.9305810
H 4.4146991 -8.3943895 6.6319912
H 5.1704480 -9.0735197 7.7661003
O 6.1057265 8.9140233 -10.8311935
H 6.0681190 9.1335393 -9.8836812
H 6.3558641 9.7753599 -11.2080559
O 6.7760019 7.8680022 9.4080026
H 7.2050020 8.6830024 9.1750026
H 7.3580021 7.3200020 8.8640025
O -6.5705912 1.0150530 -12.6432662
H -7.3734631 0.4676288 -12.7091767
H -6.1105674 0.5805380 -11.9122011
O -7.8950022 7.3520021 10.5790030
H -7.1600020 7.8060022 10.1000028
H -8.3030023 6.8790019 9.8110027
O 10.8420030 -14.6440041 5.7740016
H 10.0450028 -14.6990041 6.2830018
H 10.6220030 -15.0420042 4.9170014
O 12.8790036 2.1070006 5.5830016
H 13.0910037 2.0090006 6.5370018
H 11.8810033 2.1100006 5.4890015
O -0.5650002 -3.3180009 -16.2490045
H 0.3230001 -3.5310010 -16.5020046
H -0.5250001 -2.3740007 -16.0220045
O -1.9628665 -5.4898900 1.6422800
H -2.6039201 -5.2466935 0.9399785
H -2.2959853 -4.9839251 2.4049216
O -3.3790009 0.3310001 17.0170048
H -3.3590009 -0.3490001 17.6640049
H -2.7730008 -0.1810001 16.4340046
O -1.0110003 17.9290050 -3.3620009
H -0.5150001 17.3120048 -3.9410011
H -1.4410004 17.3130048 -2.7340008
O -6.3856243 -7.5921355 -3.9334773
H -6.7285922 -8.4995538 -4.1248256
H -7.0707405 -7.0628911 -4.3634896
O -5.5560016 -4.1340012 12.9760036
H -6.1940017 -4.4080012 12.3060034
H -4.8510014 -4.7830013 12.7710036
O -2.2870443 10.9280320 -4.1374662
H -2.2074259 10.9016943 -5.1119365
H -2.5434760 10.0089167 -3.9181907
O 12.1690034 -4.9550014 -4.6280013
H 12.8990036 -5.2750015 -4.0230011
H 12.2470034 -5.5590016 -5.4110015
O 10.5240029 -4.7060013 13.0740037
H 10.1480028 -3.8550011 12.7050036
H 9.7100027 -5.2650015 12.9190036
O 12.6400035 11.5500032 -3.3930009
H 13.6250038 11.4220032 -3.2070009
H 12.4510035 10.6350030 -3.6160010
O 10.8630030 7.1210020 14.6950041
H 10.4390029 7.0680020 13.7410038
H 10.4250029 6.3240018 15.0410042
O -1.5830004 -5.7960016 -15.1960043
H -2.2730006 -6.1040017 -15.8330044
H -1.3250004 -4.9150014 -15.6030044
O -6.7745973 -2.8310173 4.4159855
H -6.8930987 -2.7271952 5.3808425
H -7.1590060 -1.9817696 4.1058811
O -6.7260019 -4.3980012 17.1410048
H -6.2300017 -5.2080015 16.8280047
H -6.1550017 -3.7310010 16.8450047
O 1.9780006 16.4530046 -1.3700004
H 1.8170005 15.6310044 -0.9220003
H 2.4860007 16.1430045 -2.1250006
O 17.8070050 -2.9750008 1.2190003
H 17.4540049 -2.9810008 0.3430001
H 18.7650053 -3.1210009 1.0210003
O -0.7520002 -17.1290048 -5.9010017
H -1.4950004 -17.3320049 -6.5000018
H -0.0140000 -17.2430048 -6.5950018
O 1.0162646 0.3066132 -7.4023363
H 1.6301338 -0.3410210 -7.8202600
H 1.5133917 0.4904296 -6.5874979
O -1.5241292 0.2990727 12.5616415
H -2.0721540 0.1289302 11.7581272
H -1.8811597 1.1855914 12.7997111
O -10.2356459 0.9127841 3.4925549
H -10.9090186 0.8579261 2.7813754
H -10.0425603 1.8658294 3.5080632
O 6.2440017 -16.7970047 3.7920011
H 5.3940015 -17.1920048 3.6970010
H 6.1110017 -16.2740046 4.6550013
O 4.5340013 2.9500008 -16.7930047
H 3.6180010 3.1260009 -16.8280047
H 4.7160013 2.3500007 -17.4890049
O 5.8540855 4.2153919 0.9797102
H 6.4249716 4.3351924 0.1943908
H 5.4335477 3.3413361 0.8075045
O 1.6280005 1.9530005 19.1370054
H 1.3400004 1.3040004 18.5300052
H 0.9000003 2.6290007 18.8830053
O -15.1260042 -4.4050012 -7.2470020
H -15.9240045 -3.7480010 -7.2500020
H -15.1430042 -4.8930014 -6.3530018
O 5.6300016 -8.5420024 -6.2630018
H 5.3050015 -7.8600022 -6.8680019
H 4.9570014 -9.2040026 -6.3070018
O 2.2035808 -4.8572287 12.7206828
H 2.1446612 -5.2870044 11.8429276
H 2.9795852 -4.2836394 12.5622309
O 4.0433213 11.2800737 -6.7125390
H 3.4557929 11.2131541 -7.4874425
H 4.8220655 10.8215259 -7.0841292
O -16.1750045 3.9660011 5.9950017
H -15.8320044 3.1400009 6.2200017
H -17.1540048 4.0380011 6.0730017
O -0.6140002 -13.8930039 -11.4460032
H -0.2170001 -14.2860040 -10.6680030
H -1.0360003 -14.7140041 -11.7060033
O -0.6770002 -18.7140052 6.2110017
H 0.1540000 -18.4190052 6.4800018
H -0.8660002 -18.2750051 5.3740015
O 4.8350014 -0.9180003 -13.6690038
H 5.0680014 -0.9600003 -12.7890036
H 5.3490015 -0.1410000 -14.0230039
O -0.9924191 1.3455019 4.8562942
H -0.0088682 1.2419001 4.8765307
H -1.0755606 2.0488309 4.1806959
O 3.4610010 19.3370054 2.4380007
H 2.9510008 18.9450053 1.6390005
H 4.3590012 18.9500053 2.3870007
O -14.2500040 -1.4810004 -6.4920018
H -14.9420042 -0.9020003 -6.8740019
H -13.9180039 -2.0430006 -7.2300020
O -11.4710032 12.6340035 -4.9380014
H -10.9130031 13.2590037 -5.3840015
H -11.4940032 11.9060033 -5.5980016
O 5.5968759 -2.6102725 -2.2033080
H 6.0029574 -3.1652613 -2.9069793
H 6.3941835 -2.1628091 -1.8595438
O 4.3792318 -3.2804769 11.6505798
H 3.8291333 -2.5957981 11.2165302
H 5.2148077 -3.1651717 11.1593732
O 2.9740008 16.3710046 -8.1520023
H 2.1730006 16.9750048 -8.3040023
H 3.5980010 17.0310048 -8.5090024
O -0.5720002 -16.6810047 1.4560004
H 0.3030001 -17.1390048 1.4520004
H -1.0050003 -17.1690048 0.7060002
O -5.3518343 0.0863587 0.6001426
H -5.5646332 -0.8534438 0.7885673
H -5.0568103 0.4067008 1.4803069
O 13.6800038 1.4760004 2.9460008
H 14.5200041 1.3490004 3.3760009
H 13.1030037 1.6930005 3.7180010
O -14.9700042 1.3950004 -7.9430022
H -15.5410043 1.8840005 -8.5920024
H -15.4350043 1.5840004 -7.1340020
O 1.1780003 -14.3580040 -4.9820014
H 1.9080005 -13.8760039 -4.5220013
H 1.6190005 -15.2060043 -5.0350014
O 4.8090540 1.5190746 -5.7294469
H 5.3084628 1.4971960 -4.8911873
H 3.9966548 1.0280636 -5.4707708
O -2.8250008 2.6630007 13.0670037
H -3.5140010 2.4270007 13.7290038
H -3.3230009 3.3510009 12.6010035
O -6.0430017 -1.3960004 -14.1140040
H -6.0240017 -1.3880004 -13.1380037
H -5.8450016 -0.4420001 -14.3150040
O -10.1370028 0.5840002 10.0780028
H -10.8720030 0.0570000 9.6680027
H -10.5720030 1.4480004 9.9420028
O 12.6370035 0.8320002 -13.5610038
H 12.3670035 1.6860005 -13.1910037
H 12.8850036 0.2780001 -12.7700036
O 8.8400595 -0.4944228 5.3994625
H 8.1087610 -0.2427626 6.0107192
H 9.0037882 0.3508689 4.9297197
O 1.8270162 -1.6260500 -11.7130455
H 1.7282221 -1.9789947 -12.6233811
H 2.6450859 -2.0761942 -11.4100413
O -1.8199113 -1.7084630 8.3603344
H -1.9954804 -2.6141752 8.0112691
H -0.8455151 -1.6802659 8.3169076
O -3.9920011 15.1030042 8.9760025
H -4.8330014 14.6470041 8.8050025
H -3.4640010 14.2790040 9.0930025
O 16.2790046 0.5810002 4.1550012
H 16.8490047 -0.1870001 4.0630011
H 16.7780047 1.2380003 3.6600010
O -12.2330034 5.8710016 -12.3480035
H -11.6360033 5.0890014 -12.3900035
H -12.0540034 6.3000018 -11.5180032
O -14.6460041 10.6040030 4.3230012
H -15.2150043 10.8920030 3.5380010
H -14.9710042 11.1730031 5.0250014
O 3.4240010 -12.8380036 -13.2910037
H 3.8360011 -11.9680033 -13.5290038
H 3.1520009 -12.6540035 -12.3640035
O 1.1700003 -16.1410045 6.3610018
H 0.3060001 -15.7400044 6.0950017
H 0.8410002 -16.5740046 7.2200020
O 3.2910518 2.9640378 -12.7322772
H 2.8294001 2.2329184 -12.2669057
H 4.2024118 2.7920068 -12.4280973
O 1.2597623 4.9963485 5.0577135
H 1.1903808 5.2060755 4.1081606
H 0.3438821 5.1979347 5.3441684
O 18.9190053 1.3450004 2.7960008
H 18.5880052 0.5060001 3.1380009
H 19.4080054 1.1390003 2.0280006
O -11.2510031 -1.8240005 -7.0430020
H -11.5870032 -2.5470007 -7.6080021
H -11.3390032 -0.9440003 -7.5190021
O -11.9940034 -3.2150009 12.6320035
H -11.6630033 -3.6260010 13.5390038
H -12.6100035 -2.5090007 12.9330036
O -9.5260027 14.5750041 -5.4300015
H -9.3330026 15.3360043 -4.8460014
H -9.2890026 15.1210042 -6.2060017
O 10.0230028 -2.4520007 -7.5720021
H 10.2910029 -3.0280008 -8.3040023
H 10.5580030 -1.6290005 -7.7030022
O 7.6630021 -0.7490002 11.8860033
H 7.4320021 -1.3310004 11.1830031
H 6.7700019 -0.6330002 12.3780035
O -8.6940024 -0.9460003 -13.0360036
H -8.5800024 -1.7190005 -13.6520038
H -9.5110027 -0.5070001 -13.4220038
O -9.3171348 5.6048766 8.8358757
H -9.9613632 4.8635884 8.8659761
H -9.5042755 5.9720178 7.9536814
O 9.9750028 -15.7950044 3.2190009
H 9.5520027 -16.6400047 3.0560009
H 9.3040026 -15.2240043 2.8940008
O 10.1600028 1.6750005 -11.6550033
H 9.2650026 2.0010006 -11.9770034
H 10.2650029 0.7650002 -12.1790034
O 9.2259476 7.0772026 3.0498756
H 8.7214971 7.2357086 2.2231190
H 10.1142599 6.8674457 2.6949302
O -12.3840035 -12.3370035 -3.5350010
H -12.0670034 -12.9850036 -2.9040008
H -13.3080037 -12.8110036 -3.4830010
O -9.2597169 5.5100579 -6.1671888
H -9.1711543 4.5505414 -5.9721339
H -8.7493026 5.5792491 -7.0017516
O -13.9110039 3.9780011 12.1700034
H -13.8440039 3.3780009 12.9340036
H -14.8240041 4.2540012 12.1490034
O 8.0550023 -15.4260043 -5.0740014
H 7.2670020 -15.1690042 -4.5250013
H 7.6290021 -15.5270043 -5.9350017
O 8.3332831 7.0647178 -4.5078887
H 8.8652619 6.4313348 -3.9748281
H 8.0675336 6.4851927 -5.2481566
O 7.3280021 5.6620016 13.3570037
H 8.1830023 5.7730016 12.8460036
H 7.4210021 4.7990013 13.8110039
O -15.2290043 -12.5620035 2.1650006
H -14.3700040 -12.8650036 2.5610007
H -15.5400043 -11.8540033 2.7220008
O -12.3827023 0.3390803 1.7144370
H -13.2595467 0.4302040 2.1436587
H -12.3905331 -0.6055407 1.4593627
O 6.1580017 -17.4430049 0.7700002
H 6.0520017 -16.9440047 -0.0270000
H 5.7690016 -18.2550051 0.5710002
O 5.5906753 -0.7752174 0.8259779
H 5.0029391 -1.5396549 0.6677433
H 6.3015115 -0.9452972 0.1810768
O -3.5310010 2.3260007 18.9870053
H -3.5340010 1.7450005 18.1130051
H -4.4610012 2.1330006 19.1840054
O -18.0120050 4.9980014 -0.8700002
H -17.1890048 4.9210014 -1.4510004
H -17.8310050 5.9040017 -0.4810001
O -0.7020002 -15.9480045 -3.4170010
H -0.3280001 -15.2040043 -3.8870011
H -1.0260003 -16.4980046 -4.1420012
O -0.6510002 5.7120016 -17.9450050
H -0.8290002 6.1470017 -17.0860048
H -1.5210004 5.8240016 -18.2750051
O 0.7323319 6.1110799 -1.5844503
H 0.0510414 5.6864495 -1.0201787
H 0.1983627 6.8091052 -2.0186070
O -0.9320003 3.1660009 18.5590052
H -1.1990003 3.7740011 17.8970050
H -1.7000005 2.6190007 18.6220052
O 14.4080040 2.2360006 -2.3870007
H 14.4040040 1.3890004 -1.8580005
H 13.7480038 2.8710008 -2.0000006
O 12.0960034 4.2730012 14.1200040
H 12.8830036 4.8190013 14.2540040
H 11.3160032 4.7170013 14.5650041
O -4.5600899 3.3250520 -8.1519164
H -4.1670596 3.0018473 -7.3087194
H -4.4996620 2.4693522 -8.6437463
O -6.1110017 0.7540002 12.7640036
H -6.7210019 1.5580004 12.7370036
H -5.4660015 0.9900003 13.4390038
O 12.1580034 -0.5230001 -8.3250023
H 12.7650036 0.0570000 -7.7830022
H 11.6440033 0.2290001 -8.6380024
O 9.9930028 0.5320001 9.6150027
H 9.0020025 0.5370002 9.5700027
H 10.1960029 1.1810003 10.3220029
O -3.5270010 -15.4840043 -4.3260012
H -4.4260012 -15.0780042 -4.2400012
H -3.0370008 -14.7480041 -4.6760013
O -1.6348973 2.1988435 -0.1801543
H -2.2745627 1.6883018 -0.7085460
H -1.4856001 1.5684315 0.5493425
O 0.5330001 2.1110006 15.0860042
H 1.1340003 2.0040006 14.3240040
H -0.1240000 2.7900008 14.7510041
O 16.0470045 2.8360008 -4.6070013
H 15.4890043 2.6630007 -3.7780011
H 16.0120045 1.8850005 -5.0290014
O -17.1730048 8.2340023 4.0720011
H -17.0830048 8.2160023 5.0830014
H -16.6610047 7.4640021 3.9020011
O 0.1730000 -10.6150030 -13.2690037
H 0.8270002 -10.0750028 -12.8660036
H -0.5750002 -10.5040029 -12.5230035
O -0.5762466 -11.3424196 5.7845235
H -0.0941990 -11.8387190 5.1000365
H -0.4904190 -11.9538857 6.5394786
O 0.2588083 6.2090679 -13.3144135
H 1.1732472 5.9127028 -13.1236394
H 0.3709934 7.1851401 -13.2948302
O -2.4231003 7.8702985 4.7823400
H -2.4488537 8.7056241 5.2875320
H -1.8190730 8.0901453 4.0429717
O -2.5982683 -10.6705651 -2.4019216
H -3.2512498 -10.6222283 -1.6660481
H -1.9095406 -10.0695671 -2.0468137
O -8.3480023 -9.0120025 13.4690038
H -8.0380022 -9.9170028 13.6630038
H -8.3550023 -8.8790025 12.4720035
O -0.5432562 7.9847550 -3.1207306
H -0.4222608 7.8516840 -4.0874124
H -1.5056780 8.1598093 -3.0825568
O -2.7680008 8.6140024 13.8640039
H -2.3270007 8.3740023 14.6720041
H -2.1430006 9.2530026 13.5890038
O 11.7250033 -9.1760026 -6.4400018
H 11.4530032 -9.0900025 -5.4770015
H 12.0870034 -10.1140028 -6.3890018
O 16.7530047 7.9590022 -3.4810010
H 17.1170048 7.0770020 -3.1870009
H 15.7900044 7.6120021 -3.3390009
O 9.5980027 4.9270014 15.4950043
H 8.6650024 4.7290013 15.3320043
H 9.5500027 5.0250014 16.4620046
O -13.9880039 5.6310016 1.9490005
H -13.7670039 6.0490017 1.0430003
H -14.2560040 4.7650013 1.7790005
O 3.8260011 -13.9840039 3.3100009
H 4.3010012 -14.4810041 2.6340007
H 3.5660010 -14.7580041 3.8680011
O 1.9910006 4.0360011 -15.0200042
H 2.3340007 3.6180010 -14.2200040
H 2.5240007 4.8580014 -15.0180042
O -1.2078580 3.6884706 3.3515613
H -0.4783607 4.1327971 2.8855553
H -1.2957642 4.2683101 4.1398850
O -13.6280038 3.8050011 -5.6880016
H -13.0410036 3.5950010 -6.4430018
H -14.5150041 3.6620010 -6.1430017
O -15.7790044 2.1920006 9.2170026
H -16.3500046 2.5960007 9.9080028
H -16.4730046 1.8460005 8.5420024
O 4.6620013 -15.8140044 -5.9060017
H 3.9260011 -16.3930046 -5.6440016
H 4.6700013 -15.0780042 -5.2240015
O 4.8160013 -13.5550038 8.1700023
H 5.1050014 -12.8590036 7.5570021
H 3.9010011 -13.1700037 8.3720023
O 5.3290765 3.5891585 -7.4531965
H 4.6254521 3.2957633 -8.0666266
H 5.2385137 2.8900339 -6.7729367
O 3.8390832 2.9565819 9.2599961
H 4.5827854 3.5756754 9.1212272
H 3.1808826 3.3002522 8.6188650
O -9.9100028 8.3690023 -11.7480033
H -10.5100029 8.8210025 -12.2890034
H -9.0760025 8.8580025 -11.9710034
O -12.4860035 10.9560031 2.8690008
H -12.6410035 10.3110029 2.1880006
H -13.2630037 10.9860031 3.4070010
O 1.4780985 -12.6276086 4.3465592
H 1.9171313 -11.8991794 4.8353710
H 2.2509707 -13.1420974 4.0494209
O 2.8159859 5.6387445 -12.3657131
H 3.7800344 5.8438940 -12.3929011
H 2.8956888 4.6630253 -12.4217202
O 4.0827009 9.4909500 4.8506081
H 4.5910393 9.4050701 5.6857731
H 3.1763447 9.3944109 5.2105094
O -8.5900024 -13.7090038 -4.1450012
H -8.7930025 -14.4100040 -3.4720010
H -8.8920025 -12.9170036 -3.7590011
O -8.5070024 9.3220026 -5.3120015
H -8.4910024 8.4690024 -4.8180013
H -7.5590021 9.3650026 -5.5630016
O -11.2390031 11.4530032 8.5570024
H -10.3610029 11.3530032 8.7840025
H -11.6200033 11.4490032 9.4080026
O 8.3870023 -13.8100039 -8.8040025
H 8.3470023 -13.3350037 -7.9140022
H 7.4170021 -13.9130039 -8.8390025
O 5.7640016 -7.7810022 13.9260039
H 6.3880018 -8.0210022 13.2950037
H 6.0700017 -6.8940019 14.2700040
O 9.9460028 7.9440022 -8.0430023
H 10.4100029 8.2360023 -8.7970025
H 9.6950027 8.7650025 -7.5970021
O 7.5950021 9.5270027 11.4730032
H 8.4920024 9.1400026 11.2070031
H 7.0330020 8.8480025 11.0970031
O -5.1372410 -4.7282824 -12.1067571
H -6.0586995 -4.4017199 -12.1810338
H -5.0052073 -4.6885246 -11.1352884
O -6.1968633 -7.1038567 6.6409611
H -6.0445223 -7.6369404 7.4421276
H -6.8005560 -7.7262583 6.1803268
O -0.8640002 11.3890032 -11.3040032
H -0.6370002 12.1010034 -10.7090030
H -0.7510002 10.5740030 -10.7490030
O -3.8320011 13.5570038 6.6310019
H -3.3480009 13.4620038 5.7560016
H -3.4510010 14.4090040 6.9800020
O 11.5400032 -3.7070010 -12.6990036
H 10.6040030 -3.9610011 -12.9290036
H 11.8450033 -4.5940013 -12.5620035
O 11.5890032 -6.0850017 7.1840020
H 11.2780032 -6.8000019 6.6080018
H 12.5230035 -6.4300018 7.4250021
O 8.2550023 9.9150028 -13.4280038
H 8.4780024 10.5770030 -14.1100039
H 7.8210022 10.4450029 -12.7210036
O -11.2920032 -13.7810039 -1.4470004
H -10.7430030 -13.9600039 -0.6600002
H -10.9410031 -14.5080041 -2.0360006
O -10.8617713 4.2268368 -3.2305148
H -10.1124246 3.6964761 -2.8794327
H -11.5436764 3.5404488 -3.3541197
O 3.7790011 -16.0220045 -2.8370008
H 4.4970013 -16.6150047 -2.7730008
H 3.2210009 -16.4950046 -3.5420010
O 4.4920013 -13.5820038 12.4550035
H 4.6770013 -14.5510041 12.4000035
H 5.3490015 -13.1360037 12.2210034
O 7.9132078 0.4997505 -4.8602162
H 7.3172940 0.8937422 -4.1906027
H 8.2124028 1.3116440 -5.3243462
O 2.8340805 -1.3821562 10.3236196
H 2.2716337 -1.7540376 9.6227688
H 2.1914251 -0.7797062 10.7595477
O -6.0810017 -11.3940032 -14.3630040
H -5.6080016 -12.1820034 -14.0670039
H -6.1250017 -10.8960030 -13.5330038
O -5.9500017 -12.5750035 2.4990007
H -5.1240014 -12.4470035 2.9780008
H -5.6210016 -12.7070036 1.6270005
O -6.0839148 5.8098304 -12.4565643
H -5.7609848 5.2020997 -11.7576624
H -6.2048127 5.1425454 -13.1600248
O -8.1342824 7.9656217 2.2162875
H -8.0935660 8.2255115 1.2700225
H -8.8441916 8.5780306 2.5281383
O 10.0330028 -9.8010027 2.7220008
H 10.5860030 -10.4510029 3.2050009
H 10.7630030 -9.3260026 2.2040006
O 12.3600035 8.6370024 2.1880006
H 13.0810037 8.3910023 2.7880008
H 12.3030034 7.7080022 1.8180005
O -14.6590041 5.0770014 -9.7970027
H -15.0810042 5.3540015 -10.6530030
H -14.3980040 4.1800012 -10.1200028
O -3.3740009 -13.1960037 7.5540021
H -3.8080011 -12.3560035 7.7590022
H -4.0980011 -13.7130038 7.1560020
O -0.1066275 1.4030263 -9.8296392
H 0.2569593 1.1270267 -8.9661174
H -0.2445231 2.3674666 -9.7054706
O 0.0692457 7.7148013 6.9694468
H 0.2820822 6.9505767 7.5305035
H -0.8016129 7.9410961 7.3679520
O -3.1600009 -15.7620044 -7.2070020
H -2.7870008 -16.6180047 -7.5130021
H -3.5760010 -16.1660045 -6.4320018
O -2.6140007 -15.4080043 9.1790026
H -2.6600007 -15.0780042 10.0460028
H -2.6750007 -14.5120041 8.7740025
O 1.2544528 5.1492897 -5.9853263
H 0.9427101 4.2988860 -5.6176282
H 1.5520200 4.8708957 -6.8793434
O -2.1370006 4.3900012 15.9180045
H -3.0390009 4.1240012 15.6300044
H -1.9080005 5.0710014 15.2760043
O 16.2560045 5.2620015 -5.6980016
H 15.7270044 4.6150013 -5.1550014
H 17.0300048 4.6200013 -5.8070016
O 15.3040043 5.2850015 9.3830026
H 15.9800045 4.6950013 8.9500025
H 14.9580042 4.5410013 9.8260028
O -5.2650015 -17.5070049 -6.0490017
H -5.9320017 -17.0750048 -6.5540018
H -5.6990016 -17.3060048 -5.1950015
O -5.3391086 0.4993375 -5.7945258
H -5.7292800 0.5419937 -4.8933916
H -4.7179398 1.2545212 -5.7810299
O -7.7280022 2.7990008 13.5460038
H -8.6610024 3.0640009 13.6810038
H -7.3980021 2.6710007 14.4500040
O 13.2130037 1.2870004 -6.6200019
H 12.7800036 0.7990002 -5.8370016
H 12.9760036 2.1930006 -6.3990018
O 9.2330026 1.6670005 12.3760035
H 8.8520025 0.9170003 12.0270034
H 8.4260024 2.2380006 12.3440035
O 3.7355049 -6.3073085 -11.8327546
H 4.3787636 -5.5758716 -11.7610831
H 3.1059923 -6.1434668 -11.1035645
O 0.8121478 -5.1247033 1.2657498
H -0.1026704 -5.3879419 1.4893585
H 0.7497991 -5.0509536 0.2913429
O 3.4850010 12.0140034 3.8290011
H 2.5430007 12.2110034 3.9410011
H 3.5940010 11.0880031 4.1260012
O 18.4580052 -5.9760017 4.1250012
H 17.7280050 -6.4310018 4.5680013
H 18.0960051 -6.0240017 3.2450009
O -12.6760035 -6.2990018 -4.8780014
H -12.6070035 -5.3350015 -4.6060013
H -13.5020038 -6.4650018 -4.4100012
O 2.4254268 -4.1219420 -2.9823287
H 3.1940914 -4.4865177 -2.4853577
H 1.7129677 -4.2049313 -2.3146450
O 0.7920002 -5.0050014 15.0740042
H 1.2700004 -4.8510014 14.2040040
H 0.8580002 -5.9960017 15.0940042
O 5.1464460 10.7771300 -2.1910254
H 5.7133005 10.7465450 -1.3925948
H 5.5776447 10.1021739 -2.7508793
O 3.1070009 13.0990037 13.7850039
H 3.8380011 13.0890037 14.3960040
H 2.9160008 14.0590039 13.8710039
O -16.2080045 3.6790010 -6.5310018
H -16.6130046 3.6240010 -7.4440021
H -16.9370047 3.7800011 -5.9110017
O 0.1939441 -11.3180706 -4.2280305
H -0.5518879 -11.9135461 -4.4129751
H -0.2067072 -10.4353057 -4.3394432
O -2.7420008 -13.7770039 11.6760033
H -3.0430009 -13.6220038 12.5290035
H -1.7960005 -13.7920039 11.8560033
O 4.0844993 7.9436355 -4.7124599
H 3.5544495 7.2391168 -4.2761219
H 3.4608896 8.7006580 -4.6919938
O 0.2835369 5.8544465 9.0580827
H -0.4554738 5.2095516 9.1474219
H 0.1032490 6.4300087 9.8353385
O -16.8740047 -2.8900008 -3.5400010
H -16.6110046 -2.9760008 -4.5020013
H -17.4800049 -2.0970006 -3.5510010
O 0.4506861 -3.0125296 -6.9949166
H 0.6990021 -2.6173483 -7.8646563
H 1.2598307 -2.7998630 -6.4739911
O -2.3080006 -3.1550009 15.2930043
H -2.0230006 -2.2570006 15.2470043
H -1.4340004 -3.6290010 15.1480042
O -2.0230006 14.2850040 -6.1270017
H -2.0460006 15.2990043 -6.3200018
H -2.6740007 14.1120039 -5.3880015
O 18.1760051 -4.0540011 -5.0550014
H 17.4960049 -3.4180010 -4.8300014
H 18.0030050 -4.6610013 -4.3130012
O 13.4520038 0.2040001 11.4890032
H 12.9010036 1.0440003 11.6310033
H 12.8100036 -0.4630001 11.7050033
O -17.1540048 0.6530002 1.0540003
H -17.2540048 1.5760004 1.4240004
H -16.2150045 0.7060002 0.8970003
O 1.5420004 -2.7040008 -14.2210040
H 1.9070005 -2.2090006 -15.0060042
H 1.8390005 -3.5890010 -14.5070041
O -3.6073602 -0.1605751 6.9401805
H -3.1175258 -0.7012061 7.5939902
H -3.2375571 0.7275369 7.1365118
O 4.9720014 15.3230043 2.2750006
H 4.0290011 15.3380043 2.3560007
H 5.2340015 15.6800044 3.1440009
O 18.3110051 -3.2280009 5.1360014
H 18.0690051 -3.5260010 6.0690017
H 18.3200051 -4.1730012 4.8750014
O -16.2400045 -5.6370016 -4.1580012
H -15.7280044 -5.9630017 -3.3530009
H -16.7990047 -4.9410014 -3.8100011
O 1.5195918 -6.2495560 -4.4492831
H 1.9709241 -5.5612127 -3.9182949
H 0.6635423 -5.7960083 -4.6002252
O -0.5350001 -9.1820026 15.0460042
H 0.3530001 -9.3950026 15.4680043
H -0.1380000 -8.9430025 14.2170040
O 2.9800008 15.1970043 -3.4600010
H 3.1060009 14.3820040 -2.8840008
H 3.0610009 14.9090042 -4.2870012
O 1.6400005 14.0600039 11.1830031
H 2.4950007 14.1170040 11.5510032
H 1.2960004 13.1410037 11.1990031
O -2.1020006 -12.9230036 -3.8630011
H -2.0650006 -13.4840038 -3.0990009
H -2.1480006 -12.0500034 -3.4750010
O -4.3040012 -11.8100033 10.5040029
H -3.6470010 -11.2450031 10.0890028
H -3.6390010 -12.5580035 10.6190030
O 2.5655659 5.9314385 -3.6815666
H 2.0111451 5.7167464 -4.4615552
H 1.8960725 6.0287892 -2.9728581
O -5.2940015 10.1460028 13.0180036
H -4.6740013 9.5180027 13.4160038
H -6.2090017 10.0860028 13.4690038
O 11.7260033 5.5120015 10.2270029
H 12.2020034 5.9080017 9.4500026
H 11.7310033 4.5950013 9.8980028
O -3.7168398 -7.0796181 -4.2326590
H -4.5658096 -7.5348031 -4.0404590
H -4.0600186 -6.1575135 -4.2614042
O -3.6790010 -6.0560017 13.9640039
H -3.9410011 -5.7930016 14.8810042
H -2.7110008 -5.9930017 14.0530039
O -0.1689854 7.5276083 -5.7794587
H 0.4439588 6.7896866 -5.9892891
H 0.1178456 8.2189293 -6.4159014
O -1.5200004 12.7580036 11.8640033
H -1.6410005 12.2990034 12.7080036
H -1.8440005 13.6610038 12.1180034
O 15.3740043 -3.7410010 -7.0980020
H 16.1390045 -3.2840009 -7.4550021
H 15.5010043 -3.8020011 -6.1710017
O 11.6910033 -7.0420020 14.1090039
H 11.4510032 -6.3050018 13.5100038
H 11.2680032 -6.7480019 14.9610042
O -10.1200028 -5.7340016 -12.8480036
H -10.8760030 -5.1350014 -12.9340036
H -10.6630030 -6.4300018 -12.4240035
O -13.4110038 -5.8020016 4.1060011
H -13.7420038 -4.8980014 4.2450012
H -12.5770035 -5.6210016 3.6180010
O 7.7370022 -7.9650022 -15.3460043
H 7.8530022 -7.4420021 -14.5070041
H 7.8470022 -7.3720021 -16.0660045
O 3.6868756 -6.9423719 5.9812480
H 2.9198475 -6.3913871 6.2276761
H 4.0856555 -6.3988835 5.2782035
O 8.6640024 13.8340039 4.8770014
H 8.8590025 12.9460036 5.1340014
H 7.6770021 13.7700039 4.8180013
O -12.4832428 -2.1917171 0.5285757
H -12.9413062 -1.8058606 -0.2508348
H -11.6873191 -2.5585669 0.0970495
O 5.2710015 -0.6120002 -17.1120048
H 6.1820017 -0.9200003 -17.2510048
H 5.1890015 0.0900000 -17.8420050
O 4.7848922 -5.3823461 3.9081382
H 4.4454657 -4.4743645 3.7543016
H 4.2877261 -5.8431464 3.1882506
O 0.8620002 0.0750000 17.2950048
H 0.5690002 0.4880001 16.4330046
H 1.7950005 -0.2040001 17.1350048
O -6.2560018 -15.0960042 -5.1210014
H -6.7670019 -15.4110043 -5.8610016
H -6.8550019 -14.4200040 -4.7160013
O -6.8160019 -12.6300035 9.4980027
H -6.5340018 -13.5350038 9.2440026
H -5.9580017 -12.3000034 9.7500027
O -3.2843700 2.3645553 -6.0223365
H -2.7928935 3.0332669 -5.5081397
H -2.5823148 1.7780850 -6.3761224
O -3.7500010 5.8580016 14.4070040
H -3.9570011 6.6620019 13.9740039
H -4.2100012 5.9780017 15.2290043
O 13.6450038 5.9820017 -6.8240019
H 13.9170039 6.9330019 -6.9800020
H 14.5010041 5.7200016 -6.4580018
O 12.6590035 5.5020015 7.6250021
H 13.5260038 5.1100014 7.5490021
H 12.0090034 4.7590013 7.4360021
O -6.8928390 -3.1416877 -7.2218461
H -7.0401190 -2.1846867 -7.0978686
H -7.0316524 -3.2158529 -8.1850187
O -7.9634798 -1.1042748 9.4232487
H -8.3555829 -0.2105087 9.4428861
H -8.7287304 -1.5854973 9.8109539
O -4.6130013 15.3070043 -8.2400023
H -4.7760013 14.3420040 -8.1250023
H -4.8820014 15.6310044 -7.4000021
O 12.9740036 -3.2220009 -8.6030024
H 12.9720036 -2.3080006 -8.3350023
H 13.8640039 -3.5180010 -8.2260023
O 11.4550032 -1.6760005 8.9320025
H 10.8350030 -0.8840002 9.0730025
H 11.0630031 -2.2210006 8.1780023
O -8.5140024 -6.7220019 -14.7730041
H -7.6530021 -6.2660018 -14.4690040
H -9.1510026 -6.3090018 -14.0810039
O -11.4000032 -11.5590032 1.9900006
H -11.3070032 -10.5920030 2.2300006
H -12.0930034 -11.7870033 2.5660007
O -8.9450025 7.4990021 -14.4200040
H -9.4030026 7.9110022 -13.6710038
H -7.9730022 7.6060021 -14.2640040
O -10.6323218 6.0223756 1.1537304
H -11.1577014 5.3848559 0.6221547
H -10.8650276 6.8739566 0.7272812
O 5.6270016 -13.4880038 1.3180004
H 4.8150013 -13.6820038 0.7740002
H 5.6480016 -12.4950035 1.3490004
O 9.7242221 5.3987454 -2.8569185
H 10.5185017 5.8884212 -2.5587622
H 10.1032234 4.5052814 -3.0031176
O 4.7860013 8.3970024 15.4090043
H 4.4380012 8.9900025 16.0940045
H 5.7840016 8.4870024 15.5570044
O -6.6411936 -9.1129252 -0.8766845
H -7.3076841 -9.7592096 -1.1928690
H -5.8651574 -9.6981562 -0.7914861
O -5.7604817 7.4128028 -1.2217948
H -6.5483072 7.8694508 -0.8707150
H -6.2006690 6.6367748 -1.6186040
O 14.0010039 -7.6470021 0.2760001
H 14.4100040 -8.0470023 1.0370003
H 13.1430037 -8.0550023 0.2510001
O 13.6640038 13.8370039 -2.1020006
H 13.0480037 13.2360037 -2.5640007
H 13.0090036 14.0550039 -1.4090004
O -7.4650021 -14.6890041 0.0900000
H -7.3240020 -13.9910039 -0.5440002
H -6.4870018 -14.9990042 0.0700000
O -8.1012077 6.9117514 -4.0640209
H -8.5261615 6.2805697 -4.6793077
H -8.0472452 6.3795105 -3.2366313
O -6.5420018 3.4810010 16.1020045
H -7.1540020 3.3990010 16.8760047
H -6.4290018 4.4420012 15.9940045
O 11.4930032 -11.3860032 -4.7570013
H 11.2430031 -11.2030031 -3.8610011
H 10.8170030 -12.0570034 -4.9050014
O 11.2499533 3.1680650 -5.6631532
H 11.2389966 3.1112987 -4.6853061
H 11.2346677 4.1396779 -5.8064379
O 4.5840013 7.1010020 12.3450035
H 4.6050013 6.4410018 11.6120032
H 5.4470015 6.9570019 12.7390036
O -7.1920020 -10.0870028 -7.5660021
H -6.5600018 -9.4480026 -8.0450023
H -7.8090022 -10.3560029 -8.3390023
O -8.8400025 -10.4340029 9.5220027
H -9.4960027 -11.1360031 9.7950027
H -7.9720022 -10.8180030 9.7900027
O -7.5763517 6.0459937 -8.3201841
H -7.4398375 7.0081401 -8.4464292
H -7.8173758 5.7817327 -9.2333124
O -6.8742395 8.8023261 7.9459812
H -7.2177197 9.6206443 8.3701480
H -6.3346409 9.1913592 7.2269932
O 8.3048648 -7.0309935 7.3027641
H 9.0379132 -7.3248023 6.7338431
H 7.5771317 -7.0940513 6.6398716
O 11.7040033 8.1810023 -11.4610032
H 11.6700033 7.2600020 -11.1870031
H 12.0390034 8.6080024 -10.7040030
O 9.7120027 8.7640025 10.2080029
H 9.8920028 8.2150023 9.3680026
H 10.6330030 8.7280024 10.5970030
O -5.4270015 -13.9120039 -9.0610025
H -5.0970014 -14.4470040 -8.3220023
H -4.6260013 -14.0350039 -9.5650027
O -4.6688689 -10.8149202 6.8345612
H -4.0384152 -10.1103838 7.0830461
H -5.5001698 -10.4816422 7.2063301
O -2.6266974 5.2540863 -8.5777124
H -2.6134948 5.6874030 -7.7008633
H -3.3397163 4.5984468 -8.4729454
O -2.6371440 6.8964694 10.9030846
H -3.4371356 7.4408595 11.0488866
H -3.0180219 5.9992273 10.9663145
O 14.1850040 7.9000022 9.8470028
H 14.4640040 6.9670019 9.9260028
H 14.4370040 8.1330023 8.9400025
O -16.3750046 7.3470021 6.8350019
H -15.9250045 6.4780018 7.0370020
H -15.7180044 7.9680022 7.1240020
O 0.1410000 -13.2470037 -7.0790020
H 0.4840001 -13.6840038 -6.2700018
H 0.4700001 -12.3290035 -6.8340019
O -0.2680001 -13.1780037 7.7790022
H -0.7530002 -13.8480039 7.2530020
H 0.0530000 -13.7540038 8.5020024
O 1.6028487 7.5598040 -10.8198839
H 1.9830412 6.7925204 -11.3024191
H 1.9672896 8.2888143 -11.3707860
O 1.5867074 9.6939818 5.9891074
H 1.0661762 8.9095305 6.2977493
H 1.5063903 10.2661598 6.7635914
O 15.6070044 6.0500017 5.7300016
H 15.4580043 5.0880014 5.7680016
H 16.3620046 6.1260017 6.3180018
O -15.2710043 5.1690014 8.7660025
H -16.2210045 5.3430015 8.8880025
H -15.2500043 4.2520012 8.6470024
O 0.9770003 -14.6990041 -9.2740026
H 0.7320002 -14.3090040 -8.4130024
H 0.8380002 -15.6540044 -9.0990025
O 0.9520003 -14.4110040 10.0040028
H 0.7140002 -14.3190040 10.9110031
H 1.6930005 -13.8380039 10.0620028
O 2.8250060 7.0116023 -8.4319997
H 2.5961369 6.0611665 -8.3979885
H 2.3787247 7.2561575 -9.2679493
O 2.6325055 7.3358593 9.2122514
H 1.8214395 6.7965735 9.1721440
H 2.4531465 7.8701731 10.0063114
O -12.4230035 9.9530028 -8.0140022
H -13.2360037 9.5120027 -7.6680021
H -12.2080034 9.4620026 -8.8100025
O -11.7250033 7.6260021 8.3140023
H -11.2190031 7.4390021 7.4490021
H -11.5950032 6.7870019 8.8390025
O 5.8370016 -15.0540042 -9.3020026
H 4.9440014 -15.4680043 -9.4010026
H 6.3730018 -15.3650043 -10.0810028
O 2.5150007 -12.3870035 8.5100024
H 2.4110007 -11.5200032 8.9900025
H 1.8460005 -12.4430035 7.8090022
O 7.2072916 5.3958854 -6.5461386
H 6.5793186 4.6761132 -6.7734121
H 6.6093461 6.1526638 -6.7463888
O 2.6121486 3.0655035 11.8504727
H 2.7355020 2.9755905 10.8866220
H 1.6539748 3.2617303 11.9182447
O -7.6181014 2.6750387 -9.5427469
H -7.7045033 1.7216670 -9.7524651
H -7.9475999 2.7023500 -8.6396108
O -10.3430029 3.0870009 13.9330039
H -10.4670029 2.1570006 13.6770038
H -11.0110031 3.5800010 13.4700038
O 8.5340024 -14.0870039 11.1190031
H 9.3920026 -13.9460039 10.7030030
H 7.9600022 -13.9680039 10.3170029
O 13.4720038 2.4850007 -9.8160027
H 13.1860037 2.2640006 -10.6770030
H 12.6050035 2.3540007 -9.3570026
O 10.9130031 3.4250010 7.7140022
H 11.1500031 2.4940007 7.6930022
H 9.9600028 3.4030010 7.5120021
O -5.9470017 -15.3160043 9.2960026
H -5.5590016 -15.7310044 10.0780028
H -6.0090017 -16.0230045 8.7190024
O -3.8385170 0.9309809 -9.1402911
H -3.4102479 0.6640718 -9.9774072
H -3.1323733 0.7183555 -8.5020849
O -4.1600900 4.5583459 10.7154790
H -4.9495157 4.8120667 11.2501916
H -4.3543985 3.5931074 10.6061951
O 15.9570045 3.8590011 -9.0000025
H 15.0670042 3.3780009 -9.0380025
H 16.3160046 3.4720010 -9.8530028
O 12.9490036 1.0800003 8.3090023
H 13.3990037 0.8770002 7.4410021
H 12.4590035 0.2190001 8.4820024
O -3.3581459 -1.9260596 -11.9194173
H -2.8530366 -1.0825659 -11.8548128
H -3.1984936 -2.1859544 -12.8465185
O -1.6756788 3.9141390 9.2779459
H -2.5179258 4.0756607 9.7357629
H -1.9503172 3.2823943 8.5777736
O 16.9400047 3.7350010 7.8500022
H 16.4300046 3.5710010 7.0440020
H 17.4120049 2.9150008 7.8020022
O -14.9530042 5.9690017 -7.1940020
H -14.9910042 5.7650016 -8.1200023
H -15.3510043 5.1730014 -6.9080019
O 1.5860004 -17.0670048 -7.7650022
H 1.8060005 -17.9600050 -8.1010023
H 2.3970007 -16.6000046 -8.2100023
O 1.9708401 4.3597438 -8.4980053
H 1.1753822 4.2597714 -9.0642058
H 2.5049075 3.5803554 -8.7623340
O 1.8359556 4.0216125 7.6777595
H 1.3386715 4.7542709 8.0928355
H 1.6932865 4.2053934 6.7291443
O -8.4450024 3.0300008 -15.4250043
H -8.2830023 3.2890009 -16.3380046
H -8.3900023 2.0800006 -15.3540043
O -15.9150045 5.7330016 3.8540011
H -15.1350042 5.5520016 3.2590009
H -15.8970044 4.9860014 4.5390013
O 5.5250015 -15.5120043 6.3300018
H 4.9810014 -16.2570045 6.6260019
H 5.1430014 -14.8170041 6.9370019
O 5.7146174 2.1659939 -11.3671853
H 5.8305752 2.9165067 -10.7469525
H 6.4947187 2.3222984 -11.9386535
O 4.0328297 2.0174004 3.6276090
H 4.1029356 2.1234501 2.6561768
H 4.1069109 2.9314441 3.9515401
O 2.6840008 4.9850014 18.4910052
H 2.8150008 3.9660011 18.7090052
H 3.5380010 5.2100015 18.8230053
O -5.9272830 -1.4656143 -11.2013303
H -6.2340211 -2.2295872 -10.6767432
H -4.9717824 -1.6790037 -11.3221043
O -10.2490029 0.4360001 12.7550036
H -10.2470029 0.3830001 11.7650033
H -9.3490026 0.1040000 12.9850036
O -6.5390018 13.0630037 7.5350021
H -6.9970020 12.5880035 6.8040019
H -5.7720016 13.3510037 7.0430020
O 13.3100037 -0.0550000 -11.1490031
H 12.8120036 -0.4940001 -10.4370029
H 14.2360040 -0.3310001 -11.0060031
O 11.4591604 -1.2446616 5.4429532
H 10.5364369 -0.9120687 5.4484098
H 11.3339573 -2.0855859 5.9276417
O -1.7535592 0.3742450 -7.3419092
H -0.7725370 0.3962347 -7.3823101
H -1.9035791 -0.5812046 -7.4860365
O -4.6450510 1.9320142 10.6772548
H -5.2218779 1.3528462 11.2089968
H -3.9555046 1.2890379 10.4169099
O 18.1280051 0.7850002 -7.3650021
H 18.1940051 1.7400005 -7.3850021
H 17.2130048 0.6080002 -7.7400022
O 13.7240038 3.1080009 10.1180028
H 13.3150037 2.5850007 9.4570026
H 13.0480037 3.1820009 10.8670030
O -1.5944334 -1.0818949 -14.2884789
H -2.1245003 -0.2570149 -14.2977216
H -0.9515380 -0.8590350 -14.9858680
O -7.8201160 -0.3556340 3.8576845
H -8.6640358 0.1469008 3.8799682
H -7.3249104 0.0557330 4.5956331
O 2.2490006 19.2120054 4.9780014
H 1.2800004 19.1560054 4.7410013
H 2.7090008 19.2380054 4.1380012
O 12.2855580 -1.6826624 2.9001136
H 12.0402334 -1.4232486 3.8200264
H 13.1880312 -2.0374016 3.0508687
O 0.1885014 -2.3146536 -9.6245590
H -0.5263453 -2.7178106 -10.1395446
H 0.7627312 -1.9703889 -10.3401608
O -2.9149393 -0.1796023 10.3190502
H -2.4283973 -0.7022641 9.6461718
H -3.7879283 -0.6414984 10.2880585
O -3.7830011 17.7080050 7.7200022
H -3.7680011 17.0290048 8.4610024
H -3.9590011 17.2650048 6.8820019
O 15.0910042 0.3330001 6.5720018
H 15.4340043 0.3620001 5.6620016
H 15.9000044 0.6300002 7.0550020
O -13.6630038 2.3210006 -12.4830035
H -12.8010036 2.8260008 -12.2130034
H -13.7360038 1.5710004 -11.8880033
O -17.5570049 0.5350001 7.5420021
H -18.0520051 -0.3370001 7.5200021
H -18.3290051 1.2030003 7.4180021
O 0.2640001 -16.9500047 8.6390024
H 0.0750000 -17.5670049 9.3200026
H 0.2360001 -16.1520045 9.1420026
O 3.5826297 2.1552271 -9.0843322
H 3.1848440 1.7702995 -9.8939217
H 4.2525968 1.4670536 -8.8897658
O 1.6901674 1.0027255 4.8721294
H 2.0933763 0.4859198 5.5976215
H 2.4843873 1.2754189 4.3723379
O 17.6860049 1.0920003 7.6100021
H 18.5560052 1.1930003 7.2600020
H 17.8830050 0.9560003 8.5580024
O -13.3170037 0.3970001 -10.6440030
H -12.8220036 -0.4460001 -10.7740030
H -12.8060036 0.7380002 -9.9310028
O -12.9680036 2.3580007 9.8740028
H -13.0390036 2.7070008 10.8130030
H -13.8830039 2.0980006 9.6020027
O 8.5013034 -0.7425481 -10.1831722
H 9.2024122 -0.6097085 -10.8502039
H 8.5880684 0.0618178 -9.6294242
O 5.9234502 2.9149629 6.4884209
H 5.2013971 3.3015956 5.9508634
H 5.8552345 3.4624126 7.2969681
O -0.8136935 -3.4038362 -12.9179306
H -1.2097046 -2.6080064 -13.3270212
H 0.0842018 -3.3146264 -13.2840046
O -7.1920295 -2.4524842 7.1208152
H -8.1495609 -2.5803918 6.8995689
H -7.3076856 -2.0121751 7.9892180
O -1.2040003 14.3800040 5.9260017
H -1.0100003 14.6260041 5.0270014
H -0.8760002 15.0750042 6.4680018
O 13.0860037 -5.3680015 4.1080011
H 13.8910039 -4.9900014 4.4130012
H 12.9270036 -4.8110013 3.3710009
O -0.1440000 -6.9190019 -13.0190036
H -0.4570001 -6.8150019 -13.9740039
H -0.4550001 -6.0520017 -12.6850036
O -4.7321370 -3.9694484 3.0607038
H -3.8617236 -3.8131599 3.4874553
H -5.3475086 -3.4811784 3.6502874
O -3.1610009 -2.2470006 18.8060053
H -3.3000009 -3.2080009 18.8580053
H -2.2360006 -2.1130006 18.9310053
O -0.8300002 14.3160040 2.7940008
H -1.5790004 14.1840040 2.2200006
H -0.5190001 15.2170043 2.4980007
O 14.7390041 -2.9160008 2.9810008
H 15.6960044 -3.0840009 3.2480009
H 14.7550041 -3.4660010 2.1980006
O -1.6950005 -17.7210050 3.7530011
H -1.4630004 -17.4100049 2.8870008
H -2.4310007 -17.1480048 3.9440011
O 0.1260000 -0.6260002 -16.5090046
H 1.0950003 -0.5770002 -16.2560045
H -0.0440000 0.2570001 -16.8770047
O -6.2170708 0.0883072 6.1399672
H -5.2660065 0.0300207 6.3867482
H -6.5478658 -0.7231662 6.5603854
O 15.0120042 -0.4680001 1.3810004
H 14.5440041 0.1290000 1.9830006
H 15.2890043 -1.2090003 1.9600005
O -13.0720037 -2.5770007 -9.1920026
H -12.7000036 -3.4040010 -8.9100025
H -12.7930036 -2.5370007 -10.0570028
O -16.0450045 -2.4250007 7.4830021
H -15.5990044 -1.7000005 7.9770022
H -16.8830047 -2.4960007 8.0020022
O 4.9944772 -2.8823419 -6.7671336
H 5.4447177 -3.6929943 -7.0788207
H 5.7850755 -2.3109467 -6.6675195
O 2.9087786 -0.5254642 6.8641042
H 3.5185209 -1.0875863 6.3389844
H 3.5418023 -0.1367129 7.5044963
O 5.4160015 13.4160038 -9.4260026
H 5.9380017 13.9540039 -10.0290028
H 5.8870016 13.5270038 -8.5480024
O -10.7890030 3.6840010 -11.6840033
H -10.0600028 3.9800011 -12.3230034
H -10.3770029 3.4100010 -10.8080030
O -12.6138668 2.8298753 4.9273637
H -11.7416572 2.7097956 5.3401831
H -12.5948666 3.7567574 4.6305660
O 5.8987247 -0.6034800 -11.1475710
H 5.7389162 0.3621247 -11.0525990
H 6.7950078 -0.6791956 -10.7542380
O 5.7352371 -0.2023948 3.5140751
H 5.5667482 -0.3598620 2.5602852
H 5.1775389 0.5885286 3.6661358
O -2.2491366 -3.6960746 -10.1162886
H -1.9118714 -4.5455615 -10.4779267
H -2.5074066 -3.2106233 -10.9327004
O -5.1321329 -4.5673178 6.9927724
H -5.6082820 -5.4205176 6.8992007
H -5.8593132 -3.9177959 6.9529636
O -1.8626091 11.4619863 -6.7984402
H -2.5736841 11.2773444 -7.4470560
H -1.8742052 12.4373601 -6.7580794
O -4.9350014 14.2060040 12.3870035
H -5.3340015 13.5080038 11.8600033
H -5.1890015 13.8840039 13.2750037
O 10.8098567 -3.4265812 6.9419842
H 9.8591416 -3.6476150 6.8242267
H 11.1925347 -4.3306752 6.9525520
O -1.3963071 -6.3245101 -10.4417940
H -0.7144190 -6.8094206 -10.9335591
H -2.0310099 -7.0581577 -10.2714407
O -2.7305144 -7.9213416 5.1394128
H -3.5208575 -7.4919886 4.7456697
H -2.5818700 -8.6306834 4.4722886
O -1.9210005 12.6190035 -13.3620037
H -1.6630005 12.3260034 -12.5290035
H -2.3360007 13.5160038 -13.1920037
O 0.9260003 12.7590036 4.0350011
H 0.9110003 12.9460036 5.0230014
H 0.0790000 13.1300037 3.7510010
O 15.7240044 -7.0860020 5.2250015
H 15.5690044 -6.3680018 5.8750016
H 15.2440043 -7.7880022 5.7230016
O -16.5510046 -5.4540015 5.7230016
H -17.4590049 -5.4030015 6.0180017
H -16.6340047 -5.5240015 4.7390013
O 2.3544215 -6.6655386 -6.9921810
H 2.1533491 -6.4681793 -6.0515820
H 1.5751464 -6.2547668 -7.4264723
O -2.3549021 -4.1316869 7.2135412
H -3.2897294 -4.3496707 7.0271795
H -1.8728545 -4.8179645 6.7233299
O 2.1660006 14.7020041 -10.1390028
H 1.7740005 15.5310043 -10.5040029
H 2.7280008 15.2720043 -9.5560027
O 1.6750005 13.6550038 8.3440023
H 2.2260006 13.8080039 9.1020025
H 2.4150007 13.5810038 7.6520021
O -14.6220041 -3.6110010 5.7160016
H -15.1600042 -4.4270012 5.5850016
H -15.1620042 -3.1350009 6.4150018
O 5.9340017 -4.5560013 -11.5360032
H 6.4140018 -5.3850015 -11.4730032
H 6.5150018 -3.7630011 -11.1940031
O 0.5216108 -2.8636553 5.6510780
H -0.2628127 -2.2850770 5.5549869
H 0.8407997 -2.8670439 4.7221601
O 4.9720014 13.9570039 -12.2350034
H 4.4650012 13.4030038 -11.6050032
H 4.3670012 14.0120039 -13.0330036
O 0.8310002 16.4030046 5.3400015
H 0.5090001 17.2060048 4.8720014
H 1.3730004 16.7580047 6.0630017
O -13.7390038 -5.3720015 -10.1660028
H -13.5450038 -6.2090017 -9.6480027
H -14.0780039 -4.8520014 -9.4310026
O -16.2260045 -7.3690021 7.5970021
H -16.4310046 -6.4490018 7.6820021
H -15.2950043 -7.2550020 7.2750020
O 4.7414449 -6.8198342 -8.2849505
H 4.5603998 -7.5202811 -8.9490626
H 3.8441490 -6.6687539 -7.9146429
O 0.5899622 -7.7481011 8.6196092
H 0.5830603 -8.0791446 7.6943070
H -0.3438788 -7.4808427 8.7371581
O 7.2020020 13.6600038 -7.2990020
H 7.2480020 13.3700037 -6.3840018
H 7.3720021 14.5830041 -7.1320020
O 3.8870011 13.1170037 6.5870018
H 4.5820013 12.4740035 6.7860019
H 4.4490012 13.8990039 6.7250019
O -3.5435306 -7.3744441 -6.9804755
H -3.6066719 -7.4084271 -6.0054080
H -3.5089940 -6.4013077 -7.1012480
O -6.0140017 -9.0390025 8.7960025
H -6.4960018 -8.6510024 9.4870027
H -5.1380014 -9.0530025 9.1850026
O -5.2320015 12.7280036 -7.2940020
H -6.1480017 12.5170035 -7.0590020
H -4.8090013 11.8840033 -7.6780021
O -5.4490015 12.1400034 3.1830009
H -5.8190016 12.9810036 2.8370008
H -6.0080017 11.4710032 2.7620008
O 9.5610027 -9.0370025 11.4920032
H 9.7750027 -9.7290027 10.8540030
H 10.2750029 -8.4190024 11.2570032
O 11.4400032 11.9390033 -10.2840029
H 11.2990032 11.2850032 -9.6250027
H 12.1270034 11.5240032 -10.8150030
O 10.6200030 13.4320038 7.4690021
H 9.7340027 13.0290036 7.3610021
H 10.9330031 12.8650036 8.1280023
O -17.0490048 -5.0560014 3.1780009
H -17.2880048 -5.9660017 2.8730008
H -17.4790049 -4.5570013 2.4140007
O -3.0970009 -11.1220031 -9.0500025
H -2.9730008 -12.0960034 -8.8630025
H -3.3090009 -10.9030031 -8.1040023
O -2.7879551 -9.0286816 7.6184991
H -2.6812237 -8.6631251 6.7101382
H -2.5212538 -8.2485315 8.1503095
O -0.7510862 8.8666488 -10.0819433
H 0.0251095 8.3284539 -10.3549664
H -1.4720611 8.4127481 -10.5658151
O -5.6484551 8.6950446 3.0544971
H -5.5173909 9.3164530 2.3170118
H -6.5521924 8.3688668 2.8582190
O 0.6059808 -9.2657042 -8.9966217
H 0.2771263 -9.8987879 -9.6688701
H -0.1591048 -9.2268119 -8.3796185
O -2.0107353 -7.0684681 9.2921892
H -2.1970644 -7.6079071 10.0888173
H -2.2512401 -6.1766770 9.6216795
O 0.1017593 9.6185028 -7.5959512
H -0.3077707 9.3495898 -8.4479859
H -0.5156464 10.3144103 -7.2915948
O -2.9760008 12.7120036 9.3800026
H -2.2220006 12.3110034 8.9330025
H -2.4160007 12.9800036 10.1810028
O -2.3480007 -13.5580038 -8.2350023
H -1.4580004 -13.4730038 -7.7760022
H -2.6660007 -14.3400040 -7.7330022
O -1.1440003 -6.1330017 12.7720036
H -0.7690002 -7.0120020 12.6740035
H -0.3620001 -5.6060016 12.6140035
O -0.4770408 4.1215811 -9.7935158
H -0.7747158 4.4151622 -10.6771333
H -1.1783997 4.5635465 -9.2636778
O -2.1465149 8.0734894 8.4403841
H -2.7289570 8.8433859 8.5595377
H -2.2408406 7.6118382 9.2947267
O 13.9540039 8.6430024 -6.8040019
H 13.6650038 8.8690025 -5.9270017
H 14.6100041 9.2920026 -6.9930020
O -7.5180021 -16.0440045 -7.3960021
H -7.3800021 -16.3280046 -8.3410023
H -8.1950023 -15.3480043 -7.5530021
O -5.7743824 5.1458568 -6.4781502
H -5.3444455 4.5150870 -7.0894381
H -6.4432860 5.5218070 -7.0900968
O -6.5170018 5.0580014 11.9770034
H -7.0730020 5.8570016 12.0020034
H -6.9490019 4.4130012 12.5660035
O 12.8380036 5.6510016 -9.3620026
H 13.2030037 5.9290017 -8.4960024
H 12.4480035 4.8530014 -9.0790025
O 9.9130028 6.4610018 12.1490034
H 10.6070030 5.9170017 11.7100033
H 9.4290026 6.8810019 11.4150032
O -8.5090024 -10.9290031 -1.7730005
H -9.3500026 -11.0870031 -1.2580004
H -8.9870025 -10.6650030 -2.6120007
O -5.3871536 7.1462017 -4.6025009
H -5.3281871 6.3949331 -5.2321250
H -6.2963119 7.0220737 -4.2618136
O 10.3010029 -10.7320030 -1.9200005
H 9.4890027 -10.2780029 -1.6380005
H 10.2890029 -11.5210032 -1.3120004
O 10.0449170 9.1812363 -3.4739727
H 9.8418126 8.9990288 -2.5357403
H 9.5010706 8.5072602 -3.9190055
O -4.8450014 -11.8810033 -3.6070010
H -4.8610014 -11.7770033 -4.6100013
H -4.0750011 -11.3940032 -3.3800009
O -7.9527457 5.5078155 0.9095973
H -7.7490601 6.2704474 1.4792883
H -8.9322632 5.5083393 0.9791535
O 6.9180019 -12.0940034 -2.3150006
H 6.3620018 -11.6730033 -1.6250005
H 7.5830021 -11.3460032 -2.4780007
O 12.4342387 3.6593774 -0.8562626
H 11.5424331 3.9411874 -0.5581612
H 12.8877750 3.7109929 0.0103936
O -8.3798849 -9.8435203 2.9978557
H -9.2934055 -9.5676120 2.7715605
H -7.8761679 -9.0772013 2.6517049
O -5.9500017 8.0080022 -14.3920040
H -5.1030014 8.1000023 -14.8900042
H -5.8050016 7.0420020 -14.2130040
O -8.1372385 8.6484293 -0.4396420
H -8.1082238 9.1767785 -1.2696445
H -9.1081556 8.5143053 -0.3587552
O 8.6570024 -11.1900031 0.8070002
H 9.1690026 -10.6160030 1.4730004
H 9.1840026 -11.9970034 0.6090002
O 9.3760026 10.4250029 1.1300003
H 8.6990024 10.8910030 1.6340005
H 10.2310029 10.8270030 1.4840004
O -9.0570025 -9.2070026 -11.7240033
H -9.3330026 -8.7900025 -12.5550035
H -9.1300026 -10.1230028 -11.9730034
O -11.1320031 -14.0880039 5.0540014
H -10.5250029 -13.3560037 5.3530015
H -10.5290029 -14.7000041 4.5240013
O -8.6660024 5.5860016 -10.8490030
H -8.9840025 6.4650018 -11.0070031
H -8.3810023 5.3760015 -11.7500033
O -9.8926420 6.8062426 6.3335343
H -10.0605720 6.4571273 5.4276188
H -8.9143544 6.6993202 6.3574498
O 9.0200025 -10.2270029 5.5240015
H 8.7220024 -10.7890030 4.7120013
H 8.2480023 -10.2960029 6.1330017
O 8.4620024 7.5410021 -11.8220033
H 7.5150021 7.7260022 -11.6440033
H 8.7550025 8.3090023 -12.3230034
O 7.7651147 9.0460873 4.3809195
H 8.3797994 8.3810411 4.0084404
H 7.0452661 9.0341378 3.7284430
O -9.0040025 -14.0890039 9.4230026
H -8.3330023 -13.3780037 9.4250026
H -9.7110027 -13.4770038 9.7710027
O -10.1960029 4.2740012 -9.1590026
H -10.8370030 4.7880013 -9.6700027
H -9.3150026 4.4640012 -9.5100027
O -11.2120031 3.6370010 8.5920024
H -11.7440033 3.0840009 9.2770026
H -11.9220033 4.0920011 8.1000023
O 6.8330019 -16.6130046 -7.2560020
H 5.9480017 -16.5600046 -6.8430019
H 6.6060018 -15.9600045 -7.9390022
O 6.3340018 -15.3370043 9.7070027
H 5.7840016 -14.7640041 9.0960025
H 5.7440016 -15.4750043 10.4430029
O 8.1460424 1.5096965 -8.5420713
H 7.1932022 1.2942504 -8.5384538
H 8.2199294 2.0164168 -7.7062156
O 5.8641685 4.7534726 8.5297739
H 6.7523711 5.1642581 8.4969182
H 5.3302161 5.4683796 8.1215050
O -9.7860027 -15.7380044 -2.7630008
H -9.9170028 -16.2920046 -3.5220010
H -9.5540027 -16.4610046 -2.1290006
O -8.9110829 2.8522071 -5.5159637
H -9.1414962 2.0648097 -4.9710938
H -8.0041705 3.0005458 -5.1604043
O 8.5857615 2.8400963 -6.1876973
H 8.3315496 3.7792024 -6.1533253
H 9.5633037 2.9078912 -6.0815172
O 4.6640013 2.5050007 13.4810038
H 4.5250013 3.2810009 14.0940039
H 4.0210011 2.7230008 12.7690036
O -6.5802169 0.2680778 -3.3453963
H -7.5095389 0.4736579 -3.5672397
H -6.4612442 0.8454378 -2.5605616
O 5.6510016 -17.9360050 -2.4890007
H 5.2880015 -18.8140053 -2.7450008
H 6.5570018 -18.0650051 -2.8280008
O 7.4739695 1.5516038 -0.5916754
H 7.5544589 0.5922521 -0.7404574
H 7.0997448 1.8402410 -1.4396376
O 6.7560019 0.8760002 15.3770043
H 5.9020017 0.8220002 14.8660042
H 6.4240018 0.6070002 16.2550045
O -10.0710028 -14.0290039 0.8400002
H -9.1460026 -14.3240040 0.7170002
H -9.9160028 -13.2600037 1.4380004
O -7.6612904 5.4458181 -1.8070056
H -8.0595582 4.5594180 -1.9344493
H -7.7070395 5.4839826 -0.8259383
O 7.6270772 4.9941047 -1.0974677
H 8.2439348 5.1091839 -1.8497577
H 7.0531837 5.7813386 -1.2111585
O 4.5550013 0.4670001 17.4120049
H 4.2240012 -0.3190001 17.0650048
H 3.9160011 1.0710003 17.0500048
O -14.7900041 -8.5760024 3.9190011
H -14.0980039 -7.8890022 3.9930011
H -15.0050042 -8.6430024 2.9920008
O -9.1111556 3.5691543 4.5977375
H -9.4339384 4.4271526 4.2539508
H -8.1517819 3.7452612 4.5631413
O 8.5360024 -12.5340035 3.8600011
H 8.2790023 -13.3890037 3.5150010
H 9.4600026 -12.6890036 3.8230011
O 4.9670014 5.3870015 -15.9340045
H 5.0950014 6.0170017 -16.7010047
H 4.8040013 4.5080013 -16.3940046
O 7.3904638 7.7286549 1.0851392
H 6.7396817 8.2797214 1.5601654
H 6.8565217 7.4260187 0.3212995
O -7.5147329 -0.4972904 -7.1157543
H -6.7226394 -0.0210388 -6.7784298
H -7.5721109 -0.1889708 -8.0421451
O -12.5660035 -0.9320003 13.8530039
H -12.8280036 -0.5410002 14.7160041
H -11.9100033 -0.2760001 13.5400038
O 8.0900023 -14.8850042 6.8390019
H 8.4810024 -15.7460044 7.0230020
H 7.2300020 -15.2080043 6.4750018
O 10.8500030 1.7360005 -9.0400025
H 10.7060030 1.8080005 -9.9810028
H 9.9540028 1.8780005 -8.7000024
O 6.9690020 3.1440009 11.9030033
H 6.1710017 3.0740009 12.4060035
H 6.7450019 3.9030011 11.4440032
O -9.5560027 -5.0690014 -8.9100025
H -10.4360029 -5.0160014 -8.5200024
H -9.6180027 -5.8300016 -9.5090027
O -9.9760028 -2.4400007 10.6080030
H -10.4180029 -2.7540008 11.4270032
H -10.6950030 -2.4560007 9.9530028
O -7.7610022 15.0020042 9.5160027
H -8.4170024 15.5970044 9.0430025
H -7.5340021 14.2580040 8.9100025
O 8.2130023 -3.5050010 -10.1450028
H 8.3190023 -2.4940007 -9.9980028
H 9.1320026 -3.7610011 -10.1510028
O 6.7530525 -2.7864524 10.1700159
H 7.4422577 -3.4622873 10.1547583
H 6.4640629 -2.7930953 9.2319250
O -9.5345733 -0.1585358 -1.3601272
H -10.2039181 0.4693223 -1.0192471
H -9.1797057 -0.5312697 -0.5351247
O 7.6518659 -1.2159576 -1.0356230
H 8.2351743 -1.2738450 -1.8290877
H 8.2079096 -1.6942277 -0.3773343
O 5.2480015 -0.5880002 13.2170037
H 5.1800014 -1.5190004 13.5770038
H 4.2860012 -0.4540001 13.1810037
O 9.9820028 16.3910046 -2.3540007
H 9.8660028 16.6380047 -3.2340009
H 9.0000025 16.1660045 -2.1850006
O -5.6650016 -17.2870048 -3.1200009
H -5.5430016 -16.5250046 -2.4950007
H -5.9640017 -17.9870050 -2.4690007
O -8.9065501 3.0007409 -1.6669371
H -8.0531755 2.5190921 -1.6933179
H -9.2121845 2.6623818 -0.7967054
O 9.1981519 -2.3134758 0.8874989
H 8.7626242 -2.2309158 1.7652118
H 9.8805581 -1.6134285 0.9435136
O -7.8465160 -0.0375955 -9.8615925
H -8.5747300 -0.5051737 -10.2929550
H -7.0853910 -0.4974513 -10.2750693
O -7.2204795 3.8076075 9.1707459
H -6.9613994 3.9647909 10.0875720
H -7.9258354 4.4706888 9.0499473
O 3.5890010 -17.0990048 7.9110022
H 2.7640008 -16.6180047 7.6460021
H 3.4100010 -17.3370049 8.8200025
O 10.1690028 -0.9610003 -12.5460035
H 10.8010030 -1.6940005 -12.5440035
H 9.3430026 -1.3570004 -12.9730036
O 3.3070188 5.4153759 1.1043984
H 4.2258684 5.1034459 1.2501566
H 3.4626439 6.2431151 0.6000264
O -7.6717362 -3.3536261 -9.9013894
H -8.4089567 -3.8592649 -9.4898465
H -7.7817233 -3.6297961 -10.8340019
O -12.0430034 -1.0570003 8.9840025
H -12.9490036 -0.8400002 8.7670025
H -12.0330034 -1.8260005 8.3530023
O 10.7390030 -4.4290012 -9.6380027
H 10.9140031 -4.9360014 -10.4730029
H 11.6280033 -4.0750011 -9.5440027
O 6.7549558 0.3456670 7.0094439
H 6.1062845 0.1397668 7.7096868
H 6.4285024 1.2261385 6.7354357
O -11.7880033 -4.6510013 -7.5880021
H -11.8370033 -4.6750013 -6.6330019
H -11.9460033 -5.6150016 -7.6880022
O -13.3110037 -5.5620016 9.1120026
H -12.8740036 -6.3110018 9.6840027
H -13.6320038 -6.0550017 8.4220024
O -10.6420030 12.9240036 -9.1070025
H -10.0680028 12.3840035 -8.4330024
H -10.8300030 13.7510038 -8.6870024
O 6.6438681 -4.8990708 -7.8567549
H 7.1070883 -4.5916755 -8.6563794
H 6.0119417 -5.5706090 -8.1972087
O 3.8132775 -4.8525549 8.5153180
H 3.1698330 -4.9794119 7.7911869
H 3.2436995 -5.1077670 9.2700383
O 8.2150023 11.3410032 -9.4320026
H 7.6250021 11.8030033 -8.8030025
H 8.8580025 10.9710031 -8.8150025
O 4.4000012 13.6380038 9.4960027
H 4.6980013 14.4510040 9.0560025
H 4.9390014 13.0030036 9.0300025
O -8.6844446 -3.4725962 -3.3042438
H -8.9171613 -2.8026742 -3.9849727
H -8.3972974 -4.2110072 -3.8593652
O -8.7230024 16.5410046 -3.7780011
H -8.1680023 15.9040045 -3.3440009
H -8.0920023 17.2570048 -4.0160011
O 7.1822704 -3.9671800 -4.0770754
H 7.0763424 -4.7425291 -4.6447531
H 8.0837470 -3.6921788 -4.3401654
O 4.8460014 -2.8390008 14.5830041
H 5.4870015 -2.7300008 15.3260043
H 5.2360015 -3.4460010 13.9320039
O -14.1130039 -3.5230010 2.5330007
H -13.4790038 -3.0120008 1.9700006
H -14.2210040 -2.9430008 3.3090009
O 6.9144635 -4.4091491 2.2843073
H 7.2706204 -3.5898561 2.6833549
H 6.3236555 -4.7304992 2.9851638
O 4.0090011 -6.3100018 17.3370049
H 4.9890014 -6.1510017 17.4520049
H 3.5980010 -5.4850015 17.3630049
O -8.0480023 -2.9720008 -14.8710042
H -8.3590023 -2.7550008 -15.7740044
H -7.2660020 -2.2690006 -14.9330042
O -14.5860041 1.4840004 6.2340017
H -14.6100041 0.7720002 5.5710016
H -13.7870039 1.9780006 5.9790017
O 7.6150021 -1.5980004 -13.4520038
H 6.9060019 -2.2450006 -13.4780038
H 7.1220020 -0.7370002 -13.3990037
O 7.8634194 -1.9800178 3.2932777
H 7.0981744 -1.3670695 3.3163275
H 8.3312934 -1.6553762 4.0914937
O -4.7470963 -4.5614499 -9.3680373
H -3.8620182 -4.2306511 -9.6221641
H -4.6028711 -4.6229450 -8.4006560
O -12.1970034 -3.5130010 7.5250021
H -12.2790034 -4.3650012 8.0670023
H -12.9770036 -3.6080010 6.9170019
O -9.7840027 13.2470037 6.7570019
H -10.3240029 13.3530037 5.9600017
H -9.1750026 12.5720035 6.4440018
O 11.9160033 -6.2570018 -11.2350031
H 11.8690033 -7.1860020 -11.2020031
H 12.8450036 -6.1400017 -11.5510032
O 8.2275463 -4.2847267 6.5543425
H 8.0351942 -5.1788410 6.8860981
H 7.4291226 -3.8023324 6.8616297
O -10.2760029 -11.8380033 -9.2220026
H -9.2900026 -12.0050034 -9.2440026
H -10.5570030 -12.1030034 -10.1500028
O -9.0670025 -8.0200022 8.4920024
H -8.7780025 -8.9550025 8.5210024
H -8.5270024 -7.7570022 9.2340026
O -7.2600020 8.7910025 -8.5890024
H -6.5690018 8.7260024 -9.3020026
H -6.9790020 9.5050027 -8.0830023
O -7.9340022 11.2740032 5.8970017
H -7.2030020 10.7290030 5.5680016
H -8.5710024 10.4940029 5.9940017
O 10.6740030 -9.4060026 -8.7570025
H 11.3760032 -9.1130026 -9.3790026
H 11.1640031 -9.4320026 -7.9000022
O 6.3720018 -8.9250025 9.0580025
H 6.4760018 -9.1380026 10.0390028
H 7.1770020 -8.4310024 8.8880025
O 7.7740022 9.9060028 7.4440021
H 8.4740024 10.3460029 6.9020019
H 7.2080020 9.5390027 6.7460019
O -10.8670030 -7.0520020 -2.2560006
H -11.5920032 -6.3990018 -2.0660006
H -11.3510032 -7.9280022 -2.3890007
O -6.8980019 14.5230041 -2.5090007
H -7.5640021 13.7950039 -2.5240007
H -6.2120017 14.1630040 -3.1120009
O 7.9910022 -6.3160018 -5.8430016
H 7.4650021 -5.9570017 -6.6020018
H 8.8880025 -6.1280017 -6.2350017
O 6.6340019 -5.3830015 14.1920040
H 6.9640019 -5.1720014 13.2980037
H 6.8690019 -4.6150013 14.7450041
O 9.6020027 11.4600032 -5.0760014
H 10.0820028 10.9310031 -4.3720012
H 9.3540026 12.2400034 -4.4800013
O -5.3700015 -7.4170021 -15.2640043
H -5.9770017 -7.8040022 -15.8850044
H -5.1670014 -6.4840018 -15.5930044
O -6.9516979 -4.6330210 -0.4087807
H -6.3073798 -5.2487733 -0.8041295
H -7.7268240 -5.2344587 -0.4044768
O -5.9685239 10.5083710 0.8388533
H -5.7991271 9.9172309 0.0931915
H -5.2181726 11.1417128 0.7358998
O 9.3056664 -4.9107656 -0.1724373
H 9.3356750 -4.0166353 0.2336625
H 9.3260497 -5.4817550 0.6259030
O -9.3640026 -4.7870013 -16.9110047
H -8.7830025 -5.2130015 -16.2570045
H -9.9560028 -4.2460012 -16.3680046
O -9.5066947 -3.5901900 1.5428844
H -9.3077691 -2.6372195 1.5525432
H -9.7429550 -3.6954776 0.5953698
O 9.2221200 -1.3189347 -3.2338564
H 9.5758749 -2.0508629 -3.7847557
H 8.8186884 -0.7454799 -3.9203169
O 11.5960032 14.9860042 -0.5270001
H 10.9700031 15.4230043 -1.1890003
H 11.8800033 15.6830044 0.1380000
O -6.9364017 -6.0526445 -8.1945850
H -7.8253117 -5.9426571 -8.5865074
H -6.4216459 -5.3951422 -8.6977536
O -11.0440031 -6.1870017 6.7710019
H -10.5720030 -5.9080017 5.9870017
H -10.3270029 -6.7530019 7.1180020
O -7.9100022 12.4600035 -6.5980018
H -8.7670025 12.0270034 -6.8770019
H -8.3230023 13.2510037 -6.2500017
O -11.6400033 13.2120037 4.6160013
H -12.1340034 13.5660038 3.8270011
H -12.3260034 12.6730035 4.9060014
O 6.7978360 -6.9844945 5.0525015
H 6.0941499 -6.3855597 4.7389201
H 6.9141447 -7.5486788 4.2619673
O 9.3460026 11.0550031 5.3520015
H 8.6900024 10.4630029 4.8570014
H 10.1530028 10.9060031 4.9280014
O -12.6810035 -3.5610010 -4.9410014
H -13.2700037 -3.2750009 -5.6570016
H -12.0710034 -2.7900008 -5.0460014
O -12.8010036 -7.5120021 11.1000031
H -12.0790034 -7.4020021 11.8190033
H -13.6080038 -7.4470021 11.6060032
O -6.5110018 11.4920032 -4.4060012
H -6.2080017 10.6830030 -4.9430014
H -7.0120020 11.8810033 -5.1340014
O 8.6790024 -7.5080021 -9.7740027
H 9.3230026 -8.2350023 -9.6440027
H 8.5830024 -7.2010020 -8.8670025
O 9.6930027 -5.3660015 9.3480026
H 10.5060029 -5.6990016 8.8710025
H 8.9550025 -5.8210016 8.8700025
O 6.5060018 12.4570035 7.3910021
H 7.2840020 12.8340036 7.8330022
H 6.6620019 11.5030032 7.3670021
O -10.3934008 -3.4745187 -1.0371423
H -10.9453964 -4.1521945 -1.4624879
H -9.7117061 -3.3417857 -1.7303496
O -11.0630031 -7.6730021 13.2180037
H -11.0080031 -7.9920022 14.1470040
H -10.3470029 -7.0150020 13.2100037
O -4.6220013 14.1770040 -4.7490013
H -5.1250014 14.9280042 -4.9980014
H -4.8810014 13.5120038 -5.4680015
O 8.2220023 -9.7200027 -5.1260014
H 8.8390025 -8.9660025 -4.8560014
H 7.3920021 -9.3290026 -5.4560015
O 8.1690023 -5.5450016 11.6100032
H 8.7480024 -5.5720016 10.7880030
H 7.3920021 -5.6580016 11.0620031
O 12.7150036 11.9090033 -6.2800018
H 12.7210036 11.8650033 -5.3210015
H 12.3000034 12.8250036 -6.3560018
O -12.6170035 -9.4280026 -1.9850006
H -13.4090038 -9.7800027 -1.4920004
H -11.9170033 -9.9870028 -1.5710004
O -10.6460030 8.7860025 -2.7820008
H -9.6340027 8.8370025 -2.9380008
H -10.9010031 8.2410023 -3.5520010
O 6.0435945 -10.9979191 0.1785742
H 5.9108106 -10.0360117 0.2529084
H 7.0070079 -11.0589367 0.3825386
O 4.6130013 -9.0710025 15.8540044
H 5.0620014 -8.3710023 15.3110043
H 3.9440011 -8.4340024 16.1230045
O 6.9145060 11.2076912 -0.1357419
H 6.8846729 11.6358756 0.7410537
H 7.8097520 10.8263288 -0.1140460
O 3.0280008 6.6770019 14.5070041
H 3.4710010 6.6380019 13.6560038
H 3.6350010 7.3720021 14.9370042
O -8.5880024 -6.9760020 -10.5810030
H -9.0560025 -7.7180022 -10.9950031
H -7.8320022 -6.8870019 -11.2430031
O -9.1938194 -6.7162980 4.6984067
H -8.6984792 -7.5104717 4.9719680
H -8.5125514 -6.2107358 4.2062758
O -6.8010019 14.0990039 -10.7370030
H -7.4730021 14.1820040 -11.4360032
H -6.8170019 14.9680042 -10.3550029
O -8.6200024 11.6500033 0.8800002
H -7.7970022 11.2520031 0.5000001
H -8.7190024 10.8950030 1.5330004
O 11.9500033 -9.1310026 -11.1190031
H 11.3620032 -9.4300026 -11.7920033
H 12.6280035 -9.8430028 -11.1400031
O 10.1420028 -7.7520022 5.2070015
H 9.7170027 -8.6100024 5.1360014
H 10.6530030 -7.7420022 4.3690012
O 11.5510032 11.9160033 1.3970004
H 11.2650032 12.1610034 0.4450001
H 12.4810035 12.1780034 1.3520004
O -7.4430021 -11.9530033 -9.6600027
H -7.3130020 -12.3150034 -10.5920030
H -7.0970020 -12.6830035 -9.1850026
O -7.6130021 -11.5940032 6.8910019
H -8.4330024 -11.8790033 6.6160019
H -7.5160021 -11.7710033 7.8410022
O -5.4081027 3.8150347 -10.7261565
H -6.2820480 3.4049089 -10.5411599
H -5.0561957 3.8299423 -9.8175858
O -5.0546391 6.0897730 8.5215112
H -5.0782018 6.9465494 8.9757427
H -4.7917090 5.4963915 9.2501054
O 11.8130033 -10.5700030 6.7920019
H 11.3510032 -10.4420029 7.6490021
H 11.1410031 -10.4400029 6.0890017
O 10.7620030 6.5770018 -14.1690040
H 10.6030030 5.8820016 -13.5110038
H 11.3530032 7.2040020 -13.7250038
O 8.6033851 3.2961889 6.1004212
H 7.6747969 3.0286043 6.2647668
H 8.4652379 4.2111757 5.7772578
O -0.8580002 -10.9610031 -10.7280030
H -1.6670005 -10.8770030 -10.1560028
H -0.8370002 -11.9430033 -10.8780030
O -3.9329973 -11.9118261 4.2570607
H -3.2620284 -11.2326594 4.0691451
H -4.1838786 -11.7000141 5.1763526
O -1.8581074 5.2247360 -11.9742059
H -2.2726511 6.0826647 -11.7496455
H -1.0939840 5.5352018 -12.5126965
O -4.3576045 6.3003217 3.5958258
H -4.7866214 7.1284909 3.2987191
H -3.6314324 6.6950260 4.1234896
O 12.9150036 -12.8120036 5.9410017
H 12.2900034 -13.4230038 6.3210018
H 12.7130036 -12.0760034 6.4840018
O 14.9660042 8.3950023 7.2770020
H 15.8770044 8.6920024 7.0880020
H 14.8080041 7.6300021 6.6950019
O 2.5000007 -12.6320035 -10.4220029
H 3.0510009 -12.6090035 -9.6020027
H 1.9140005 -13.3260037 -10.1130028
O 0.5415665 -8.9014335 6.1043895
H 1.3964117 -9.3683592 5.9825888
H -0.0627740 -9.6733455 6.0116764
O 2.5840007 9.5970027 -12.3290035
H 2.7760008 10.3440029 -11.6890033
H 3.3340009 9.7540027 -12.9740036
O 1.1224018 10.0362103 3.3278688
H 0.9257034 10.9930367 3.3517372
H 1.2542276 9.8655797 4.2866571
O 6.3760018 -9.8690028 -12.0080034
H 5.4280015 -10.0060028 -12.4270035
H 6.8960019 -10.5800030 -12.4650035
O 0.4517707 -7.6971862 3.6147881
H 0.4831916 -8.1451499 4.4856926
H 1.2265485 -8.1033374 3.1721468
O 2.4869484 10.2565599 -8.8532005
H 2.9556484 9.4075423 -8.8209678
H 1.6658021 10.0318948 -8.3646264
O 5.0700014 9.2110026 7.3730021
H 5.7230016 9.0370025 8.0830023
H 4.4010012 9.7270027 7.9060022
O -11.8910033 -7.6650021 -12.2760034
H -12.8380036 -7.4200021 -12.3680035
H -12.0420034 -8.6050024 -12.2620034
O -10.8830030 -8.7860025 2.7030008
H -11.2550031 -8.0410023 2.2300006
H -10.9270031 -8.4810024 3.6310010
O -11.0880031 11.4200032 -11.4590032
H -10.5360029 11.8270033 -12.2040034
H -10.9720031 12.0270034 -10.6850030
O -9.9790028 9.7930027 2.9440008
H -10.8190030 10.1990029 2.6590007
H -10.0090028 9.9110028 3.8940011
O 6.4630103 -10.7832591 3.8818002
H 6.7760499 -9.9391808 3.4832911
H 7.1958214 -11.3958453 3.6594144
O 6.7760019 11.4560032 -11.7330033
H 6.1630017 12.2320034 -11.7080033
H 7.2490020 11.6470033 -10.8720030
O 7.3030020 11.6440033 2.6210007
H 6.8080019 12.1090034 3.3270009
H 6.8400019 10.7820030 2.5310007
O -5.7540016 -10.2110029 -11.8610033
H -6.0360017 -9.4190026 -11.3940032
H -5.6020016 -10.8440030 -11.1620031
O -5.2217801 -9.8143578 2.0839242
H -5.8346115 -9.0488564 2.0935378
H -5.7779693 -10.5112219 2.4764670
O -5.7970016 8.0190022 -10.8860030
H -6.1460017 7.2960020 -11.4680032
H -6.3360018 8.6960024 -11.3610032
O -5.5565779 9.7019920 5.6435672
H -5.5376990 9.2761465 4.7611243
H -4.6327913 9.9964222 5.7180548
O 11.5790032 -8.2730023 -0.5820002
H 11.5090032 -9.1210026 -1.0440003
H 11.0400031 -7.5960021 -1.0500003
O 11.7530033 10.8030030 4.1460012
H 11.7630033 11.5460032 3.4660010
H 11.5940032 10.0710028 3.5030010
O -3.1200009 -8.4340024 -10.1370028
H -3.2480009 -9.0860025 -9.5080027
H -4.0560011 -8.1790023 -10.3170029
O -2.6750220 -9.6803581 3.0768439
H -3.5658078 -9.7271258 2.6676796
H -2.1443863 -9.3058615 2.3471246
O -2.8899746 7.8403555 -11.5931208
H -3.8515972 7.8659786 -11.4415648
H -2.7891400 8.4332066 -12.3692549
O -2.9317958 12.3622682 4.1979560
H -3.8395333 12.2624898 3.8248856
H -2.5538268 13.0408103 3.6288413
O 11.8690033 -7.6170021 2.9740008
H 12.4680035 -6.8630019 3.1810009
H 12.5430035 -8.3490023 2.6890008
O 13.4720038 10.7990030 6.1760017
H 13.0670037 10.8480030 5.3130015
H 14.0280039 10.0380028 6.0280017
O -15.8470044 8.9020025 1.6530005
H -16.4250046 8.2570023 1.1150003
H -16.2540045 8.7150024 2.5390007
O 1.9040005 -8.5840024 -12.3950035
H 2.2860006 -7.9500022 -11.7340033
H 1.0940003 -8.1060023 -12.4210035
O -2.2364902 -3.8253205 4.0747695
H -1.6665844 -4.4459133 4.5734167
H -2.0432579 -2.9801851 4.5339712
O 2.0240006 13.4070038 -13.3950037
H 1.9780006 12.7280036 -14.1940040
H 2.2760006 12.8670036 -12.6300035
O 3.1179800 9.6655957 1.4386052
H 2.6822108 10.2975457 0.8272993
H 2.4790852 9.7001560 2.1805408
O -13.7560038 -6.9130019 6.4590018
H -13.8890039 -6.6340019 5.5430016
H -12.7600036 -6.7030019 6.6220019
O -15.2230043 12.0830034 1.8070005
H -15.4620043 11.1670031 1.7550005
H -14.6620041 12.2900034 1.0720003
O 3.9400011 -10.0760028 -13.2540037
H 3.1540009 -9.5340027 -13.0520037
H 4.3300012 -9.5300027 -13.9240039
O 2.3803656 -9.0306313 2.1159026
H 1.9548863 -9.4692101 1.3490004
H 2.9653724 -9.7541500 2.4257397
O 4.7270013 9.2660026 -14.4390040
H 4.8180013 10.2050029 -14.7900041
H 5.6740016 9.0520025 -14.3520040
O 5.6179510 9.3516020 2.5838324
H 4.8589505 9.5207924 1.9822605
H 5.1056940 9.3348346 3.4260595
O -14.8510042 -10.0700028 6.0640017
H -14.2080040 -9.4560026 6.4050018
H -15.0470042 -9.5110027 5.2100015
O -7.4090021 9.3760026 -12.6130035
H -7.3800021 10.2840029 -12.9810036
H -6.6260019 8.9770025 -13.0970037
O -13.3520037 12.9590036 -0.0480000
H -12.4370035 13.0170036 0.1390000
H -13.3200037 13.1620037 -1.0200003
O 3.9090011 -8.8700025 -16.3320046
H 4.5320013 -9.2130026 -16.9830048
H 3.5810010 -9.7440027 -16.0590045
O 3.9040025 -11.1702716 3.1073736
H 4.8461750 -11.0029643 3.3337482
H 3.9049278 -12.1494302 3.0576858
O 5.5461903 5.4825195 -12.3109110
H 6.3545186 5.4253363 -12.8376760
H 5.8651567 5.2244739 -11.4229863
O 6.1330017 13.0420037 4.5460013
H 5.2580015 12.6690035 4.6640013
H 5.8700016 14.0000039 4.3810012
O -4.3065298 -10.6736915 -0.3015605
H -4.5465796 -10.2847689 0.5664402
H -4.2030904 -11.6135216 -0.0436021
O -4.4610012 -11.8770033 14.4810041
H -3.9880011 -11.0380031 14.3200040
H -3.7200010 -12.4300035 14.8540042
O -3.8910011 8.0070022 -16.2830046
H -2.9990008 8.3400023 -16.4600046
H -3.7370010 7.0400020 -16.2350045
O -3.4159503 6.2838804 -0.3273670
H -4.2497908 6.7033857 -0.6279743
H -2.9439072 7.0894937 -0.0116353
O 10.0350028 -13.0860037 -0.5340001
H 10.4080029 -13.6520038 0.0940000
H 9.8260028 -13.6880038 -1.2330003
O 12.3770035 9.4940027 -0.6120002
H 12.1200034 10.4290029 -0.7690002
H 12.2560034 9.4610026 0.4060001
O -3.7390010 -13.2150037 0.6890002
H -3.4530010 -13.8580039 0.0080000
H -2.9590008 -13.3020037 1.3260004
O -1.3590004 9.0370025 -16.8340047
H -1.0550003 9.0140025 -17.7900050
H -1.0780003 9.9220028 -16.5890046
O -2.2233988 8.5968310 0.4479678
H -1.7093976 8.4252107 1.2642546
H -1.8338594 9.4439886 0.1544068
O 15.1340042 7.8960022 -0.0410000
H 15.8700044 7.9910022 0.5700002
H 14.9230042 8.8550025 -0.1290000
O -18.5280052 6.2630018 2.4970007
H -17.6520049 6.1360017 3.0200008
H -18.1290051 6.2530018 1.6270005
O -1.0920003 -11.0120031 -15.7360044
H -0.9120003 -11.8220033 -15.2410043
H -0.8310002 -10.4110029 -15.0750042
O -1.8140005 -14.2830040 2.5960007
H -1.3320004 -15.1050042 2.1650006
H -1.8130005 -14.4940041 3.5190010
O 0.3570001 8.9070025 -13.5840038
H -0.4500001 9.4460026 -13.6630038
H 1.0830003 9.4770027 -13.2750037
O 1.6587602 11.0022902 -0.4464172
H 1.7524898 10.2968155 -1.1239963
H 2.1116432 11.7464359 -0.8846329
O 12.9570036 -10.0560028 2.3720007
H 12.6290035 -10.8280030 2.8550008
H 13.7710039 -10.4290029 1.9990006
O 1.8820005 -7.0700020 -16.4330046
H 1.2320003 -7.7590022 -16.6700047
H 2.6680007 -7.6500021 -16.5910046
O -1.7780167 -5.8137409 -2.7439376
H -1.3667102 -5.4418185 -3.5519417
H -2.4219444 -6.4244029 -3.1538627
O 4.0790011 13.1720037 0.8580002
H 4.7820013 13.7710039 1.0330003
H 3.6250010 13.0380036 1.7080005
O 15.0380042 -4.6540013 0.8590002
H 15.2720043 -4.4620012 -0.0140000
H 14.3770040 -5.2910015 0.7770002
O -12.6030035 -5.1850015 -1.4830004
H -12.6020035 -5.0810014 -0.5460002
H -13.3480037 -4.5910013 -1.7730005
O -10.8540030 8.4970024 -0.1070000
H -11.0580031 8.5790024 -1.1010003
H -11.3940032 9.2610026 0.2450001
O 5.4700015 -6.5940018 -16.5050046
H 5.1370014 -7.4710021 -16.2600046
H 4.8370014 -6.3650018 -17.2230048
O 7.9541306 -9.3608508 -1.7069331
H 7.4079859 -8.9834790 -0.9938078
H 7.8962644 -8.6517362 -2.3797079
O 7.4230021 15.6750044 -2.1520006
H 6.9910020 14.7950041 -2.1810006
H 7.2850020 15.8850044 -1.1540003
O -6.8260219 -7.6348602 2.5066588
H -7.2397037 -6.7698339 2.3220127
H -6.0729826 -7.3342111 3.0593267
O -4.3694463 11.7998094 -2.4959652
H -3.5709788 11.6205108 -3.0329490
H -5.0728768 11.7305148 -3.1635022
O 7.9022087 -7.0905841 -3.2725545
H 7.9913338 -6.8340259 -4.2225130
H 8.6814542 -6.6437386 -2.8920180
O 9.8130027 -2.0280006 12.7670036
H 9.0650025 -1.5500004 12.3180034
H 9.7580027 -1.5340004 13.6710038
O 9.3453472 8.4573098 -0.7942132
H 9.5797836 9.2000561 -0.1967507
H 8.6510808 8.0502764 -0.2439572
O -6.4850018 -12.6270035 -1.4980004
H -7.3370021 -12.1580034 -1.6780005
H -5.9750017 -12.4050035 -2.3240007
O -7.3780021 -7.9480022 15.9800045
H -7.7090022 -8.8570025 15.8840044
H -7.9140022 -7.6400021 15.2910043
O -3.2952435 8.4293461 -3.3082949
H -3.9336961 7.8964503 -3.8303991
H -3.7250261 8.3973846 -2.4408183
O -7.8410022 9.2650026 14.2530040
H -7.8790022 9.4620026 15.1970043
H -7.8640022 8.2950023 14.3040040
O 10.4430029 -8.6420024 -3.7960011
H 10.4460029 -9.2780026 -3.0840009
H 10.3850029 -7.8080022 -3.3560009
O 12.9460036 8.6840024 -4.3160012
H 12.0610034 8.5070024 -4.0430011
H 13.4290038 8.0440023 -3.7950011
O -9.8060027 -6.8160019 -5.4200015
H -9.0520025 -6.1820017 -5.4030015
H -10.4060029 -6.5170018 -4.7250013
O -7.4190021 -7.8320022 10.9260031
H -6.5220018 -7.8810022 11.2720032
H -7.7930022 -7.2770020 11.5720032
O -5.7663020 9.4056012 -6.0325132
H -5.5608146 8.6485511 -5.4369419
H -5.1946141 9.1449922 -6.7840603
O -7.6260021 11.2030031 9.0480025
H -7.3410021 11.8850033 8.3460023
H -7.2380020 11.6220033 9.8260028
O 12.8000036 -6.6760019 -6.8830019
H 13.7730039 -6.9340019 -6.8100019
H 12.4150035 -7.5870021 -6.6120019
O 10.5330029 10.7380030 -7.5680021
H 11.3300032 11.2270031 -7.8300022
H 10.3610029 10.9930031 -6.6430019
O 8.4060024 12.9940036 9.4440026
H 9.2060026 12.5560035 9.8910028
H 8.3760023 13.7000038 10.0700028
O -13.3720037 6.6340019 -0.5010001
H -13.9190039 7.2090020 -1.1490003
H -12.7400036 6.1660017 -1.0230003
O -0.7316724 -9.0099502 -1.2580691
H -1.0345986 -8.5547797 -0.4458680
H 0.0187747 -9.5011973 -0.8676478
O -2.3570007 -10.6970030 13.4100038
H -2.0530006 -11.6290033 13.5500038
H -1.7030005 -10.0890028 13.7720039
O -1.1453162 11.0794076 -0.2486937
H -1.0532153 11.7953996 -0.9098732
H -0.1944305 10.9539869 -0.0544412
O -1.5900004 11.1710031 14.4090040
H -0.9930003 11.7810033 14.8080041
H -2.2520006 10.9010031 15.1770042
O 15.3930043 10.3240029 -2.8200008
H 15.7090044 9.3920026 -2.9950008
H 15.5840044 10.4430029 -1.8650005
O -17.0060048 -8.4730024 -2.0390006
H -17.0330048 -8.5470024 -3.0050008
H -16.0980045 -8.0500023 -2.0280006
O -13.4830038 10.5850030 -2.9220008
H -12.5260035 10.4120029 -2.9750008
H -13.6250038 11.5390032 -3.0810009
O 4.0641507 -8.6217451 -1.6263264
H 4.4089462 -8.1874740 -2.4383773
H 3.1289995 -8.3866987 -1.6808516
O 2.0040006 -7.6460021 15.7080044
H 2.6630007 -6.9610019 15.9030045
H 1.3120004 -7.6910022 16.3690046
O 6.4750018 13.3350037 -1.8570005
H 6.4480018 12.6170035 -1.2110003
H 6.0380017 12.8680036 -2.6220007
O -11.4830032 -8.8050025 -5.0370014
H -12.0610034 -8.0510023 -4.9750014
H -10.6880030 -8.3000023 -5.4380015
O -10.2100029 10.9980031 -6.8950019
H -10.8920030 10.4410029 -7.2530020
H -9.6730027 10.3950029 -6.3840018
O 5.2550298 -7.3293785 -3.7125314
H 5.3094690 -7.6957414 -4.6169445
H 6.2126212 -7.2308535 -3.5158760
O 1.7771859 -5.7750662 10.1564857
H 1.0423234 -5.1320439 10.0537167
H 1.4462081 -6.5300432 9.6246462
O 5.3390015 13.2920037 -4.8190013
H 5.0880014 12.4900035 -5.2750015
H 4.7640013 13.9100039 -5.3040015
O 2.3180006 10.2840029 14.0620039
H 2.5490007 11.1390031 13.6690038
H 2.7610008 10.3700029 14.9140042
O -7.4860021 -9.9090028 -4.8330014
H -7.5680021 -9.9240028 -5.8070016
H -7.9290022 -10.7490030 -4.6030013
O -8.8970025 -12.0910034 12.6900036
H -9.7970027 -12.0580034 12.2850034
H -8.3750023 -12.2250034 11.8810033
O -2.6875388 6.5382318 -6.1852821
H -2.7470297 5.8747482 -5.4623606
H -1.8108062 6.9369786 -5.9887550
O -8.1780023 6.6270019 15.1950043
H -8.8730025 6.6060018 15.8090044
H -8.7100024 6.5110018 14.3940040
O 7.5790021 -11.9280033 -6.7680019
H 6.8250019 -11.5260032 -7.2030020
H 7.7770022 -11.2220031 -6.1330017
O 10.8580030 5.8230016 -6.1080017
H 10.2840029 6.5110018 -6.4670018
H 11.7480033 6.0070017 -6.3890018
O -3.7111056 -4.6292453 -6.8273326
H -4.1595441 -4.4757200 -5.9680115
H -3.1621793 -3.8288390 -6.8951565
O -5.0800014 -7.7070022 12.0540034
H -4.3330012 -8.0290022 11.4460032
H -4.5720013 -7.3000020 12.7540036
O -3.8874659 10.7370340 -8.5075193
H -3.8622731 9.7587405 -8.5739285
H -3.8592760 11.0319822 -9.4401512
O -5.9090017 12.0580034 11.0460031
H -5.8470016 11.4150032 11.7990033
H -5.0770014 11.9600033 10.5520030
O 15.9380045 -6.9120019 -8.1570023
H 15.7880044 -6.3230018 -8.9230025
H 16.6370047 -6.4960018 -7.6310021
O 11.8990033 -7.6500021 10.8090030
H 11.8190033 -7.8810022 9.8870028
H 12.7600036 -7.2190020 10.8010030
O 10.9910031 11.9890034 9.6780027
H 11.3290032 11.1290031 9.4020026
H 11.3310032 12.0300034 10.5990030
O -1.1462567 -8.7719963 -4.2514383
H -2.0465403 -8.4298579 -4.1317293
H -0.7783946 -8.6384382 -3.3581389
O -2.6230487 -4.8280802 10.7339090
H -2.3482230 -5.1445151 11.6180650
H -1.8256356 -4.3229879 10.4695533
O -0.2219732 13.1617530 -1.8504629
H 0.5292145 13.3736990 -1.2510737
H 0.2281994 12.8203430 -2.6473485
O 15.9160045 -6.6980019 -4.6690013
H 15.4380043 -5.8180016 -4.8200013
H 15.3830043 -6.9350019 -3.8810011
O 9.2150026 -8.5960024 14.5960041
H 9.0730025 -9.4510026 14.2750040
H 9.3310026 -8.1740023 13.7020038
O -17.0560048 7.9180022 -6.1490017
H -16.4260046 7.3550021 -5.7440016
H -16.6480047 8.8070025 -6.1490017
O 2.3831742 -9.3773169 -6.8694131
H 1.8386153 -9.5353763 -7.6704798
H 2.4602658 -8.4029873 -6.9406958
O -1.9002008 -11.1827400 9.1195346
H -1.6017760 -11.8617507 8.4843859
H -2.1347925 -10.4475032 8.5122946
O 2.5234173 10.2295446 -4.6388897
H 1.8097893 10.8954786 -4.5435089
H 3.0833310 10.6611930 -5.3202297
O 1.2840004 11.4190032 11.1520031
H 0.5900002 11.1570031 11.7820033
H 1.8410005 10.6000030 11.1210031
O -10.1590028 -10.9930031 -3.8910011
H -10.9080031 -11.6380033 -3.8370011
H -10.7320030 -10.2350029 -4.1600012
O -11.3070032 6.6050018 -4.7410013
H -10.7060030 6.1910017 -5.4150015
H -11.1660031 5.8980017 -4.0990011
O -12.2470034 5.9810017 11.6920033
H -12.8640036 5.2250015 11.8720033
H -12.8070036 6.7470019 11.4460032
O 9.2770026 -12.9260036 -4.6940013
H 8.6780024 -12.5130035 -5.3030015
H 8.9000025 -13.7660039 -4.7150013
O 3.3390009 -9.7610027 12.7000036
H 4.0020011 -10.1450028 12.1090034
H 3.9620011 -9.2610026 13.2640037
O 6.4110616 8.7650050 -3.6122297
H 5.6235052 8.4160152 -4.0913848
H 7.1154997 8.1523518 -3.9305179
O 7.9660022 11.7810033 12.8410036
H 7.0690020 12.1630034 12.6700035
H 7.7870022 11.0550031 12.1820034
O -5.5158829 -8.2986944 -8.7085004
H -6.1094457 -7.5228436 -8.5919119
H -4.7858840 -8.0350265 -8.1065051
O -7.7626390 -9.0888316 5.5630319
H -7.9475048 -9.4771804 4.6806024
H -7.6236417 -9.9115446 6.0770050
O -4.3060012 12.6650035 -10.5150029
H -3.8570011 13.4720038 -10.1190028
H -5.2240015 12.9370036 -10.5240029
O -3.9043418 10.2096090 8.6361268
H -3.7814690 11.1513742 8.8764434
H -3.7651342 10.2687416 7.6713965
O 13.5740038 -8.3370023 7.2710020
H 12.9980036 -8.9180025 6.6880019
H 13.8640039 -8.9530025 7.9410022
O 10.6730030 7.5020021 8.1240023
H 11.2130031 6.9390019 7.6040021
H 11.0630031 8.4060024 8.0900023
O -1.3464805 -9.0839572 -7.0643260
H -1.1407216 -8.9874145 -6.1147276
H -2.0897038 -8.4576109 -7.1598389
O -2.3170006 -8.9610025 11.2540031
H -1.4110004 -9.1560026 11.0030031
H -2.3860007 -9.5790027 12.0440034
O -4.1631021 8.0604279 -7.9600305
H -4.1187156 7.4538489 -8.7144243
H -3.6493978 7.5539190 -7.2911234
O -2.7196863 10.4305335 6.0916150
H -2.7845299 11.1433142 5.4122940
H -1.9782393 10.7715207 6.6235416
O 14.2380040 -6.1100017 10.3710029
H 15.0380042 -6.1350017 10.9100031
H 14.0000039 -5.1690014 10.2130029
O 12.2030034 9.8900028 8.5920024
H 12.4180035 10.1900029 7.6800021
H 13.0350036 9.5570027 9.0790025
O -5.3120015 -11.8790033 -6.7480019
H -5.0120014 -12.3440035 -7.4980021
H -5.9740017 -11.2950032 -7.1990020
O -5.7920016 -13.6140038 12.4840035
H -5.1840015 -13.4260038 11.7520033
H -5.4840015 -12.8670036 13.0970037
O -2.5934687 4.5326917 -4.2866027
H -3.2181412 4.0337634 -3.7142134
H -1.8284272 4.6138832 -3.6910682
O -4.8950014 8.4260024 10.5160029
H -4.5230013 8.9270025 9.7600027
H -5.3150015 9.0860025 11.0520031
O 9.9370028 -11.0980031 9.4260026
H 10.5550030 -11.8210033 9.4730027
H 9.1310026 -11.6300033 9.1330026
O 13.0860037 9.2060026 -9.4280026
H 12.9400036 8.9830025 -8.5150024
H 14.0260039 9.0670025 -9.4880027
O 11.9690033 8.7900025 11.8260033
H 12.3960035 8.0680023 11.4240032
H 12.4010035 8.7940025 12.6940036
O -12.5720035 -7.1800020 -7.9840022
H -13.3660037 -7.5500021 -7.5330021
H -12.1830034 -8.0230022 -8.3260023
O -14.1610040 8.7110024 8.0260022
H -14.2950040 9.1020025 8.9490025
H -13.3070037 8.2040023 8.0930023
O 9.1500026 -10.3610029 -10.8170030
H 8.2560023 -10.1020028 -10.4610029
H 9.7320027 -10.0960028 -10.1320028
O 2.7204019 -10.4703572 5.5057880
H 3.4074583 -10.0989544 6.1053675
H 3.2101640 -10.4891902 4.6593506
O 5.8713971 9.6057479 -8.0647194
H 5.7197348 8.6713076 -7.8149392
H 6.5179842 9.8658787 -7.3721467
O 3.5910010 10.6670030 8.9460025
H 3.0740009 11.3470032 9.3850026
H 3.2510009 9.9020028 9.4070026
O -10.7540030 -9.3790026 5.9810017
H -11.4240032 -9.1310026 6.6350019
H -10.0170028 -8.9930025 6.5080018
O -11.6120032 6.6380019 -9.8680028
H -10.9440031 7.2240020 -9.4600026
H -12.1320034 6.4380018 -9.0910025
O -13.4140038 8.3310023 4.5310013
H -14.2630040 8.8130025 4.4260012
H -12.8510036 9.0370025 4.8320014
O 6.1546692 -11.5627409 6.6246650
H 5.6388085 -10.7445264 6.8030778
H 6.2260017 -11.5017742 5.6532862
O 6.4226354 4.3936962 -9.9135126
H 6.0677350 4.2595476 -9.0157308
H 7.2985828 4.7862358 -9.6970866
O 4.2939973 6.5529613 7.1787660
H 4.6486088 7.4533148 7.0490643
H 3.6316208 6.7533267 7.8784048
