15
Exact ACS SI CASSCF/6-31G* geometry for TS25-26; DOI 10.1021/ja906679g
C        1.310363      -0.246844      -0.161608
C       -1.731860       0.370913       0.086749
C        2.496910      -0.021683       0.378346
C       -1.256232      -0.784776       0.915116
H       -2.733289       0.364260      -0.299361
H       -0.530753      -0.531975       1.672398
C       -0.698551      -1.274116      -0.361205
H       -2.056084      -1.387699       1.316151
H        2.787397       0.967335       0.665720
H       -1.325290      -1.869571      -0.998065
H        3.166509      -0.844553       0.543107
N        0.525910      -1.018622      -0.822230
O        0.342768       1.448819       0.046448
C       -0.870020       1.402261      -0.283874
H       -1.235675       2.167467      -0.957061
