16
VERBATIM 1,5-hexadiene chair-Cope transition structure, CASSCF(6,6)/6-31G*, scanned SI p. 13
C 0.000000 1.500890 0.000000
C 0.457052 0.996285 -1.221355
C -0.457052 -0.996285 -1.221355
C 0.000000 -1.500890 0.000000
C -0.457052 -0.996285 1.221355
C 0.457052 0.996285 1.221355
H -0.936433 2.036808 0.000000
H 0.064362 1.400729 -2.138802
H 1.467261 0.634200 -1.292106
H -0.064362 -1.400729 -2.138802
H -1.467261 -0.634200 -1.292106
H 0.936433 -2.036808 0.000000
H -1.467261 -0.634200 1.292106
H -0.064362 -1.400729 2.138802
H 1.467261 0.634200 1.292106
H 0.064362 1.400729 2.138802
