14
Exact ACS SI CASSCF/6-31G* geometry for 27; DOI 10.1021/ja906679g
H        1.848716      -2.413518      -0.091077
C        1.236603      -1.619598       0.297945
H        1.192226      -1.585658       1.373470
C        0.005742      -1.232806      -0.448675
C        1.245627      -0.305484      -0.428359
C        1.257970       0.959406       0.354953
H        1.802644      -0.243249      -1.346169
C       -1.253780      -0.920769       0.296311
H       -0.129870      -1.734841      -1.392576
O        1.772613       1.972462      -0.047670
H        0.783293       0.937877       1.335536
C       -1.991566       0.146605       0.046664
H       -1.660654      -1.623542       0.999386
O       -2.627604       1.089888      -0.151280
