10
Exact ACS SI CASSCF(6,6)/6-31G* geometry for 27; DOI 10.1021/jo0256991
C       1.0657161     -0.9989246      0.2311080
C       1.4680477      0.4293620      0.0599734
C      -1.0444924     -0.5077448     -0.4663451
C      -0.6208185      0.8258672     -0.2007525
H       1.8396166     -1.6817434      0.5371841
H       2.5176754      0.6609338      0.1074052
H      -1.7594276     -0.8092129     -1.2041974
N      -0.0869704     -1.4910157     -0.0654102
N       0.6468275      1.3888814     -0.1970883
N      -1.4915168      0.4494395      0.6252094
