21
Source-verbatim DFT/PBE0 optimized geometry from publisher ESI Table S13
C -0.036656437 -0.011168536 0.000000000
N 1.461172096 -0.085190263 0.000000000
C -0.600091423 1.255477208 0.000000000
H 0.078860998 2.097184922 0.000000000
C -0.820252827 -1.165062013 0.000000000
H -0.374008446 -2.150792934 0.000000000
C 1.902660633 -0.823255475 1.224644999
C 1.902660633 -0.823255475 -1.224644999
H 2.987720393 -0.842836186 1.186554999
H 2.987720393 -0.842836186 -1.186554999
H 1.565441152 -0.232248238 2.070079999
H 1.565441152 -0.232248238 -2.070079999
H 1.482032249 -1.827985477 1.250134999
H 1.482032249 -1.827985477 -1.250134999
C -2.796197618 0.231889690 0.000000000
H -3.873641962 0.326823551 0.000000000
C -2.209016602 -1.034934270 0.000000000
H -2.827754652 -1.922395465 0.000000000
C -1.991691568 1.371129598 0.000000000
H -2.444383357 2.353744908 0.000000000
O 2.042655548 1.145650154 0.000000000
