17
Exact ACS SI CASSCF/6-31G* geometry for 17; DOI 10.1021/ja906679g
C       -0.191705       0.831119      -0.349969
C       -1.122431       0.066291       0.528372
C       -2.319726      -0.334155       0.151758
H       -0.800876      -0.162205       1.531277
C       -3.518035      -0.718045      -0.233752
H       -3.674852      -1.675627      -0.698018
H       -4.379042      -0.088655      -0.093062
C        1.310604       0.478897      -0.468741
C        0.854911       1.722223       0.238045
H        0.939997       1.742308       1.312319
H        1.048311       2.672281      -0.227886
H        1.737153       0.599510      -1.448545
C        1.914054      -0.644216       0.289504
N        2.788317      -1.397080      -0.249347
H        1.582214      -0.781131       1.312707
H        3.099570      -2.102861       0.396765
H       -0.636730       1.163252      -1.271432
