17
Source-verbatim SI TS-6-2-n (R/U)B3LYP/6-31+G(d) geometry
C 1.47075 -1.12690 -0.71158
C 1.94031 0.01070 -0.02713
C 1.18018 1.12208 0.26242
C -0.28001 1.24783 -0.06779
C -1.14550 -0.00780 0.14883
C -2.38608 -0.03728 -0.44267
C -0.66277 -1.09664 0.90323
H 0.18189 -1.00862 1.57108
H -1.26276 -2.00040 0.97698
H -0.70834 2.07497 0.51310
H -0.40495 1.53818 -1.12521
H 2.95418 -0.02617 0.37307
H 0.61877 -1.09106 -1.37744
H 1.64773 1.95320 0.78534
H -2.74269 0.78396 -1.05942
H -3.06608 -0.87107 -0.28952
H 2.08101 -2.02500 -0.75984
