3329
4-thiothymidine S2-MIN; verbatim full 3329-atom QM/MM coordinates from ACS SI
N 0.7049220 -0.4158242 -0.9407517
C -0.2542187 -0.3728666 -1.8640605
C -0.3502677 0.6599034 -2.8344506
C 0.5272127 1.7005877 -2.6846429
N 1.5165375 1.6146632 -1.7189039
C 1.7387992 0.5291083 -0.9894458
C -2.2077578 -1.2297110 1.7214696
H -2.9064902 -1.3736879 0.8936108
H -2.7190898 -1.4917636 2.6508911
C -0.9840383 -2.1424282 1.5551088
H -1.3174296 -3.1517025 1.7909309
O -0.5217035 -2.1927338 0.1963444
C 0.7461715 -1.4567223 0.1409644
H 1.5357416 -2.2140305 -0.0605150
H -1.0124142 -1.1335139 -1.8606206
C -1.4077084 0.5912215 -3.8999785
H -1.9074032 1.5481089 -3.9916896
H -0.9789807 0.3182613 -4.8583582
H -2.1602883 -0.1416956 -3.6513176
H 2.0040899 2.5186250 -1.4327916
O 2.7941692 0.3244589 -0.3999810
C 0.1815338 -1.7504911 2.4401882
H -0.1327241 -1.1783315 3.3158249
C 1.0263507 -0.9058856 1.5211863
H 0.6320988 0.1138363 1.5712750
O 0.8462007 -2.9379755 2.9403021
O 2.4320453 -0.8145429 1.8831304
H 2.8024691 -0.4148068 1.0416890
H 1.0454092 -3.5172431 2.1677610
O -1.9172102 0.1697156 1.8022940
H -2.7038482 0.5539215 2.2636585
S 0.6213874 3.0527174 -3.7744455
O -13.2220037 2.3610007 -3.2990009
H -13.2790037 2.6980008 -4.1580012
H -14.1220040 2.0690006 -3.0750009
O 1.2560004 -15.7570044 -1.4500004
H 0.9160003 -15.7940044 -2.3930007
H 0.5620002 -15.1610042 -1.1050003
O 4.4196152 -3.2340636 0.1677210
H 4.7713012 -3.0806848 -0.7345208
H 4.0851921 -4.1361352 0.0574479
O 3.0790009 2.5840007 16.4080046
H 3.6480010 3.3420009 16.1760045
H 2.2090006 2.9160008 16.3270046
O 1.8570005 19.4680054 -2.9100008
H 1.0590003 18.9360053 -2.9230008
H 2.5190007 18.9570053 -3.4510010
O -15.6390044 0.8660002 -2.5550007
H -16.3330046 0.5060001 -2.0000006
H -16.2250045 0.9490003 -3.3350009
O 3.5110010 -14.7870041 0.0920000
H 2.7030008 -15.1600042 0.4820001
H 3.3340009 -15.1010042 -0.8120002
O 2.2820006 0.2210001 -19.1820054
H 2.3510007 0.7400002 -18.3970051
H 2.0940006 -0.7160002 -18.8820053
O -8.0660023 -16.6670047 1.8350005
H -8.3200023 -17.4640049 1.3500004
H -8.0450023 -15.9360045 1.1740003
O -6.9151521 3.2672838 2.0868528
H -7.1836254 4.0353081 1.5444486
H -6.6995588 3.7216045 2.9227151
O 11.1889919 -0.2566522 0.8619231
H 11.6727689 -0.7377515 1.5722566
H 11.2217808 0.6434589 1.2103643
O -14.4160040 3.3100009 -0.3490001
H -13.4700038 3.5680010 -0.3200001
H -14.8050041 3.4420010 -1.2650004
O 7.3190020 -14.5080041 -1.1390003
H 6.8100019 -14.4100040 -0.3040001
H 7.2660020 -13.5580038 -1.5450004
O 7.9200022 0.9820003 -17.6480049
H 8.0760023 0.0290000 -17.4910049
H 8.8040025 1.3000004 -17.3330049
O 2.3734403 3.9018921 -0.9328141
H 2.8225922 4.2474694 -0.1241779
H 1.9125489 4.7269037 -1.2189195
O 0.9832085 0.3606583 11.3247786
H 0.0972255 0.3713156 11.7359876
H 0.8779773 1.0872046 10.6634585
O -2.3940007 -14.7170041 -1.4440004
H -1.8350005 -15.4330043 -1.8090005
H -1.7480005 -14.1310040 -0.9410003
O -3.6560010 5.1860015 -17.6390049
H -3.6850010 4.3930012 -18.2250051
H -3.7500010 4.9520014 -16.7040047
O -6.3699564 1.9217762 -1.2061797
H -5.8609257 2.6772419 -0.8454811
H -6.2209462 1.2675652 -0.4890160
O 10.8570030 -15.2270043 -2.7490008
H 11.7160033 -15.1520042 -2.2770006
H 10.9020031 -14.5920041 -3.4690010
O 13.3630037 3.8550011 1.6850005
H 13.4890038 2.9280008 2.1630006
H 14.2750040 4.1680012 1.5700004
O -9.1840866 -1.7334525 -5.3407748
H -8.5625496 -1.3269230 -5.9841440
H -9.9534719 -1.8642777 -5.9398074
O -8.9420025 -5.9920017 12.3410035
H -8.6070024 -5.6600016 13.2350037
H -8.5070024 -5.3400015 11.7390033
O 9.7635189 -3.4060758 -5.0067945
H 10.6022509 -3.9004732 -4.9166091
H 9.8278918 -3.1479754 -5.9533950
O 9.7860027 0.1920001 14.5570041
H 8.8640025 0.3450001 15.0050042
H 9.7020027 0.9100003 13.8840039
O -4.5520013 0.3510001 -18.6490052
H -4.7830013 -0.5720002 -18.8840053
H -3.6500010 0.4980001 -19.0090053
O -8.8923140 1.8701886 0.8183156
H -8.1727455 2.2836205 1.3408131
H -8.7501333 0.9277045 1.0011270
O 8.5450024 -1.4890004 -16.5020046
H 9.2190026 -2.2050006 -16.6950047
H 8.2660023 -1.7790005 -15.5900044
O 10.8374309 0.4575264 -1.9017739
H 10.2829664 -0.2491145 -2.2948981
H 10.9516908 0.1421116 -0.9845063
O -18.7610053 -6.3820018 -1.4570004
H -18.3970051 -7.2910020 -1.4930004
H -18.0480051 -5.8470016 -0.9820003
O -11.7106776 4.2114058 -0.6082089
H -11.5087051 3.2547386 -0.5014441
H -11.4109182 4.3422819 -1.5279404
O 1.0927625 -10.5342781 0.1544784
H 0.6837812 -11.1048910 0.8431291
H 1.3580987 -11.1916569 -0.5134433
O 0.7350996 5.4736554 2.3321443
H 0.2069755 5.3183413 1.5187002
H 1.6506475 5.3889324 1.9825498
O 0.6400002 6.1370017 17.3010048
H 0.3720001 6.3830018 18.1220051
H 1.4950004 5.7600016 17.5540049
O -16.8320047 3.3460009 1.1310003
H -17.4500049 3.7350010 0.5020001
H -16.0480045 3.2180009 0.5580002
O 1.8020005 -18.0550051 1.7210005
H 2.0870006 -17.7560050 2.5900007
H 1.6380005 -19.0430053 1.9460005
O 0.1790001 3.1610009 -17.0310048
H 0.0250000 4.0810011 -17.4470049
H 0.7140002 3.4640010 -16.2400045
O -0.9926408 4.8599440 0.2066678
H -1.2276461 3.9048064 0.1422305
H -1.8756810 5.2753266 0.1224501
O 17.7410050 1.7230005 -1.9780006
H 18.3480051 1.1930003 -2.4890007
H 17.0520048 1.1080003 -1.7660005
O -6.5590018 -6.9800020 -12.4030035
H -5.9000017 -6.2920018 -12.4010035
H -6.2540018 -7.6100021 -13.1090037
O -7.7778011 -5.0801319 3.0413561
H -7.3779253 -4.3154281 3.5041786
H -8.3140916 -4.6075930 2.3684751
O -6.9880020 11.7150033 -13.8220039
H -6.9770020 12.4740035 -13.3070037
H -6.1750017 11.7680033 -14.2810040
O -7.5300021 16.3790046 -0.7660002
H -6.8580019 15.8030044 -0.3520001
H -7.4810021 15.8290044 -1.6200005
O 9.3866941 -6.6862209 1.9821764
H 10.2560026 -7.0419332 2.2477254
H 9.2202359 -6.0440094 2.7035998
O 10.9890031 12.2640034 -1.2580004
H 10.7160030 13.1540037 -0.9770003
H 10.6630030 12.2160034 -2.1780006
O -15.0590042 -3.7000010 -1.5480004
H -15.7440044 -3.6270010 -2.2360006
H -15.0710042 -2.6890008 -1.2730004
O 2.2470006 -2.2720006 -18.1530051
H 1.8080005 -3.1660009 -17.9430050
H 2.9350008 -2.5990007 -18.7430052
O 3.2468263 -6.4375339 1.9910645
H 2.9849736 -7.3794012 1.9755719
H 2.4037957 -6.0006735 1.7446900
O -0.0380000 -4.3410012 17.5470049
H 0.2170001 -4.4020012 16.6370047
H -0.8050002 -4.9430014 17.6360049
O 3.5720010 17.8050050 -4.1120012
H 4.5470013 17.7970050 -4.1570012
H 3.4240010 16.9230047 -3.6500010
O -2.7680008 -5.8890016 -17.9160050
H -1.9280005 -5.6120016 -18.3510051
H -2.7260008 -6.8960019 -18.0800051
O -5.4493367 -6.6720509 -1.4570132
H -5.7454344 -6.8938698 -2.3627911
H -5.7964477 -7.4703773 -1.0045718
O -7.7830022 -4.7940013 14.3360040
H -7.4310021 -4.8730014 15.2010043
H -7.2610020 -3.9900011 14.1550040
O -3.8890011 15.0050042 -2.1220006
H -4.1890012 15.9380045 -2.2300006
H -4.2450012 14.5910041 -2.8410008
O 15.2830043 -2.7450008 -4.4390012
H 15.8410044 -1.9120005 -4.3270012
H 14.4610040 -2.5930007 -3.9380011
O -14.7820041 -7.0280020 -2.1460006
H -14.5000041 -6.6220019 -1.3420004
H -14.0330039 -7.5740021 -2.2810006
O -13.0630037 13.3900037 -2.9660008
H -12.4810035 12.9610036 -3.6420010
H -13.2990037 14.1460040 -3.5320010
O 4.4388601 -5.4825716 -1.7763518
H 5.2526838 -5.4846408 -1.2280805
H 4.7139132 -6.0572641 -2.5176275
O 2.8160008 -1.7670005 16.3250046
H 2.9320008 -2.1720006 17.2220048
H 3.2180009 -2.3680007 15.6650044
O 6.1610017 17.4020049 -3.8660011
H 6.4530018 16.6980047 -3.2620009
H 6.3600018 17.0880048 -4.7370013
O -4.9510014 -2.3400007 -18.9020053
H -5.3340015 -3.1830009 -18.9740053
H -4.4070012 -2.4870007 -18.1140051
O -8.3951310 -0.9746993 1.1804495
H -8.2195947 -0.7603697 2.1222379
H -7.5812368 -1.4814516 0.9755304
O -4.1510012 19.0830053 0.4430001
H -3.8220011 19.3080054 -0.4300001
H -5.1130014 19.2780054 0.3800001
O 12.7100036 0.2510001 -4.0510011
H 12.5370035 -0.7410002 -3.7980011
H 12.0320034 0.6590002 -3.5060010
O -2.2080006 -18.0080050 -0.3020001
H -2.7660008 -18.8190053 -0.1540000
H -2.2990006 -17.7980050 -1.3060004
O -3.7221766 -2.2885191 -1.5247427
H -3.6843125 -3.1041879 -0.9799324
H -4.6137264 -2.3932090 -1.9291238
O -7.1420020 -1.3160004 17.3150048
H -6.4210018 -1.6400005 16.8060047
H -7.8430022 -1.1380003 16.5990046
O 18.1500051 -2.2520006 -1.7830005
H 18.9000053 -1.7270005 -1.6350005
H 17.9500050 -1.8280005 -2.6090007
O -7.7920022 -4.1490012 -12.5320035
H -7.8490022 -3.5440010 -13.2920037
H -8.6080024 -4.8160013 -12.6390035
O -9.8230385 -2.5421018 6.5725151
H -10.2868974 -1.7586144 6.2139647
H -10.5901026 -3.0639660 6.8844354
O -9.5630027 13.9430039 2.8650008
H -10.2170029 14.7090041 2.9770008
H -9.9800028 13.2980037 3.4970010
O 9.0130025 -4.6630013 -13.2630037
H 8.4100024 -4.7070013 -14.0780039
H 8.6090024 -5.3950015 -12.7530036
O 9.5494526 -5.1233928 4.2547787
H 8.9814784 -4.6479302 4.8944992
H 9.7537787 -5.9265783 4.7657230
O 8.8020025 16.7050047 4.7590013
H 7.8470022 16.7150047 4.4780013
H 8.9110025 15.7470044 4.8090013
O -3.5270010 -3.7980011 -14.1270040
H -2.6640007 -4.3430012 -14.1830040
H -4.0620011 -4.3400012 -13.5190038
O -4.9061193 -6.5702928 4.1389112
H -4.8990884 -5.6628285 3.7731264
H -5.3352489 -6.4643721 5.0085723
O -7.1440020 13.9400039 1.8020005
H -7.4750021 13.3210037 1.1560003
H -7.9300022 13.9510039 2.4060007
O 13.7900039 -5.3760015 -2.4890007
H 13.2940037 -5.6660016 -1.6650005
H 14.6620041 -5.1250014 -2.1140006
O 14.0230039 13.0250036 0.8850002
H 14.7370041 13.4770038 0.4480001
H 13.9180039 13.6090038 1.6030004
O -15.9460045 4.4580012 -2.4050007
H -16.4020046 3.9350011 -3.1320009
H -15.1900043 4.9850014 -2.7210008
O 2.2180006 -16.9780048 -5.1200014
H 1.8810005 -17.1470048 -6.0190017
H 2.2420006 -17.8190050 -4.6700013
O -0.0560000 -13.6800038 12.4980035
H 0.0220000 -14.4210040 13.1220037
H 0.8500002 -13.2740037 12.7570036
O -0.0374253 3.6399270 12.6703190
H 0.1425510 4.3858403 13.2838964
H -0.9932353 3.5001991 12.7673823
O -18.5520052 2.9300008 3.7940011
H -17.9840050 3.1780009 3.0810009
H -18.0630051 2.1400006 4.1940012
O -4.8240014 -16.7640047 0.4300001
H -4.8370014 -16.2180045 1.2170003
H -4.0400011 -16.4990046 -0.0160000
O -1.8070005 1.5020004 -17.4900049
H -2.0570006 1.2400003 -16.5590046
H -1.0580003 2.1260006 -17.4290049
O -2.5110007 19.0510053 2.6990008
H -3.1350009 19.1360054 1.8620005
H -3.0680009 19.3230054 3.4840010
O 16.4920046 3.9830011 3.3480009
H 17.3590049 3.7670011 2.8630008
H 16.4560046 4.8620014 2.8930008
O -14.8940042 -5.6620016 0.6570002
H -15.1510042 -4.9500014 0.0880000
H -14.7850041 -5.1440014 1.5240004
O 6.6341830 -5.5541729 -0.1473763
H 6.6245293 -5.1089920 0.7331749
H 7.5447322 -5.3239700 -0.4168692
O -5.2010015 -4.9240014 -18.4350052
H -5.4200015 -4.8350014 -17.5020049
H -4.4080012 -5.4010015 -18.3160051
O -6.0831750 -2.5118164 1.0237586
H -5.5675455 -3.0667884 1.6446537
H -6.4210678 -3.2229098 0.4258302
O -3.0720009 14.7530041 0.9880003
H -3.0890009 13.8330039 0.7280002
H -3.0300008 15.1750042 0.1050000
O 13.4170038 -2.4810007 -0.9530003
H 13.3060037 -3.3940009 -0.5410002
H 13.4510038 -1.9040005 -0.1890001
O -5.7220016 -15.3570043 2.6700007
H -6.0890017 -14.4810041 2.6190007
H -6.4090018 -15.8680044 2.2550006
O -4.2250012 5.3950015 -15.0470042
H -4.6400013 4.6080013 -14.5650041
H -3.2600009 5.2460015 -14.8950042
O -3.7651233 3.8644656 2.4007619
H -2.8350945 3.7720880 2.7012511
H -3.9940624 4.7348794 2.7921586
O 11.8810033 -14.1840040 2.1090006
H 11.3470032 -14.9260042 2.4310007
H 12.7990036 -14.5440041 2.0890006
O 16.6280047 8.2530023 3.2120009
H 17.4000049 7.7030022 3.2600009
H 17.1360048 9.0680025 3.3800009
O -6.3548024 3.3049042 -4.5097703
H -5.6004926 3.1569161 -3.9138694
H -6.0065131 3.9784334 -5.1232858
O -9.5660027 6.5370018 12.7180036
H -9.0680025 7.1420020 12.0870034
H -10.4390029 6.5470018 12.2640034
O 12.9370036 -13.8750039 -4.1800012
H 13.7530038 -13.9040039 -3.6610010
H 12.8400036 -12.8940036 -4.3910012
O 10.8930275 2.9703294 -2.9682555
H 11.5836089 3.2163842 -2.3175202
H 10.6642391 2.0830017 -2.6154622
O 7.2780020 3.6230010 15.3510043
H 7.1360020 3.9330011 16.2500045
H 6.9940020 2.6930008 15.4460043
O -14.5390041 -10.2520029 -0.3070001
H -14.8730042 -9.5330027 0.2280001
H -14.9120042 -10.9050031 0.3420001
O -9.7016914 6.0985013 3.7097767
H -10.2625695 6.0245500 2.9064384
H -9.0009246 6.6801406 3.3660516
O 7.7580022 -14.8240041 2.3460007
H 7.1890020 -15.5800044 2.3960007
H 7.0310020 -14.1660040 1.9950006
O 5.8006984 7.1179569 -1.3900294
H 4.8919149 7.2282956 -1.0321140
H 5.7034908 7.5322457 -2.2583607
O -10.9992300 -5.6046657 2.8536157
H -10.5148904 -4.8940479 2.3881979
H -10.3154122 -5.9513285 3.4567449
O -10.3060029 13.4760038 -0.2670001
H -10.6470030 14.0130039 0.4880001
H -9.7410027 12.7630036 0.1930001
O 7.1972871 -8.3926932 2.6868875
H 6.7236086 -8.3357130 1.8326722
H 8.0553474 -8.0002156 2.4288512
O 9.0340025 14.7620041 1.9870006
H 9.9980028 14.9100042 1.8300005
H 9.0750025 14.2920040 2.8740008
O -17.4190049 7.3950021 -0.0480000
H -16.8920047 7.8060022 -0.7210002
H -18.1870051 8.0560023 -0.0930000
O -0.4460001 -9.1550026 -17.4820049
H -0.4360001 -9.8370028 -16.7780047
H -1.3430004 -8.9670025 -17.6490049
O -1.1724662 -8.0894492 1.3598211
H -1.5518053 -7.1861700 1.4100531
H -0.5290009 -8.0279401 2.0954248
O -3.0990009 -9.1880026 16.4430046
H -3.7470010 -8.6730024 15.9640045
H -2.2920006 -9.1510026 15.8820044
O 1.5210004 14.0460039 0.0620000
H 2.4390007 13.8720039 0.3370001
H 1.1920003 14.4860041 0.8540002
O 15.3060043 -8.2090023 2.8280008
H 15.6150044 -9.1660026 2.8620008
H 15.4000043 -7.9880022 3.7690011
O 15.4460043 10.7520030 -0.1100000
H 16.0220045 11.1870031 0.5030001
H 14.6660041 11.3470032 -0.0430000
O -13.5510038 7.8710022 -5.9490017
H -12.6470035 7.4420021 -5.7960016
H -14.0260039 7.0720020 -6.3110018
O 3.4380010 -12.9130036 -4.9810014
H 4.2160012 -13.3870037 -4.6520013
H 3.4340010 -12.1870034 -4.3000012
O 1.6960005 -10.7140030 16.5440046
H 2.3710007 -10.5890030 15.8370044
H 1.9250005 -9.9760028 17.1230048
O 3.8679206 3.3929625 -3.6880955
H 2.9159381 3.2637473 -3.8310209
H 3.8756685 4.3600939 -3.5713953
O 0.6620002 5.4570015 14.6310041
H 1.4770004 6.0670017 14.6520041
H 0.5090001 5.4470015 15.5530044
O -10.9150031 -11.3250032 -0.5910002
H -11.3450032 -12.0570034 -0.9550003
H -11.1880031 -11.3930032 0.3100001
O -11.6621828 1.4888319 -0.6805149
H -11.9495352 1.1295876 0.1884258
H -12.4077654 1.2732280 -1.2600043
O 5.5280015 -14.0410039 -3.8830011
H 5.9610017 -13.2910037 -3.4380010
H 5.2830015 -14.5600041 -3.0940009
O 2.1830006 -12.2310034 12.2510034
H 2.5070007 -11.2960032 12.5190035
H 3.0830009 -12.6880036 12.2720034
O 2.2020006 5.3150015 -17.7290050
H 1.4090004 5.6970016 -18.1560051
H 2.3190006 5.9390017 -16.9560047
O 6.0506779 1.6779852 -2.9043047
H 5.4168472 0.9415257 -2.7644442
H 5.4304430 2.4136678 -3.0558453
O 4.6650013 4.5740013 15.3250043
H 5.4230015 4.8110013 15.8730044
H 4.0990011 5.3860015 15.2970043
O -13.1250037 -12.7670036 3.7570011
H -13.6670038 -12.7800036 4.5140013
H -12.2870034 -13.2400037 4.1270012
O -8.0230022 0.5440002 -16.5310046
H -8.2080023 -0.4560001 -16.4490046
H -8.2920023 0.6250002 -17.4190049
O -12.9070036 5.7040016 4.3420012
H -13.0100036 6.6160019 4.6610013
H -13.0750037 5.7980016 3.3940009
O 7.8080022 2.5930007 -13.0480037
H 7.4150021 1.9830006 -13.7350038
H 7.7250022 3.4740010 -13.4160038
O 3.9906036 4.5188147 5.2607484
H 3.0221398 4.5929316 5.1494479
H 4.1390453 5.2683081 5.8743023
O -17.4810049 3.1720009 -4.0950011
H -17.2990048 2.4780007 -4.7910013
H -18.3520051 2.9010008 -3.7370010
O -0.6370002 -19.4900055 -4.3850012
H -1.4890004 -19.3230054 -3.9520011
H -0.5220001 -18.6040052 -4.8050013
O 2.5823635 -0.0061117 -4.7987737
H 3.1379459 -0.0895991 -3.9908616
H 2.5104846 -0.9571635 -5.0382081
O -0.5288367 -2.3883782 12.3562413
H 0.0240309 -2.3182198 13.1589294
H -1.0099716 -1.5450553 12.3988920
O 15.1860043 -1.0580003 9.8340028
H 15.0100042 -0.7410002 8.9340025
H 14.6470041 -0.5070001 10.4560029
O -15.3760043 -1.4580004 -10.2100029
H -14.9430042 -0.5990002 -10.3270029
H -14.7790041 -1.7550005 -9.5160027
O 5.5773434 0.6035643 -8.0130154
H 5.2185592 0.9105583 -7.1541172
H 6.0687233 -0.1952843 -7.7295042
O -0.0973286 -3.7932945 10.1042685
H 0.2653666 -3.1413718 9.4745281
H -0.1746239 -3.2459364 10.9229908
O -10.3881959 2.1037062 6.4908608
H -9.7564354 2.6122628 5.9374935
H -10.4828335 2.6725088 7.2821686
O 5.7860016 1.3240004 -14.8120041
H 5.1400014 2.0170006 -15.1040042
H 6.3240018 1.3390004 -15.5550044
O 8.3281736 2.7247430 1.8808592
H 8.0876165 2.1774597 1.0972056
H 7.5044634 3.2271886 1.9902312
O -9.2720983 0.6242575 -3.9667717
H -9.4673144 0.4009636 -3.0254603
H -9.3542431 -0.2610215 -4.3779380
O 4.1809504 -0.3041968 -2.5504806
H 4.6028398 -1.1851671 -2.4417245
H 3.8200277 -0.1522683 -1.6331476
O 2.6438192 0.4317722 13.4915492
H 3.3011480 1.1506649 13.5724073
H 2.2262125 0.6315079 12.6270663
O -11.1510031 -0.3150001 -14.0320039
H -11.2490031 0.4060001 -14.6780041
H -11.9410033 -0.8500002 -14.3040040
O -14.8860042 0.1630000 2.9420008
H -15.8530044 0.1200000 3.1370009
H -14.4940041 -0.3660001 3.6630010
O 3.1910009 -16.4360046 4.5060013
H 3.4040010 -17.3870049 4.5080013
H 2.3860007 -16.3830046 5.0600014
O 5.2320015 -3.3520009 -14.8320042
H 5.0230014 -2.4060007 -14.7610041
H 4.4230012 -3.8390011 -14.6980041
O 4.7175754 -1.9705904 5.3970887
H 5.2569343 -1.2820102 4.9525775
H 4.3641687 -2.4102840 4.5955865
O -2.9520008 -17.9980050 -3.3370009
H -3.9040011 -18.0270050 -3.5310010
H -2.7520008 -17.1140048 -3.6600010
O -3.5148804 0.4921875 -1.3441436
H -3.5256685 -0.4756829 -1.4957074
H -4.1852599 0.5162271 -0.6261021
O 15.2030043 0.2980001 -5.2660015
H 14.8930042 0.5390002 -6.1010017
H 14.3110040 0.1440000 -4.8250014
O 12.3990035 -0.6230002 14.9750042
H 11.4190032 -0.3930001 14.9410042
H 12.4560035 -1.4670004 14.4680040
O -0.1460000 -13.7020038 -0.3430001
H 0.3940001 -13.1370037 -0.9680003
H 0.1420000 -13.2930037 0.4610001
O -1.2270003 6.6530019 -15.5920044
H -0.7210002 6.2200017 -14.9090042
H -0.9150003 7.5990021 -15.4790043
O -0.6280897 8.0351487 2.6967749
H 0.0511003 8.7206316 2.8794245
H -0.0924086 7.2211543 2.6641456
O 14.9960042 -8.3460023 -2.4940007
H 14.3790040 -9.1540026 -2.5750007
H 14.8970042 -8.1580023 -1.5010004
O 16.4060046 3.9830011 -1.4080004
H 15.6720044 3.7760011 -1.9390005
H 16.8300047 3.0720009 -1.4430004
O -5.4520015 0.8830002 -15.7750044
H -6.3210018 0.7800002 -16.1870045
H -5.0180014 0.5610002 -16.6070046
O 15.2660043 -0.4270001 -1.3780004
H 14.6800041 -1.1510003 -1.6490005
H 15.2620043 -0.4920001 -0.3600001
O -15.6860044 -8.2440023 1.4930004
H -15.3520043 -7.5590021 0.9070003
H -16.6100046 -7.9390022 1.7500005
O -13.2690037 9.3680026 0.8700002
H -14.2360040 9.4020026 0.9040003
H -13.1410037 8.4720024 0.6320002
O 0.1221232 -12.3418997 1.9975176
H -0.6733198 -12.8435709 2.2706677
H 0.6334860 -12.3722683 2.8344819
O 2.7280008 6.8740019 -15.5300043
H 3.7220010 6.9520019 -15.5790044
H 2.4020007 7.6210021 -14.9180042
O 4.5408389 1.7328829 0.8143201
H 5.1357115 0.9578016 0.8433126
H 3.7998528 1.2678664 0.3288997
O 18.1660051 5.8390016 -2.2490006
H 18.1290051 6.4940018 -1.4960004
H 17.6840049 5.0560014 -1.8200005
O -3.7130010 -15.7530044 -10.3330029
H -3.1880009 -16.1640045 -11.0710031
H -3.1930009 -16.0270045 -9.5500027
O -3.8460011 -16.0270045 4.6380013
H -4.4780013 -16.3200046 5.3410015
H -4.5150013 -15.5820044 3.9800011
O -2.1500059 0.5300225 -11.3815716
H -1.3194027 0.7844363 -10.9258964
H -2.3988962 1.3711192 -11.8181974
O -2.3472597 2.2691399 7.1612085
H -2.8527265 3.0172872 6.7840551
H -1.7946880 1.9871334 6.4002202
O -0.2950001 18.6790052 4.3190012
H -0.6480002 18.4000051 5.1700014
H -1.1730003 18.7250052 3.7710011
O 15.3150043 3.2070009 5.6350016
H 15.7300044 3.2660009 4.7690013
H 14.6130041 2.6240007 5.3120015
O -12.3620035 0.5440002 -7.8660022
H -13.3290037 0.8050002 -7.8110022
H -12.0380034 1.2490003 -7.2880020
O -15.5090043 -0.7790002 11.4150032
H -15.3490043 -1.4120004 10.7110030
H -15.0710042 -1.1920003 12.2390034
O 7.2335835 -1.3027362 -6.8288314
H 8.0746752 -1.7184507 -7.0928634
H 7.5178953 -0.7272125 -6.0872087
O 0.6296470 2.3868966 9.5990315
H -0.1879170 2.9194992 9.6313156
H 1.0770230 2.7723936 8.8228801
O -2.9588007 1.2859838 -14.6335391
H -3.8705219 1.2486500 -14.9903871
H -3.0572668 1.9182907 -13.8961172
O -6.6628888 4.9883588 4.2726533
H -5.7841341 5.3770213 4.0827333
H -6.8747420 5.4488408 5.1097423
O -4.3990012 16.5470046 5.4800015
H -4.5430013 16.0690045 4.6210013
H -5.3920015 16.6770047 5.6990016
O 9.8054388 1.8980860 4.2017622
H 9.4074683 2.5054081 4.8600133
H 9.3543379 2.1775141 3.3800695
O -13.6570038 5.6980016 -3.5030010
H -12.9960036 6.3340018 -3.7740011
H -13.9460039 5.2900015 -4.3330012
O 1.4660004 -12.3200034 -1.9990006
H 1.0270003 -11.8670033 -2.7730008
H 2.4040007 -12.0420034 -2.1590006
O 3.3580782 7.6122788 -0.3034836
H 2.7666895 7.9777405 -0.9981123
H 3.2849379 8.3226725 0.3719898
O -1.0910003 7.8050022 15.6270044
H -0.4980001 7.2150020 16.1290045
H -0.5700002 8.0020022 14.8010041
O -3.3280009 -11.7420033 -13.2320037
H -3.1460009 -11.4460032 -12.3520035
H -3.4140010 -10.8770030 -13.7060038
O -5.9520017 -13.6930038 6.5220018
H -6.3660018 -12.7940036 6.3720018
H -6.7990019 -14.2520040 6.6080018
O -3.2200275 2.9155034 -12.3065970
H -2.6794662 3.7311687 -12.2049826
H -4.0240055 3.1883502 -11.8189537
O -3.8655368 4.4939735 6.5453160
H -4.6496808 3.9056837 6.4308151
H -4.2404419 5.1474718 7.1713344
O 14.1310040 5.9080017 -11.9960034
H 14.2920040 5.9910017 -11.0520031
H 13.4300038 5.2050015 -12.0440034
O 14.1570040 7.5580021 3.9630011
H 14.5940041 6.9160019 4.5260013
H 14.9370042 7.9000022 3.5040010
O -12.2070034 -10.7100030 -6.8700019
H -11.5750032 -11.4460032 -6.7060019
H -11.9490033 -10.0620028 -6.1740017
O -12.7310036 -11.2510031 7.6670021
H -13.3770037 -11.3480032 8.3710023
H -12.3880035 -10.3550029 7.9180022
O -8.1370023 10.1770028 -2.6820008
H -7.4000021 10.6770030 -3.0430009
H -8.6900024 11.0070031 -2.5310007
O 5.6020016 -11.0070031 -8.4050024
H 4.7170013 -11.4730032 -8.2520023
H 5.5260015 -10.6520030 -9.2830026
O 6.1838441 -5.9589790 9.7105446
H 5.4409012 -5.4485353 9.3343019
H 5.8951174 -6.8605979 9.5115126
O 7.2970635 10.6003959 -6.3236389
H 7.0230073 10.1688721 -5.4879944
H 8.1807418 10.9185670 -6.0457101
O 5.7160016 13.2040037 12.0880034
H 4.9180014 13.4300038 12.6230035
H 5.2740015 12.9030036 11.2440031
O -3.6799916 -1.7405377 -5.4755865
H -4.4268928 -1.1404738 -5.6711238
H -3.3150509 -1.9001083 -6.3657384
O -4.5940013 1.8110005 14.8890042
H -4.2610012 1.2970004 15.6630044
H -5.3440015 2.3450007 15.1810042
O 15.6680044 0.4620001 -8.5420024
H 15.6040044 -0.4250001 -8.9570025
H 15.1020042 1.0870003 -9.0310025
O 11.6590033 2.6950008 11.8360033
H 10.7470030 2.3800007 12.1020034
H 11.7810033 3.2680009 12.5980035
O -10.3930029 -13.1260037 -6.5510018
H -9.7610027 -13.4480038 -5.8340016
H -9.9820028 -13.3590037 -7.4090021
O -10.9890031 -11.8530033 10.6610030
H -11.7020033 -12.4180035 10.2330029
H -11.5280032 -11.1860031 11.2030031
O -10.0010028 8.0530023 -8.0560023
H -9.8620028 7.6750021 -7.2150020
H -9.1740026 8.4140024 -8.1720023
O -12.9030036 5.0150014 7.0770020
H -12.8850036 5.1970015 6.1150017
H -13.6990038 5.3540015 7.4210021
O 11.5190032 -12.6940036 -8.2620023
H 10.8850030 -13.1220037 -7.7420022
H 10.9010031 -11.9900034 -8.5940024
O 6.6470019 -9.5540027 11.6620033
H 6.6750019 -10.2250029 12.4160035
H 7.6260021 -9.5820027 11.4440032
O 8.7114486 5.4994052 -8.8613298
H 9.2394120 6.3194906 -8.8666075
H 8.3742273 5.5188389 -7.9494618
O 8.2085140 6.2231955 7.8003422
H 8.1823043 6.1423572 6.8246961
H 9.1204126 6.5577271 7.9347249
O -8.8730025 -15.2040043 4.0870011
H -8.8990025 -14.3900040 3.5520010
H -8.6300024 -15.8630044 3.4230010
O -7.1794507 6.4266798 6.6362081
H -7.0895701 7.3276818 7.0195719
H -6.5441856 5.9685364 7.2215659
O 11.2520031 4.1300012 -15.6760044
H 10.5260029 4.6500013 -16.0550045
H 11.0990031 3.2770009 -16.1750045
O 9.9522310 4.2914708 0.2645952
H 9.1474412 4.5550133 -0.2255875
H 9.5470560 3.6892459 0.9216972
O -8.6640024 -9.5580027 -14.7320041
H -7.7770022 -9.9310028 -14.5880041
H -8.5040024 -8.6110024 -14.8890042
O -8.7700025 -12.6810035 3.0200008
H -7.8520022 -12.4880035 2.7990008
H -8.9810025 -11.7750033 3.1840009
O -5.8050016 6.9870020 -17.7680050
H -5.1110014 6.3140018 -17.8590050
H -5.2790015 7.7730022 -17.5660049
O -4.5571222 3.8192585 -0.2633877
H -4.1791116 4.7231068 -0.2907658
H -4.4433324 3.6459241 0.6963668
O 8.6020024 -16.7130047 -1.8570005
H 9.2420026 -16.0780045 -2.3150006
H 8.0480023 -16.0750045 -1.4410004
O 7.3950021 4.6560013 -14.5760041
H 8.0500023 5.0610014 -15.2450043
H 6.5860018 5.0650014 -14.9680042
O 11.6041625 7.1434209 -1.6817298
H 12.0851983 7.9433458 -1.3654745
H 10.7260277 7.4049541 -1.3394912
O -10.3120029 -11.9100033 6.3330018
H -11.1180031 -11.9670033 6.8060019
H -10.3590029 -10.9730031 6.0470017
O -8.7850025 5.0080014 -13.4550038
H -8.7190024 4.3340012 -14.1980040
H -8.9020025 5.8580016 -13.8040039
O -9.9060028 9.5040027 5.7030016
H -10.8300030 9.7960027 5.8150016
H -10.1180028 8.5080024 5.9710017
O 7.9020022 -12.7240036 8.5810024
H 7.8950022 -13.6060038 8.1620023
H 7.2710020 -12.2310034 8.0330022
O 9.9870028 5.2490015 -11.6770033
H 9.6680027 4.7340013 -10.9250031
H 9.3150026 5.9700017 -11.7230033
O 7.9535489 5.7926845 5.0660717
H 8.5006473 6.1938537 4.3535821
H 7.0753968 5.8479290 4.6702105
O 0.1590000 -13.2930037 -14.1310040
H 0.3560001 -12.4260035 -13.7110038
H -0.3970001 -13.6290038 -13.4270038
O -1.4910004 -14.8980042 5.5800016
H -2.0240006 -14.1940040 5.9490017
H -2.1530006 -15.6180044 5.3190015
O 2.1974853 1.0317808 -11.1606103
H 1.3083912 1.1674230 -10.7724131
H 2.1231543 0.0869576 -11.4182921
O -1.4806160 5.3836967 5.5278144
H -1.6888945 6.3390260 5.4454657
H -2.3040053 5.0770028 5.9684317
O 15.7830044 5.4940015 0.9350003
H 16.2160045 5.1390014 0.1040000
H 15.3810043 6.2900018 0.5780002
O -14.9660042 8.6900024 -1.5750004
H -15.8570044 8.8240025 -2.0170006
H -14.5230041 9.5650027 -1.7910005
O 2.2906999 -8.9019050 -4.1343923
H 1.9644798 -7.9790402 -4.1709016
H 2.1899103 -9.1728770 -5.0674289
O 0.0350000 -11.0440031 11.0450031
H -0.6740002 -11.1730031 10.4110029
H 0.0600000 -11.8970033 11.5290032
O 1.8037141 8.9373014 -2.1837660
H 2.1087877 9.3615819 -3.0146783
H 0.9132930 8.6204295 -2.4483421
O 0.0150000 7.6320021 11.1670031
H -0.9190003 7.4600021 11.2370031
H 0.2120001 7.8650022 12.0950034
O -5.3110015 -15.0220042 -1.6750005
H -5.6190016 -14.0870039 -1.7840005
H -4.3420012 -14.9340042 -1.9200005
O -3.9213922 2.9171679 -2.7911683
H -4.1656473 3.3432828 -1.9414605
H -3.8626804 1.9918183 -2.4809636
O -5.7810016 6.2460017 16.3830046
H -5.9470017 6.4520018 17.3130048
H -6.6050018 6.4950018 15.9140045
O 13.2810037 -10.4440029 -1.7990005
H 14.0060039 -11.0530031 -1.5890004
H 12.5760035 -11.1300031 -1.7170005
O 14.2670040 7.0230020 -2.5910007
H 14.7850041 7.1500020 -1.7530005
H 13.3500037 6.8040019 -2.2880006
O -14.5530041 -8.8390025 -6.8440019
H -13.8960039 -9.4220026 -7.3410021
H -14.5370041 -9.2200026 -5.9890017
O -11.0440031 9.3140026 11.1830031
H -10.8320030 9.0340025 10.2630029
H -10.3570029 9.9090028 11.4420032
O 3.4090010 -11.8860033 -7.4740021
H 3.0930009 -11.1060031 -7.0240020
H 3.4600010 -12.4940035 -6.7430019
O 2.0564814 -9.9467095 9.5836029
H 1.3343860 -10.2479729 10.1664766
H 1.7114753 -9.0886860 9.2721099
O 5.1595019 7.2797960 -6.7613788
H 4.7767557 7.4917632 -5.8870234
H 4.3485946 7.1816675 -7.3108526
O 2.8030008 9.1880026 11.3370032
H 3.6540010 8.7800025 11.5150032
H 2.4500007 9.2910026 12.2620034
O -14.2470040 -10.1500028 -4.3180012
H -14.0600039 -11.1130031 -4.0830011
H -13.3650037 -9.7120027 -4.1310012
O -15.6110044 9.9300028 -5.2900015
H -15.3270043 10.2290029 -4.3570012
H -14.7550041 9.4570026 -5.4920015
O -14.6430041 7.0770020 10.7770030
H -15.1190042 6.3810018 11.2910032
H -14.5760041 6.6880019 9.8620028
O 3.6020702 -10.9889893 -3.0124571
H 4.0820531 -10.4431074 -2.3629016
H 3.0911045 -10.2680359 -3.4526665
O 0.6770002 -8.8780025 12.5090035
H 1.5930004 -8.7060024 12.7050036
H 0.7570002 -9.7360027 12.1340034
O 3.3648413 12.7942378 -1.8904984
H 3.9397139 12.0675000 -2.2188097
H 3.7885550 12.9733311 -1.0274841
O 0.0510000 8.9590025 13.5990038
H 0.9530003 9.1110025 13.7460038
H -0.4840001 9.7170027 14.0220039
O -11.8190033 -2.2580006 -11.6470033
H -11.3130032 -1.8410005 -12.3960035
H -12.0570034 -3.0470009 -12.1200034
O -14.3210040 -3.2050009 10.3560029
H -13.5610038 -3.1730009 10.9660031
H -13.9120039 -3.9060011 9.7360027
O 7.6070021 -6.9860020 -12.1660034
H 7.2490020 -7.8740022 -12.1920034
H 7.9310022 -6.9890020 -11.2180031
O 5.8589806 -3.2562500 7.5705642
H 5.4707599 -2.7431816 6.8276130
H 5.0867010 -3.7943338 7.8479723
O 5.1670014 16.0490045 7.2770020
H 5.6440016 16.5010046 7.9590022
H 4.3080012 16.6110046 7.3420021
O -7.6550021 -15.8090044 6.5100018
H -6.9340019 -16.4110046 6.1460017
H -8.1250023 -15.5900044 5.7080016
O -5.7180016 3.4910010 -13.9580039
H -5.5340015 2.7290008 -13.4190038
H -6.4600018 3.0490009 -14.5340041
O -5.9755704 2.7906309 6.5911127
H -6.4875399 3.0089853 7.4013372
H -6.1925991 1.8495390 6.4641335
O 11.4880032 -12.1060034 3.7520011
H 11.8090033 -12.4800035 4.5900013
H 11.7610033 -12.8000036 3.1540009
O 12.1730034 3.7020010 -13.3150037
H 11.3020032 3.8760011 -12.9170036
H 11.9340033 3.9340011 -14.1990040
O 11.5469739 6.0180244 1.6927441
H 12.2277901 5.3443443 1.8893190
H 10.9753008 5.4992918 1.0914296
O -3.3940009 -9.1400026 -14.1780040
H -2.9130008 -8.5620024 -13.6380038
H -4.0980011 -8.5600024 -14.6410041
O -3.4852061 -4.9062974 -0.5837824
H -2.8431976 -5.1767199 -1.2739070
H -4.2112136 -5.5391772 -0.7744560
O -5.2770015 -6.7170019 17.0740048
H -6.0510017 -7.3190020 16.8490047
H -4.9820014 -7.1100020 17.9340050
O -2.5090007 9.6440027 -13.7350038
H -2.5800007 9.5430027 -14.6670041
H -2.6270007 10.6520030 -13.5730038
O -3.7730011 12.0210034 0.2040001
H -2.9660008 11.4660032 0.1700000
H -3.9030011 12.1610034 -0.7580002
O 17.2670048 -6.2800018 1.5500004
H 16.5510046 -5.6420016 1.5700004
H 16.8230047 -7.0980020 1.6770005
O -17.4310049 -2.4460007 4.9520014
H -17.1650048 -3.3950010 4.6550013
H -16.7400047 -2.4070007 5.5620016
O 1.7204748 -6.9692474 -10.0812676
H 1.4914088 -7.8564951 -9.7251943
H 1.2546936 -6.4032151 -9.4357173
O -0.8802147 -5.9295071 5.3849785
H -0.2964183 -6.2822302 4.6823278
H -1.5270707 -6.6698318 5.4161727
O 2.8050008 11.9890034 -11.0020031
H 2.6600007 11.3520032 -10.2760029
H 2.5890007 12.8020036 -10.6130030
O 2.3290007 15.2780043 2.7610008
H 1.8680005 14.8110041 3.4970010
H 1.7620005 16.0670045 2.7160008
O -12.5950035 -4.5360013 -12.7470036
H -13.1010037 -4.8940014 -11.9280033
H -13.1470037 -4.7490013 -13.4420038
O -13.6480038 -1.3910004 4.8870014
H -13.9720039 -2.0160006 5.4800015
H -12.8420036 -1.0100003 5.2930015
O 7.5570021 -5.0600014 -15.6130044
H 6.9850020 -4.4060012 -15.2240043
H 6.8980019 -5.6980016 -15.9830045
O 1.6724351 -5.1799331 6.6302180
H 1.4047445 -4.3127524 6.2609508
H 0.8360525 -5.6589531 6.5046842
O 5.9320017 16.0170045 4.7230013
H 5.5560016 15.9300045 5.6560016
H 5.9270017 16.9830048 4.7090013
O -11.2988665 2.9398319 -7.0043867
H -10.9169608 3.4049649 -7.7813611
H -10.5123459 2.8959998 -6.4244293
O -14.6530041 -0.2880001 8.3190023
H -14.4090040 0.3590001 7.5950021
H -15.1620042 0.2840001 8.8950025
O 4.0984993 -2.5946558 -10.6221679
H 4.7536547 -1.8665075 -10.7120940
H 4.6246533 -3.3596223 -10.9205393
O 4.6413034 0.2986103 8.8507588
H 4.4030685 1.2076282 9.1338242
H 4.2255265 -0.2438171 9.5476627
O 4.4250012 -8.5980024 -10.3310029
H 4.2610012 -7.8110022 -10.8910030
H 5.2650015 -9.1080025 -10.5760030
O 0.9896167 -1.9882903 8.1910588
H 0.8500160 -2.4853842 7.3551272
H 1.5854995 -1.2965816 7.8229513
O 0.4568873 11.9649871 -4.3805253
H 0.4556870 12.3896873 -5.2602339
H -0.4646676 11.6531023 -4.2971504
O -0.6720002 15.5460044 10.7860030
H 0.1620000 15.0540042 10.5560030
H -0.7680002 15.3170043 11.7760033
O -3.4040010 -2.2010006 -16.7250047
H -3.6370010 -2.2340006 -15.8120044
H -2.5390007 -2.6470007 -16.7910047
O -4.2992509 1.2049133 2.9153624
H -4.2556264 2.1691650 2.7281392
H -4.7032630 1.2033074 3.7926382
O -0.2500001 16.6230047 1.3770004
H -1.1300003 17.0220048 1.5520004
H -0.2680001 16.7100047 0.4480001
O 12.4480035 -5.1930015 0.0900000
H 12.3970035 -6.1390017 0.2170001
H 11.8490033 -4.9150014 0.8280002
O -4.9708377 -4.6763589 -4.3866286
H -5.8663820 -4.9260014 -4.6840153
H -5.1767377 -3.8646266 -3.8768841
O -8.8980025 -1.6510005 15.3000043
H -8.6730024 -1.2080003 14.4670040
H -9.5580027 -2.3640007 15.1210042
O -2.1740006 16.9150047 -6.5670018
H -2.5900007 17.4640049 -5.8890016
H -2.3570007 17.4950049 -7.3520021
O 17.4300049 -0.7820002 -4.3570012
H 16.7540047 -0.2330001 -4.8310014
H 18.2570051 -0.5430002 -4.8640014
O 12.7380036 -3.1410009 13.6830038
H 12.1430034 -3.7730011 13.2280037
H 13.4540038 -3.0880009 13.0100036
O -13.0890037 -0.4790001 -4.2080012
H -12.4790035 0.1370000 -4.6740013
H -13.5270038 -0.8840002 -4.9910014
O 2.6009783 -2.6788909 -5.3331943
H 3.4846276 -2.8877070 -5.7081419
H 2.6130639 -3.2006344 -4.4965151
O -1.5810004 -0.6090002 15.1950043
H -0.5700002 -0.7360002 15.0600042
H -1.6670005 -0.2550001 14.3020040
O 3.3130009 14.4290040 -6.0850017
H 3.3180009 15.0780042 -6.7960019
H 2.6360007 13.7900039 -6.4140018
O -17.2580048 0.6430002 4.6940013
H -17.3130048 -0.2610001 4.4270012
H -16.9860048 0.6040002 5.6270016
O 2.8999959 -1.6111701 -8.2296145
H 3.5957148 -2.0086218 -7.6692607
H 3.1890593 -1.9327686 -9.1039989
O -1.7654418 -1.3305147 5.2220871
H -1.4409384 -0.4293722 5.0023021
H -2.5139977 -1.0817007 5.7984361
O -0.0980000 15.9520045 8.1770023
H 0.7750002 15.5650044 8.4000024
H -0.5750002 15.7770044 9.0310025
O 17.6160049 -4.0290011 7.7500022
H 17.5400049 -3.2940009 8.4490024
H 17.4600049 -4.8100013 8.2780023
O -13.8010039 -1.0060003 -1.5750004
H -14.6110041 -0.4600001 -1.5780004
H -13.3990037 -0.7980002 -2.4230007
O 0.3165783 -4.3931435 -1.3187122
H -0.4909608 -4.8059294 -1.6843723
H -0.0305194 -3.5934197 -0.8708761
O 0.8350002 -1.4380004 14.5470041
H 1.2820004 -0.8150002 13.9080039
H 1.4770004 -1.3290004 15.2500043
O 0.5640002 16.0110045 -4.7950013
H 0.5120001 15.1770042 -5.2630015
H 1.1920003 15.9160045 -4.0210011
O -5.5250015 -4.4190012 -15.7350044
H -6.3240018 -3.9870011 -15.3920043
H -4.8450014 -3.9740011 -15.1890043
O -11.2557175 -0.3373583 5.6961698
H -10.9984356 0.4597157 6.2120008
H -10.9338027 -0.0318854 4.8208051
O -2.5020007 14.9500042 -9.7500027
H -2.4200007 15.8820044 -10.1460028
H -3.3070009 15.1570042 -9.1430026
O -4.7840013 15.3660043 3.1330009
H -5.4260015 14.7330041 2.7940008
H -4.1390012 15.3130043 2.3490007
O 11.2777677 -4.1997768 2.3092527
H 11.4190230 -3.2482263 2.4820535
H 10.6638563 -4.4391740 3.0386486
O 13.5450038 13.6440038 3.4620010
H 14.2580040 12.9990036 3.8480011
H 13.1830037 13.9230039 4.3860012
O 0.2406853 -5.5508783 -8.2754848
H 0.1553070 -4.6347612 -7.9537139
H -0.5328540 -5.6528151 -8.8637922
O -5.0478534 -4.0265753 9.7052147
H -4.1949098 -4.2956121 10.1175326
H -4.8782825 -4.2493644 8.7689446
O -0.1550000 13.3830037 -9.5350027
H -0.9360003 14.0040039 -9.5800027
H 0.6530002 13.8660039 -9.8440028
O -0.7620002 12.2300034 7.6840022
H -1.1640003 12.8800036 7.0030020
H 0.0660000 12.7570036 7.9630022
O 15.1710042 -4.3760012 6.2870018
H 15.9690045 -3.9480011 6.5310018
H 14.5120041 -3.9430011 6.8450019
O -8.5997252 -6.7863796 -0.6703870
H -8.1296064 -7.6348451 -0.7092090
H -9.3756008 -6.9433294 -1.2480508
O -9.2370026 12.7670036 -2.6620007
H -10.0120028 12.6300035 -3.2230009
H -9.6350027 13.1240037 -1.9180005
O 10.3707160 -6.2452083 -2.2967155
H 10.0546479 -5.6617427 -1.5645561
H 10.8822989 -5.6200313 -2.8366780
O 6.9150019 -2.8570008 16.1870045
H 6.7520019 -3.4000010 16.9180047
H 7.8480022 -2.7380008 16.2890046
O 9.3280026 13.4410038 -3.1740009
H 9.6050027 14.1780040 -3.7570011
H 8.6210024 13.8190039 -2.5750007
O -7.4688318 -5.2271232 -5.5870453
H -7.3335884 -4.3583674 -6.0369283
H -7.2920367 -5.7828219 -6.3778552
O -7.5220857 -4.2164645 10.8580876
H -6.6966739 -4.1444980 10.3317191
H -8.1405812 -3.6449471 10.3822933
O -5.9540017 16.3770046 -5.7620016
H -6.0190017 17.1600048 -5.2000015
H -6.5090018 16.6240047 -6.5460018
O 10.1030028 -5.8530016 -7.5080021
H 10.9850031 -6.3800018 -7.5780021
H 10.1960029 -5.3020015 -8.3040023
O 12.4440035 -3.8350011 10.2750029
H 11.9740034 -3.0480009 9.8280028
H 11.7670033 -4.4940013 10.2160029
O 9.7250027 15.3230043 -5.1600014
H 10.3230029 14.8590042 -5.7220016
H 9.2020026 15.7920044 -5.8510016
O -17.6530049 -0.9360003 -1.0040003
H -18.6760052 -0.8670002 -1.0980003
H -17.5280049 -0.5510002 -0.1360000
O 2.3890007 -18.2730051 -0.9480003
H 2.1690006 -17.3260048 -1.3030004
H 2.4110007 -18.1830051 0.0730000
O 2.9410008 -0.5280001 -15.8100044
H 3.7040010 -0.8090002 -16.2980046
H 3.3140009 -0.4650001 -14.8740042
O 3.9322955 -2.9273620 2.9208854
H 4.1928215 -3.0895295 1.9913869
H 3.2399222 -2.2484137 2.7580678
O -0.3900001 -2.0270006 18.6680052
H -0.0300000 -1.2580004 18.1970051
H -0.0220000 -2.7890008 18.2050051
O 2.1300006 18.8340053 0.1270000
H 2.4510007 19.4190054 -0.5660002
H 2.1160006 17.9840050 -0.3110001
O 18.1510051 -1.2260003 3.3700009
H 18.4080052 -1.8380005 2.6110007
H 18.0860051 -1.9480005 4.0470011
O 1.3660004 -4.8160013 -17.7050050
H 0.6050002 -5.2830015 -18.1710051
H 1.7560005 -5.5650016 -17.1920048
O -1.9872872 -2.6151927 -3.5832049
H -2.6171421 -2.3237315 -4.2832013
H -2.5996654 -2.6728484 -2.8215410
O -2.6140007 -5.4430015 16.6760047
H -3.4940010 -5.7160016 17.0050048
H -2.8130008 -4.4600012 16.3510046
O -1.4400004 15.6000044 -1.4120004
H -2.3410007 15.3370043 -1.7520005
H -0.9260003 14.7790041 -1.5190004
O 16.0680045 -4.1350012 -1.6470005
H 16.7230047 -4.7930013 -1.9660006
H 16.5920046 -3.2920009 -1.7140005
O -6.0470446 -2.5111788 -2.9343225
H -6.9440591 -2.8463516 -2.7369000
H -6.2394824 -1.5713245 -3.1387500
O -7.8800022 -1.1860003 12.7690036
H -8.0720023 -1.6440005 11.9560033
H -7.0140020 -0.6690002 12.6070035
O -4.7340013 17.5420049 -2.4170007
H -5.4110015 18.1370051 -2.7590008
H -4.0650011 18.2100051 -2.2900006
O 12.1770034 -2.4110007 -3.3700009
H 12.2830034 -3.3220009 -3.5960010
H 12.3000034 -2.4570007 -2.3600007
O -17.3010048 0.4350001 -4.8700014
H -17.7980050 -0.3010001 -4.4690013
H -17.2360048 0.0490000 -5.7610016
O -0.5624485 -4.5246537 -4.8447500
H -0.2054452 -4.0726647 -5.6330786
H -0.9873315 -3.7662557 -4.3833698
O -4.9220014 -2.7900008 15.6770044
H -3.9140011 -2.8990008 15.6080044
H -5.1920015 -2.9000008 14.7340041
O 0.6960002 13.5120038 -6.8050019
H -0.1360000 13.9920039 -6.7370019
H 0.8070002 13.6400038 -7.7720022
O 14.8240041 -3.5160010 11.1820031
H 15.2270043 -2.8360008 10.6400030
H 13.8940039 -3.5850010 10.8680030
O -17.5800049 -4.0380011 0.4240001
H -17.5020049 -3.1310009 0.3910001
H -18.4780052 -4.2710012 0.1560000
O 2.5240007 -5.3990015 -14.3900040
H 2.5640007 -5.8310016 -13.5260038
H 2.4930007 -6.1180017 -15.0570042
O 6.1194340 -8.2215459 0.1256026
H 5.2843776 -8.2985474 -0.3921264
H 6.2679655 -7.2497471 0.0670680
O 7.1090020 16.1620045 0.6600002
H 7.9640022 15.7490044 1.0420003
H 6.4380018 15.7850044 1.2470003
O -16.8870047 -0.7860002 -7.1630020
H -17.1720048 -1.7110005 -7.0890020
H -17.2710048 -0.5910002 -8.0390022
O -2.1717757 -2.4773067 -7.6502010
H -2.2106915 -2.7947024 -8.5805674
H -1.2310846 -2.6725355 -7.4431705
O -5.3179060 -1.3244441 10.0943466
H -6.2568803 -1.1791348 9.8708374
H -5.2457864 -2.2986044 10.0441983
O 15.3670043 -1.8230005 -9.8670028
H 14.6530041 -2.4120007 -9.6100027
H 15.8600044 -2.3360007 -10.4330029
O 13.8450039 -2.2550006 7.3320021
H 12.9310036 -2.2880006 7.6180021
H 14.0480039 -1.4620004 6.9320019
O -11.3280032 -9.1880026 -9.5670027
H -10.7050030 -8.9270025 -10.2730029
H -10.9710031 -10.0310028 -9.2530026
O -11.9760034 -8.6760024 8.4280024
H -12.2530034 -8.6880024 9.3390026
H -11.1400031 -8.1420023 8.4750024
O -12.5660035 9.3310026 -10.7020030
H -11.9880034 10.1110028 -10.7160030
H -11.9990034 8.6250024 -11.0080031
O -12.3210034 10.1150028 6.5980018
H -11.8380033 10.6630030 7.2940020
H -13.1450037 9.9330028 7.0510020
O 4.7047905 -9.2804937 6.9239210
H 4.4262103 -8.3835134 6.6203780
H 5.1723432 -9.0632338 7.7606811
O 6.0619910 8.8519679 -11.0437485
H 5.9593534 8.9937125 -10.0830895
H 6.3257902 9.7438619 -11.3299239
O 6.7760019 7.8680022 9.4080026
H 7.2050020 8.6830024 9.1750026
H 7.3580021 7.3200020 8.8640025
O -6.5264622 1.0271088 -12.6530069
H -7.3312412 0.4836364 -12.7113342
H -6.0766470 0.6184609 -11.9014674
O -7.8950022 7.3520021 10.5790030
H -7.1600020 7.8060022 10.1000028
H -8.3030023 6.8790019 9.8110027
O 10.8420030 -14.6440041 5.7740016
H 10.0450028 -14.6990041 6.2830018
H 10.6220030 -15.0420042 4.9170014
O 12.8790036 2.1070006 5.5830016
H 13.0910037 2.0090006 6.5370018
H 11.8810033 2.1100006 5.4890015
O -0.5650002 -3.3180009 -16.2490045
H 0.3230001 -3.5310010 -16.5020046
H -0.5250001 -2.3740007 -16.0220045
O -1.9467516 -5.5092617 1.6657069
H -2.5967653 -5.2265640 0.9873817
H -2.2270301 -4.9882292 2.4389326
O -3.3790009 0.3310001 17.0170048
H -3.3590009 -0.3490001 17.6640049
H -2.7730008 -0.1810001 16.4340046
O -1.0110003 17.9290050 -3.3620009
H -0.5150001 17.3120048 -3.9410011
H -1.4410004 17.3130048 -2.7340008
O -6.3272904 -7.6097105 -3.9358619
H -6.6786653 -8.5146837 -4.1213994
H -7.0132554 -7.0785747 -4.3620102
O -5.5560016 -4.1340012 12.9760036
H -6.1940017 -4.4080012 12.3060034
H -4.8510014 -4.7830013 12.7710036
O -2.2596413 10.8905661 -4.1287777
H -2.1916495 10.8765559 -5.1041741
H -2.5488426 9.9799856 -3.9171146
O 12.1690034 -4.9550014 -4.6280013
H 12.8990036 -5.2750015 -4.0230011
H 12.2470034 -5.5590016 -5.4110015
O 10.5240029 -4.7060013 13.0740037
H 10.1480028 -3.8550011 12.7050036
H 9.7100027 -5.2650015 12.9190036
O 12.6400035 11.5500032 -3.3930009
H 13.6250038 11.4220032 -3.2070009
H 12.4510035 10.6350030 -3.6160010
O 10.8630030 7.1210020 14.6950041
H 10.4390029 7.0680020 13.7410038
H 10.4250029 6.3240018 15.0410042
O -1.5830004 -5.7960016 -15.1960043
H -2.2730006 -6.1040017 -15.8330044
H -1.3250004 -4.9150014 -15.6030044
O -6.8028182 -2.8648622 4.3991089
H -6.9205065 -2.7551914 5.3630540
H -7.1834354 -2.0167424 4.0822321
O -6.7260019 -4.3980012 17.1410048
H -6.2300017 -5.2080015 16.8280047
H -6.1550017 -3.7310010 16.8450047
O 1.9780006 16.4530046 -1.3700004
H 1.8170005 15.6310044 -0.9220003
H 2.4860007 16.1430045 -2.1250006
O 17.8070050 -2.9750008 1.2190003
H 17.4540049 -2.9810008 0.3430001
H 18.7650053 -3.1210009 1.0210003
O -0.7520002 -17.1290048 -5.9010017
H -1.4950004 -17.3320049 -6.5000018
H -0.0140000 -17.2430048 -6.5950018
O 1.0336992 0.2777509 -7.3767222
H 1.6301244 -0.3604745 -7.8337153
H 1.5310821 0.3859724 -6.5478388
O -1.5332283 0.2944363 12.5539829
H -2.0827971 0.1348584 11.7495369
H -1.8831319 1.1820426 12.7974397
O -10.2150348 0.9304504 3.4874421
H -10.8933068 0.8947466 2.7803613
H -10.0250430 1.8836665 3.5370198
O 6.2440017 -16.7970047 3.7920011
H 5.3940015 -17.1920048 3.6970010
H 6.1110017 -16.2740046 4.6550013
O 4.5340013 2.9500008 -16.7930047
H 3.6180010 3.1260009 -16.8280047
H 4.7160013 2.3500007 -17.4890049
O 5.8459081 4.1341563 1.0265734
H 6.4447896 4.2861210 0.2678476
H 5.4618330 3.2522005 0.8195500
O 1.6280005 1.9530005 19.1370054
H 1.3400004 1.3040004 18.5300052
H 0.9000003 2.6290007 18.8830053
O -15.1260042 -4.4050012 -7.2470020
H -15.9240045 -3.7480010 -7.2500020
H -15.1430042 -4.8930014 -6.3530018
O 5.6300016 -8.5420024 -6.2630018
H 5.3050015 -7.8600022 -6.8680019
H 4.9570014 -9.2040026 -6.3070018
O 2.2058123 -4.8545761 12.7231675
H 2.1446725 -5.2865985 11.8465054
H 2.9825044 -4.2827325 12.5618622
O 4.2610089 11.2148589 -6.5107917
H 3.7592784 11.1366937 -7.3445654
H 5.1281664 10.8913379 -6.8102898
O -16.1750045 3.9660011 5.9950017
H -15.8320044 3.1400009 6.2200017
H -17.1540048 4.0380011 6.0730017
O -0.6140002 -13.8930039 -11.4460032
H -0.2170001 -14.2860040 -10.6680030
H -1.0360003 -14.7140041 -11.7060033
O -0.6770002 -18.7140052 6.2110017
H 0.1540000 -18.4190052 6.4800018
H -0.8660002 -18.2750051 5.3740015
O 4.8350014 -0.9180003 -13.6690038
H 5.0680014 -0.9600003 -12.7890036
H 5.3490015 -0.1410000 -14.0230039
O -0.9910425 1.3348692 4.9150419
H -0.0058109 1.2516216 4.9500593
H -1.0771942 2.0276452 4.2305891
O 3.4610010 19.3370054 2.4380007
H 2.9510008 18.9450053 1.6390005
H 4.3590012 18.9500053 2.3870007
O -14.2500040 -1.4810004 -6.4920018
H -14.9420042 -0.9020003 -6.8740019
H -13.9180039 -2.0430006 -7.2300020
O -11.4710032 12.6340035 -4.9380014
H -10.9130031 13.2590037 -5.3840015
H -11.4940032 11.9060033 -5.5980016
O 5.6494647 -2.6050166 -2.2532404
H 6.0692171 -3.1706916 -2.9411792
H 6.4409585 -2.1830127 -1.8668840
O 4.3821841 -3.2795262 11.6512566
H 3.8308449 -2.5976465 11.2145236
H 5.2161232 -3.1668737 11.1566837
O 2.9740008 16.3710046 -8.1520023
H 2.1730006 16.9750048 -8.3040023
H 3.5980010 17.0310048 -8.5090024
O -0.5720002 -16.6810047 1.4560004
H 0.3030001 -17.1390048 1.4520004
H -1.0050003 -17.1690048 0.7060002
O -5.3781181 0.1353862 0.6152652
H -5.5783664 -0.8100279 0.7899093
H -5.1098681 0.4505449 1.5057883
O 13.6800038 1.4760004 2.9460008
H 14.5200041 1.3490004 3.3760009
H 13.1030037 1.6930005 3.7180010
O -14.9700042 1.3950004 -7.9430022
H -15.5410043 1.8840005 -8.5920024
H -15.4350043 1.5840004 -7.1340020
O 1.1780003 -14.3580040 -4.9820014
H 1.9080005 -13.8760039 -4.5220013
H 1.6190005 -15.2060043 -5.0350014
O 4.4759287 1.7337711 -5.7740348
H 4.4203180 2.3254054 -4.9956795
H 3.7844238 1.0829222 -5.5344565
O -2.8250008 2.6630007 13.0670037
H -3.5140010 2.4270007 13.7290038
H -3.3230009 3.3510009 12.6010035
O -6.0430017 -1.3960004 -14.1140040
H -6.0240017 -1.3880004 -13.1380037
H -5.8450016 -0.4420001 -14.3150040
O -10.1370028 0.5840002 10.0780028
H -10.8720030 0.0570000 9.6680027
H -10.5720030 1.4480004 9.9420028
O 12.6370035 0.8320002 -13.5610038
H 12.3670035 1.6860005 -13.1910037
H 12.8850036 0.2780001 -12.7700036
O 8.8885608 -0.4415222 5.4174990
H 8.1588756 -0.2003541 6.0349979
H 9.0962571 0.4232719 5.0081610
O 1.8104575 -1.6042649 -11.7131441
H 1.7095031 -1.9572406 -12.6231178
H 2.6290924 -2.0572327 -11.4151659
O -1.8195145 -1.7112139 8.3895617
H -1.9948424 -2.6197923 8.0473668
H -0.8456765 -1.6802634 8.3329700
O -3.9920011 15.1030042 8.9760025
H -4.8330014 14.6470041 8.8050025
H -3.4640010 14.2790040 9.0930025
O 16.2790046 0.5810002 4.1550012
H 16.8490047 -0.1870001 4.0630011
H 16.7780047 1.2380003 3.6600010
O -12.2330034 5.8710016 -12.3480035
H -11.6360033 5.0890014 -12.3900035
H -12.0540034 6.3000018 -11.5180032
O -14.6460041 10.6040030 4.3230012
H -15.2150043 10.8920030 3.5380010
H -14.9710042 11.1730031 5.0250014
O 3.4240010 -12.8380036 -13.2910037
H 3.8360011 -11.9680033 -13.5290038
H 3.1520009 -12.6540035 -12.3640035
O 1.1700003 -16.1410045 6.3610018
H 0.3060001 -15.7400044 6.0950017
H 0.8410002 -16.5740046 7.2200020
O 3.2738533 2.9666507 -12.7268150
H 2.8242820 2.2336811 -12.2528883
H 4.1904458 2.8066012 -12.4321187
O 1.2422638 5.0042430 5.1275554
H 1.1686230 5.2232422 4.1809298
H 0.3270669 5.2010291 5.4197994
O 18.9190053 1.3450004 2.7960008
H 18.5880052 0.5060001 3.1380009
H 19.4080054 1.1390003 2.0280006
O -11.2510031 -1.8240005 -7.0430020
H -11.5870032 -2.5470007 -7.6080021
H -11.3390032 -0.9440003 -7.5190021
O -11.9940034 -3.2150009 12.6320035
H -11.6630033 -3.6260010 13.5390038
H -12.6100035 -2.5090007 12.9330036
O -9.5260027 14.5750041 -5.4300015
H -9.3330026 15.3360043 -4.8460014
H -9.2890026 15.1210042 -6.2060017
O 10.0230028 -2.4520007 -7.5720021
H 10.2910029 -3.0280008 -8.3040023
H 10.5580030 -1.6290005 -7.7030022
O 7.6630021 -0.7490002 11.8860033
H 7.4320021 -1.3310004 11.1830031
H 6.7700019 -0.6330002 12.3780035
O -8.6940024 -0.9460003 -13.0360036
H -8.5800024 -1.7190005 -13.6520038
H -9.5110027 -0.5070001 -13.4220038
O -9.2921042 5.5878983 8.8235402
H -9.9450357 4.8553576 8.8669476
H -9.4950472 5.9601067 7.9474494
O 9.9750028 -15.7950044 3.2190009
H 9.5520027 -16.6400047 3.0560009
H 9.3040026 -15.2240043 2.8940008
O 10.1600028 1.6750005 -11.6550033
H 9.2650026 2.0010006 -11.9770034
H 10.2650029 0.7650002 -12.1790034
O 9.1093958 7.0540854 2.9090060
H 8.6333412 7.2202413 2.0693256
H 10.0109794 6.8509226 2.5848327
O -12.3840035 -12.3370035 -3.5350010
H -12.0670034 -12.9850036 -2.9040008
H -13.3080037 -12.8110036 -3.4830010
O -9.2579485 5.5032185 -6.1678656
H -9.1635245 4.5445055 -5.9705205
H -8.7478649 5.5731836 -7.0024701
O -13.9110039 3.9780011 12.1700034
H -13.8440039 3.3780009 12.9340036
H -14.8240041 4.2540012 12.1490034
O 8.0550023 -15.4260043 -5.0740014
H 7.2670020 -15.1690042 -4.5250013
H 7.6290021 -15.5270043 -5.9350017
O 8.3761339 7.1555780 -4.4710285
H 8.8637760 6.5152048 -3.9051967
H 8.1028935 6.5631371 -5.1975200
O 7.3280021 5.6620016 13.3570037
H 8.1830023 5.7730016 12.8460036
H 7.4210021 4.7990013 13.8110039
O -15.2290043 -12.5620035 2.1650006
H -14.3700040 -12.8650036 2.5610007
H -15.5400043 -11.8540033 2.7220008
O -12.3793382 0.3518040 1.7138660
H -13.2556853 0.4392490 2.1445964
H -12.3821172 -0.5940938 1.4637149
O 6.1580017 -17.4430049 0.7700002
H 6.0520017 -16.9440047 -0.0270000
H 5.7690016 -18.2550051 0.5710002
O 5.6528331 -0.8082175 0.8769601
H 5.0510730 -1.5594877 0.6980365
H 6.3579783 -0.9813517 0.2261960
O -3.5310010 2.3260007 18.9870053
H -3.5340010 1.7450005 18.1130051
H -4.4610012 2.1330006 19.1840054
O -18.0120050 4.9980014 -0.8700002
H -17.1890048 4.9210014 -1.4510004
H -17.8310050 5.9040017 -0.4810001
O -0.7020002 -15.9480045 -3.4170010
H -0.3280001 -15.2040043 -3.8870011
H -1.0260003 -16.4980046 -4.1420012
O -0.6510002 5.7120016 -17.9450050
H -0.8290002 6.1470017 -17.0860048
H -1.5210004 5.8240016 -18.2750051
O 0.6401661 5.8570562 -1.7533229
H 0.0168174 5.5614736 -1.0539229
H 0.1376824 6.6149482 -2.1256456
O -0.9320003 3.1660009 18.5590052
H -1.1990003 3.7740011 17.8970050
H -1.7000005 2.6190007 18.6220052
O 14.4080040 2.2360006 -2.3870007
H 14.4040040 1.3890004 -1.8580005
H 13.7480038 2.8710008 -2.0000006
O 12.0960034 4.2730012 14.1200040
H 12.8830036 4.8190013 14.2540040
H 11.3160032 4.7170013 14.5650041
O -4.5088619 3.2818961 -8.1763426
H -4.2016056 2.8989239 -7.3236792
H -4.4027406 2.4549195 -8.7085844
O -6.1110017 0.7540002 12.7640036
H -6.7210019 1.5580004 12.7370036
H -5.4660015 0.9900003 13.4390038
O 12.1580034 -0.5230001 -8.3250023
H 12.7650036 0.0570000 -7.7830022
H 11.6440033 0.2290001 -8.6380024
O 9.9930028 0.5320001 9.6150027
H 9.0020025 0.5370002 9.5700027
H 10.1960029 1.1810003 10.3220029
O -3.5270010 -15.4840043 -4.3260012
H -4.4260012 -15.0780042 -4.2400012
H -3.0370008 -14.7480041 -4.6760013
O -1.5723802 2.1725809 -0.1070124
H -2.2803505 1.7145150 -0.5957793
H -1.4916531 1.5669723 0.6573145
O 0.5330001 2.1110006 15.0860042
H 1.1340003 2.0040006 14.3240040
H -0.1240000 2.7900008 14.7510041
O 16.0470045 2.8360008 -4.6070013
H 15.4890043 2.6630007 -3.7780011
H 16.0120045 1.8850005 -5.0290014
O -17.1730048 8.2340023 4.0720011
H -17.0830048 8.2160023 5.0830014
H -16.6610047 7.4640021 3.9020011
O 0.1730000 -10.6150030 -13.2690037
H 0.8270002 -10.0750028 -12.8660036
H -0.5750002 -10.5040029 -12.5230035
O -0.5823138 -11.3475823 5.7824425
H -0.0991302 -11.8405161 5.0963582
H -0.4923704 -11.9593134 6.5366114
O 0.2561321 6.2176179 -13.2902137
H 1.1687642 5.9250738 -13.0841996
H 0.3696613 7.1938380 -13.2917231
O -2.4341166 7.8817923 4.8233146
H -2.4556768 8.7154969 5.3319811
H -1.8261627 8.1009188 4.0875576
O -2.5987556 -10.6821018 -2.3936162
H -3.2540364 -10.6292946 -1.6602417
H -1.9163229 -10.0703537 -2.0455991
O -8.3480023 -9.0120025 13.4690038
H -8.0380022 -9.9170028 13.6630038
H -8.3550023 -8.8790025 12.4720035
O -0.6182516 7.9234861 -3.0229710
H -0.5009357 7.9163305 -3.9991781
H -1.5766583 8.1152585 -2.9610335
O -2.7680008 8.6140024 13.8640039
H -2.3270007 8.3740023 14.6720041
H -2.1430006 9.2530026 13.5890038
O 11.7250033 -9.1760026 -6.4400018
H 11.4530032 -9.0900025 -5.4770015
H 12.0870034 -10.1140028 -6.3890018
O 16.7530047 7.9590022 -3.4810010
H 17.1170048 7.0770020 -3.1870009
H 15.7900044 7.6120021 -3.3390009
O 9.5980027 4.9270014 15.4950043
H 8.6650024 4.7290013 15.3320043
H 9.5500027 5.0250014 16.4620046
O -13.9880039 5.6310016 1.9490005
H -13.7670039 6.0490017 1.0430003
H -14.2560040 4.7650013 1.7790005
O 3.8260011 -13.9840039 3.3100009
H 4.3010012 -14.4810041 2.6340007
H 3.5660010 -14.7580041 3.8680011
O 1.9910006 4.0360011 -15.0200042
H 2.3340007 3.6180010 -14.2200040
H 2.5240007 4.8580014 -15.0180042
O -1.2227192 3.6921398 3.4145104
H -0.4677798 4.1298854 2.9846718
H -1.3236679 4.2586418 4.2109037
O -13.6280038 3.8050011 -5.6880016
H -13.0410036 3.5950010 -6.4430018
H -14.5150041 3.6620010 -6.1430017
O -15.7790044 2.1920006 9.2170026
H -16.3500046 2.5960007 9.9080028
H -16.4730046 1.8460005 8.5420024
O 4.6620013 -15.8140044 -5.9060017
H 3.9260011 -16.3930046 -5.6440016
H 4.6700013 -15.0780042 -5.2240015
O 4.8160013 -13.5550038 8.1700023
H 5.1050014 -12.8590036 7.5570021
H 3.9010011 -13.1700037 8.3720023
O 5.3270186 3.7182800 -7.4898519
H 4.6355900 3.4299186 -8.1185991
H 5.1704958 3.0512418 -6.7915636
O 3.8637865 2.9464097 9.2842879
H 4.6051486 3.5666066 9.1395083
H 3.2008827 3.2889343 8.6472923
O -9.9100028 8.3690023 -11.7480033
H -10.5100029 8.8210025 -12.2890034
H -9.0760025 8.8580025 -11.9710034
O -12.4860035 10.9560031 2.8690008
H -12.6410035 10.3110029 2.1880006
H -13.2630037 10.9860031 3.4070010
O 1.4767838 -12.6279324 4.3477593
H 1.9162247 -11.9004528 4.8376364
H 2.2498125 -13.1396406 4.0464749
O 2.7972869 5.6345419 -12.3109587
H 3.7621689 5.8333435 -12.3548537
H 2.8709513 4.6597844 -12.3876257
O 4.0930852 9.4893964 4.8475651
H 4.6060290 9.4040419 5.6799689
H 3.1899368 9.3947183 5.2159660
O -8.5900024 -13.7090038 -4.1450012
H -8.7930025 -14.4100040 -3.4720010
H -8.8920025 -12.9170036 -3.7590011
O -8.5070024 9.3220026 -5.3120015
H -8.4910024 8.4690024 -4.8180013
H -7.5590021 9.3650026 -5.5630016
O -11.2390031 11.4530032 8.5570024
H -10.3610029 11.3530032 8.7840025
H -11.6200033 11.4490032 9.4080026
O 8.3870023 -13.8100039 -8.8040025
H 8.3470023 -13.3350037 -7.9140022
H 7.4170021 -13.9130039 -8.8390025
O 5.7640016 -7.7810022 13.9260039
H 6.3880018 -8.0210022 13.2950037
H 6.0700017 -6.8940019 14.2700040
O 9.9460028 7.9440022 -8.0430023
H 10.4100029 8.2360023 -8.7970025
H 9.6950027 8.7650025 -7.5970021
O 7.5950021 9.5270027 11.4730032
H 8.4920024 9.1400026 11.2070031
H 7.0330020 8.8480025 11.0970031
O -5.1330765 -4.7303363 -12.1084486
H -6.0530119 -4.3988697 -12.1775579
H -5.0030583 -4.7186759 -11.1356166
O -6.1927009 -7.0996542 6.6398620
H -6.0395536 -7.6355317 7.4388359
H -6.7931462 -7.7219525 6.1753098
O -0.8640002 11.3890032 -11.3040032
H -0.6370002 12.1010034 -10.7090030
H -0.7510002 10.5740030 -10.7490030
O -3.8320011 13.5570038 6.6310019
H -3.3480009 13.4620038 5.7560016
H -3.4510010 14.4090040 6.9800020
O 11.5400032 -3.7070010 -12.6990036
H 10.6040030 -3.9610011 -12.9290036
H 11.8450033 -4.5940013 -12.5620035
O 11.5890032 -6.0850017 7.1840020
H 11.2780032 -6.8000019 6.6080018
H 12.5230035 -6.4300018 7.4250021
O 8.2550023 9.9150028 -13.4280038
H 8.4780024 10.5770030 -14.1100039
H 7.8210022 10.4450029 -12.7210036
O -11.2920032 -13.7810039 -1.4470004
H -10.7430030 -13.9600039 -0.6600002
H -10.9410031 -14.5080041 -2.0360006
O -10.8473600 4.2259844 -3.2354949
H -10.0918530 3.6999880 -2.8908441
H -11.5241801 3.5350139 -3.3607748
O 3.7790011 -16.0220045 -2.8370008
H 4.4970013 -16.6150047 -2.7730008
H 3.2210009 -16.4950046 -3.5420010
O 4.4920013 -13.5820038 12.4550035
H 4.6770013 -14.5510041 12.4000035
H 5.3490015 -13.1360037 12.2210034
O 7.8158238 0.5500845 -4.8224468
H 7.2119982 0.9389131 -4.1551784
H 8.1104191 1.3651654 -5.2821300
O 2.8382843 -1.3833282 10.3193848
H 2.2778828 -1.7563877 9.6172899
H 2.1929040 -0.7845569 10.7559214
O -6.0810017 -11.3940032 -14.3630040
H -5.6080016 -12.1820034 -14.0670039
H -6.1250017 -10.8960030 -13.5330038
O -5.9500017 -12.5750035 2.4990007
H -5.1240014 -12.4470035 2.9780008
H -5.6210016 -12.7070036 1.6270005
O -6.0843465 5.8055696 -12.4521003
H -5.7649844 5.1961120 -11.7534687
H -6.2038838 5.1404435 -13.1578342
O -8.1304428 7.9670365 2.2190103
H -8.0926000 8.2245555 1.2722592
H -8.8431264 8.5759962 2.5311618
O 10.0330028 -9.8010027 2.7220008
H 10.5860030 -10.4510029 3.2050009
H 10.7630030 -9.3260026 2.2040006
O 12.3600035 8.6370024 2.1880006
H 13.0810037 8.3910023 2.7880008
H 12.3030034 7.7080022 1.8180005
O -14.6590041 5.0770014 -9.7970027
H -15.0810042 5.3540015 -10.6530030
H -14.3980040 4.1800012 -10.1200028
O -3.3740009 -13.1960037 7.5540021
H -3.8080011 -12.3560035 7.7590022
H -4.0980011 -13.7130038 7.1560020
O -0.0943391 1.4777228 -9.7709365
H 0.2711686 1.1827619 -8.9148781
H -0.2169626 2.4413533 -9.6323344
O 0.0710712 7.7324237 6.9823400
H 0.2860203 6.9634758 7.5364233
H -0.8048913 7.9470001 7.3759557
O -3.1600009 -15.7620044 -7.2070020
H -2.7870008 -16.6180047 -7.5130021
H -3.5760010 -16.1660045 -6.4320018
O -2.6140007 -15.4080043 9.1790026
H -2.6600007 -15.0780042 10.0460028
H -2.6750007 -14.5120041 8.7740025
O 1.1767382 5.4150407 -6.0497116
H 0.5368166 4.6942248 -6.0436137
H 1.6516490 5.2122025 -6.8865927
O -2.1370006 4.3900012 15.9180045
H -3.0390009 4.1240012 15.6300044
H -1.9080005 5.0710014 15.2760043
O 16.2560045 5.2620015 -5.6980016
H 15.7270044 4.6150013 -5.1550014
H 17.0300048 4.6200013 -5.8070016
O 15.3040043 5.2850015 9.3830026
H 15.9800045 4.6950013 8.9500025
H 14.9580042 4.5410013 9.8260028
O -5.2650015 -17.5070049 -6.0490017
H -5.9320017 -17.0750048 -6.5540018
H -5.6990016 -17.3060048 -5.1950015
O -5.4796151 0.3202820 -5.8790484
H -5.8319626 0.3704776 -4.9628409
H -4.8250094 1.0484727 -5.8797294
O -7.7280022 2.7990008 13.5460038
H -8.6610024 3.0640009 13.6810038
H -7.3980021 2.6710007 14.4500040
O 13.2130037 1.2870004 -6.6200019
H 12.7800036 0.7990002 -5.8370016
H 12.9760036 2.1930006 -6.3990018
O 9.2330026 1.6670005 12.3760035
H 8.8520025 0.9170003 12.0270034
H 8.4260024 2.2380006 12.3440035
O 3.7348526 -6.3054515 -11.8362454
H 4.3815103 -5.5772855 -11.7614646
H 3.1113198 -6.1468246 -11.1008480
O 0.8769656 -5.2359783 1.2271050
H -0.0533733 -5.4247582 1.4527550
H 0.8081677 -5.0502998 0.2692154
O 3.4850010 12.0140034 3.8290011
H 2.5430007 12.2110034 3.9410011
H 3.5940010 11.0880031 4.1260012
O 18.4580052 -5.9760017 4.1250012
H 17.7280050 -6.4310018 4.5680013
H 18.0960051 -6.0240017 3.2450009
O -12.6760035 -6.2990018 -4.8780014
H -12.6070035 -5.3350015 -4.6060013
H -13.5020038 -6.4650018 -4.4100012
O 2.4618091 -4.1103680 -3.0144397
H 3.2228474 -4.4709908 -2.5038013
H 1.7562658 -4.1295006 -2.3313019
O 0.7920002 -5.0050014 15.0740042
H 1.2700004 -4.8510014 14.2040040
H 0.8580002 -5.9960017 15.0940042
O 5.2113851 10.7894951 -2.2689985
H 5.7685271 10.7235527 -1.4661107
H 5.7576882 10.3015057 -2.9181427
O 3.1070009 13.0990037 13.7850039
H 3.8380011 13.0890037 14.3960040
H 2.9160008 14.0590039 13.8710039
O -16.2080045 3.6790010 -6.5310018
H -16.6130046 3.6240010 -7.4440021
H -16.9370047 3.7800011 -5.9110017
O 0.1912566 -11.3166937 -4.2275733
H -0.5581553 -11.9078977 -4.4115046
H -0.2052181 -10.4313493 -4.3297195
O -2.7420008 -13.7770039 11.6760033
H -3.0430009 -13.6220038 12.5290035
H -1.7960005 -13.7920039 11.8560033
O 4.2762770 7.9774067 -4.2371475
H 3.6771084 7.2420902 -3.9721092
H 3.6495979 8.7328798 -4.2659033
O 0.2873863 5.8593087 9.0611370
H -0.4527071 5.2151805 9.1481770
H 0.1083113 6.4315619 9.8412661
O -16.8740047 -2.8900008 -3.5400010
H -16.6110046 -2.9760008 -4.5020013
H -17.4800049 -2.0970006 -3.5510010
O 0.4452617 -3.0492378 -7.0226082
H 0.6849858 -2.6305079 -7.8837306
H 1.2594485 -2.8489077 -6.5036447
O -2.3080006 -3.1550009 15.2930043
H -2.0230006 -2.2570006 15.2470043
H -1.4340004 -3.6290010 15.1480042
O -2.0230006 14.2850040 -6.1270017
H -2.0460006 15.2990043 -6.3200018
H -2.6740007 14.1120039 -5.3880015
O 18.1760051 -4.0540011 -5.0550014
H 17.4960049 -3.4180010 -4.8300014
H 18.0030050 -4.6610013 -4.3130012
O 13.4520038 0.2040001 11.4890032
H 12.9010036 1.0440003 11.6310033
H 12.8100036 -0.4630001 11.7050033
O -17.1540048 0.6530002 1.0540003
H -17.2540048 1.5760004 1.4240004
H -16.2150045 0.7060002 0.8970003
O 1.5420004 -2.7040008 -14.2210040
H 1.9070005 -2.2090006 -15.0060042
H 1.8390005 -3.5890010 -14.5070041
O -3.6106224 -0.1784743 6.9649953
H -3.1151608 -0.7208241 7.6135189
H -3.2472356 0.7104327 7.1681807
O 4.9720014 15.3230043 2.2750006
H 4.0290011 15.3380043 2.3560007
H 5.2340015 15.6800044 3.1440009
O 18.3110051 -3.2280009 5.1360014
H 18.0690051 -3.5260010 6.0690017
H 18.3200051 -4.1730012 4.8750014
O -16.2400045 -5.6370016 -4.1580012
H -15.7280044 -5.9630017 -3.3530009
H -16.7990047 -4.9410014 -3.8100011
O 1.5204400 -6.2579559 -4.4311881
H 1.9784027 -5.5770300 -3.8954808
H 0.6595491 -5.8067386 -4.5548057
O -0.5350001 -9.1820026 15.0460042
H 0.3530001 -9.3950026 15.4680043
H -0.1380000 -8.9430025 14.2170040
O 2.9800008 15.1970043 -3.4600010
H 3.1060009 14.3820040 -2.8840008
H 3.0610009 14.9090042 -4.2870012
O 1.6400005 14.0600039 11.1830031
H 2.4950007 14.1170040 11.5510032
H 1.2960004 13.1410037 11.1990031
O -2.1020006 -12.9230036 -3.8630011
H -2.0650006 -13.4840038 -3.0990009
H -2.1480006 -12.0500034 -3.4750010
O -4.3040012 -11.8100033 10.5040029
H -3.6470010 -11.2450031 10.0890028
H -3.6390010 -12.5580035 10.6190030
O 2.5954312 5.9296806 -3.7249134
H 2.0790619 5.7482704 -4.5391878
H 1.8933321 5.9273998 -3.0426333
O -5.2940015 10.1460028 13.0180036
H -4.6740013 9.5180027 13.4160038
H -6.2090017 10.0860028 13.4690038
O 11.7260033 5.5120015 10.2270029
H 12.2020034 5.9080017 9.4500026
H 11.7310033 4.5950013 9.8980028
O -3.6330382 -7.1097211 -4.1695464
H -4.4796387 -7.5654138 -3.9709139
H -3.9807771 -6.1909124 -4.2206016
O -3.6790010 -6.0560017 13.9640039
H -3.9410011 -5.7930016 14.8810042
H -2.7110008 -5.9930017 14.0530039
O -0.2242304 7.7602514 -5.7048311
H 0.4281816 7.0599391 -5.9201644
H 0.0384073 8.4645856 -6.3391778
O -1.5200004 12.7580036 11.8640033
H -1.6410005 12.2990034 12.7080036
H -1.8440005 13.6610038 12.1180034
O 15.3740043 -3.7410010 -7.0980020
H 16.1390045 -3.2840009 -7.4550021
H 15.5010043 -3.8020011 -6.1710017
O 11.6910033 -7.0420020 14.1090039
H 11.4510032 -6.3050018 13.5100038
H 11.2680032 -6.7480019 14.9610042
O -10.1200028 -5.7340016 -12.8480036
H -10.8760030 -5.1350014 -12.9340036
H -10.6630030 -6.4300018 -12.4240035
O -13.4110038 -5.8020016 4.1060011
H -13.7420038 -4.8980014 4.2450012
H -12.5770035 -5.6210016 3.6180010
O 7.7370022 -7.9650022 -15.3460043
H 7.8530022 -7.4420021 -14.5070041
H 7.8470022 -7.3720021 -16.0660045
O 3.7147169 -6.9238769 5.9721062
H 2.9391510 -6.3811969 6.2107032
H 4.1096061 -6.3804682 5.2670092
O 8.6640024 13.8340039 4.8770014
H 8.8590025 12.9460036 5.1340014
H 7.6770021 13.7700039 4.8180013
O -12.4773597 -2.1853123 0.5292569
H -12.9374886 -1.8019670 -0.2500563
H -11.6829310 -2.5539701 0.0973346
O 5.2710015 -0.6120002 -17.1120048
H 6.1820017 -0.9200003 -17.2510048
H 5.1890015 0.0900000 -17.8420050
O 4.8120132 -5.3565207 3.8933045
H 4.4458375 -4.4608364 3.7265306
H 4.3212922 -5.8427275 3.1849409
O 0.8620002 0.0750000 17.2950048
H 0.5690002 0.4880001 16.4330046
H 1.7950005 -0.2040001 17.1350048
O -6.2560018 -15.0960042 -5.1210014
H -6.7670019 -15.4110043 -5.8610016
H -6.8550019 -14.4200040 -4.7160013
O -6.8160019 -12.6300035 9.4980027
H -6.5340018 -13.5350038 9.2440026
H -5.9580017 -12.3000034 9.7500027
O -3.3822785 2.0930078 -6.0681552
H -2.8477346 2.7648182 -5.6000561
H -2.7044530 1.4866021 -6.4429557
O -3.7500010 5.8580016 14.4070040
H -3.9570011 6.6620019 13.9740039
H -4.2100012 5.9780017 15.2290043
O 13.6450038 5.9820017 -6.8240019
H 13.9170039 6.9330019 -6.9800020
H 14.5010041 5.7200016 -6.4580018
O 12.6590035 5.5020015 7.6250021
H 13.5260038 5.1100014 7.5490021
H 12.0090034 4.7590013 7.4360021
O -6.8316985 -3.1511121 -7.2140604
H -7.0729708 -2.2091058 -7.1371381
H -6.9463785 -3.2763619 -8.1750650
O -7.9677917 -1.1080828 9.4120936
H -8.3658634 -0.2170561 9.4270105
H -8.7280192 -1.5922438 9.8059234
O -4.6130013 15.3070043 -8.2400023
H -4.7760013 14.3420040 -8.1250023
H -4.8820014 15.6310044 -7.4000021
O 12.9740036 -3.2220009 -8.6030024
H 12.9720036 -2.3080006 -8.3350023
H 13.8640039 -3.5180010 -8.2260023
O 11.4550032 -1.6760005 8.9320025
H 10.8350030 -0.8840002 9.0730025
H 11.0630031 -2.2210006 8.1780023
O -8.5140024 -6.7220019 -14.7730041
H -7.6530021 -6.2660018 -14.4690040
H -9.1510026 -6.3090018 -14.0810039
O -11.4000032 -11.5590032 1.9900006
H -11.3070032 -10.5920030 2.2300006
H -12.0930034 -11.7870033 2.5660007
O -8.9450025 7.4990021 -14.4200040
H -9.4030026 7.9110022 -13.6710038
H -7.9730022 7.6060021 -14.2640040
O -10.6242243 6.0213753 1.1468683
H -11.1503857 5.3839962 0.6158223
H -10.8626094 6.8737250 0.7251044
O 5.6270016 -13.4880038 1.3180004
H 4.8150013 -13.6820038 0.7740002
H 5.6480016 -12.4950035 1.3490004
O 9.6750547 5.4260058 -2.8085614
H 10.4816312 5.8983478 -2.5152579
H 10.0419407 4.5306792 -2.9762696
O 4.7860013 8.3970024 15.4090043
H 4.4380012 8.9900025 16.0940045
H 5.7840016 8.4870024 15.5570044
O -6.6479814 -9.1009581 -0.8762837
H -7.3104952 -9.7511994 -1.1923379
H -5.8699709 -9.6830725 -0.7863643
O -5.7262478 7.4477817 -1.2489754
H -6.5179385 7.8874730 -0.8846368
H -6.1594706 6.6665267 -1.6437366
O 14.0010039 -7.6470021 0.2760001
H 14.4100040 -8.0470023 1.0370003
H 13.1430037 -8.0550023 0.2510001
O 13.6640038 13.8370039 -2.1020006
H 13.0480037 13.2360037 -2.5640007
H 13.0090036 14.0550039 -1.4090004
O -7.4650021 -14.6890041 0.0900000
H -7.3240020 -13.9910039 -0.5440002
H -6.4870018 -14.9990042 0.0700000
O -8.0952999 6.9090890 -4.0754731
H -8.5337019 6.2771867 -4.6807728
H -8.0329987 6.3827142 -3.2448565
O -6.5420018 3.4810010 16.1020045
H -7.1540020 3.3990010 16.8760047
H -6.4290018 4.4420012 15.9940045
O 11.4930032 -11.3860032 -4.7570013
H 11.2430031 -11.2030031 -3.8610011
H 10.8170030 -12.0570034 -4.9050014
O 11.2382296 3.1665221 -5.6619469
H 11.2187738 3.1194443 -4.6836435
H 11.2268630 4.1368890 -5.8126728
O 4.5840013 7.1010020 12.3450035
H 4.6050013 6.4410018 11.6120032
H 5.4470015 6.9570019 12.7390036
O -7.1920020 -10.0870028 -7.5660021
H -6.5600018 -9.4480026 -8.0450023
H -7.8090022 -10.3560029 -8.3390023
O -8.8400025 -10.4340029 9.5220027
H -9.4960027 -11.1360031 9.7950027
H -7.9720022 -10.8180030 9.7900027
O -7.5698102 6.0422590 -8.3218416
H -7.4340037 7.0049297 -8.4447205
H -7.8159338 5.7829420 -9.2349957
O -6.8632567 8.8037210 7.9417817
H -7.2107785 9.6184530 8.3695453
H -6.3248952 9.1988124 7.2252247
O 8.3037410 -7.0370126 7.3059004
H 9.0373128 -7.3284453 6.7365501
H 7.5780297 -7.0927457 6.6401337
O 11.7040033 8.1810023 -11.4610032
H 11.6700033 7.2600020 -11.1870031
H 12.0390034 8.6080024 -10.7040030
O 9.7120027 8.7640025 10.2080029
H 9.8920028 8.2150023 9.3680026
H 10.6330030 8.7280024 10.5970030
O -5.4270015 -13.9120039 -9.0610025
H -5.0970014 -14.4470040 -8.3220023
H -4.6260013 -14.0350039 -9.5650027
O -4.6665254 -10.8141034 6.8426867
H -4.0316855 -10.1106091 7.0832672
H -5.4944655 -10.4737803 7.2155660
O -2.6618082 5.3040720 -8.5369224
H -2.6421984 5.6811086 -7.6343686
H -3.3411315 4.6088712 -8.4568613
O -2.6416226 6.8919902 10.9001713
H -3.4411901 7.4380691 11.0438777
H -3.0234982 5.9960599 10.9711195
O 14.1850040 7.9000022 9.8470028
H 14.4640040 6.9670019 9.9260028
H 14.4370040 8.1330023 8.9400025
O -16.3750046 7.3470021 6.8350019
H -15.9250045 6.4780018 7.0370020
H -15.7180044 7.9680022 7.1240020
O 0.1410000 -13.2470037 -7.0790020
H 0.4840001 -13.6840038 -6.2700018
H 0.4700001 -12.3290035 -6.8340019
O -0.2680001 -13.1780037 7.7790022
H -0.7530002 -13.8480039 7.2530020
H 0.0530000 -13.7540038 8.5020024
O 1.6534905 7.5896189 -10.7479489
H 2.0114152 6.8070544 -11.2228159
H 2.0069848 8.2999740 -11.3294931
O 1.6188753 9.7003037 6.0279684
H 1.0859586 8.9239424 6.3364253
H 1.5694538 10.2632464 6.8118408
O 15.6070044 6.0500017 5.7300016
H 15.4580043 5.0880014 5.7680016
H 16.3620046 6.1260017 6.3180018
O -15.2710043 5.1690014 8.7660025
H -16.2210045 5.3430015 8.8880025
H -15.2500043 4.2520012 8.6470024
O 0.9770003 -14.6990041 -9.2740026
H 0.7320002 -14.3090040 -8.4130024
H 0.8380002 -15.6540044 -9.0990025
O 0.9520003 -14.4110040 10.0040028
H 0.7140002 -14.3190040 10.9110031
H 1.6930005 -13.8380039 10.0620028
O 2.9020073 7.1434166 -8.3362430
H 2.7280608 6.1821272 -8.3834412
H 2.4648264 7.4150673 -9.1689303
O 2.6280375 7.3534547 9.2034435
H 1.8191103 6.8106839 9.1672081
H 2.4547531 7.8793883 10.0045232
O -12.4230035 9.9530028 -8.0140022
H -13.2360037 9.5120027 -7.6680021
H -12.2080034 9.4620026 -8.8100025
O -11.7250033 7.6260021 8.3140023
H -11.2190031 7.4390021 7.4490021
H -11.5950032 6.7870019 8.8390025
O 5.8370016 -15.0540042 -9.3020026
H 4.9440014 -15.4680043 -9.4010026
H 6.3730018 -15.3650043 -10.0810028
O 2.5150007 -12.3870035 8.5100024
H 2.4110007 -11.5200032 8.9900025
H 1.8460005 -12.4430035 7.8090022
O 7.2000300 5.4765481 -6.4868436
H 6.5887474 4.7632838 -6.7729398
H 6.5792570 6.2314042 -6.5978618
O 2.6058053 3.0706406 11.8616913
H 2.7333669 2.9718947 10.8994999
H 1.6465139 3.2628609 11.9241364
O -7.6287372 2.6264682 -9.5769694
H -7.7326355 1.6850029 -9.8283884
H -7.9976972 2.6292921 -8.6886062
O -10.3430029 3.0870009 13.9330039
H -10.4670029 2.1570006 13.6770038
H -11.0110031 3.5800010 13.4700038
O 8.5340024 -14.0870039 11.1190031
H 9.3920026 -13.9460039 10.7030030
H 7.9600022 -13.9680039 10.3170029
O 13.4720038 2.4850007 -9.8160027
H 13.1860037 2.2640006 -10.6770030
H 12.6050035 2.3540007 -9.3570026
O 10.9130031 3.4250010 7.7140022
H 11.1500031 2.4940007 7.6930022
H 9.9600028 3.4030010 7.5120021
O -5.9470017 -15.3160043 9.2960026
H -5.5590016 -15.7310044 10.0780028
H -6.0090017 -16.0230045 8.7190024
O -3.7407597 0.9142548 -9.1870855
H -3.3112560 0.6601013 -10.0278462
H -3.0555850 0.6459051 -8.5486151
O -4.1727461 4.5539116 10.7090283
H -4.9660613 4.8136608 11.2376460
H -4.3721565 3.5901503 10.6038994
O 15.9570045 3.8590011 -9.0000025
H 15.0670042 3.3780009 -9.0380025
H 16.3160046 3.4720010 -9.8530028
O 12.9490036 1.0800003 8.3090023
H 13.3990037 0.8770002 7.4410021
H 12.4590035 0.2190001 8.4820024
O -3.3268843 -1.8852369 -11.9300392
H -2.8027196 -1.0534333 -11.8715708
H -3.1733031 -2.1510392 -12.8563165
O -1.6740595 3.9234699 9.2868259
H -2.5159018 4.0865709 9.7444289
H -1.9480329 3.2839139 8.5930118
O 16.9400047 3.7350010 7.8500022
H 16.4300046 3.5710010 7.0440020
H 17.4120049 2.9150008 7.8020022
O -14.9530042 5.9690017 -7.1940020
H -14.9910042 5.7650016 -8.1200023
H -15.3510043 5.1730014 -6.9080019
O 1.5860004 -17.0670048 -7.7650022
H 1.8060005 -17.9600050 -8.1010023
H 2.3970007 -16.6000046 -8.2100023
O 2.0351693 4.5169238 -8.4814753
H 1.2330825 4.4098068 -9.0366349
H 2.5566203 3.7256318 -8.7394405
O 1.8596978 4.0214504 7.7178783
H 1.3595003 4.7541348 8.1294582
H 1.7044842 4.1943229 6.7689345
O -8.4450024 3.0300008 -15.4250043
H -8.2830023 3.2890009 -16.3380046
H -8.3900023 2.0800006 -15.3540043
O -15.9150045 5.7330016 3.8540011
H -15.1350042 5.5520016 3.2590009
H -15.8970044 4.9860014 4.5390013
O 5.5250015 -15.5120043 6.3300018
H 4.9810014 -16.2570045 6.6260019
H 5.1430014 -14.8170041 6.9370019
O 5.7134446 2.1683409 -11.3687343
H 5.8430186 2.9178106 -10.7505784
H 6.4897356 2.3187064 -11.9468915
O 4.0419241 1.9928621 3.5992951
H 4.0884029 2.0675486 2.6245264
H 4.1185169 2.9150363 3.8947931
O 2.6840008 4.9850014 18.4910052
H 2.8150008 3.9660011 18.7090052
H 3.5380010 5.2100015 18.8230053
O -5.9127522 -1.5086244 -11.2174477
H -6.1889435 -2.2710382 -10.6738753
H -4.9511992 -1.6918396 -11.3415572
O -10.2490029 0.4360001 12.7550036
H -10.2470029 0.3830001 11.7650033
H -9.3490026 0.1040000 12.9850036
O -6.5390018 13.0630037 7.5350021
H -6.9970020 12.5880035 6.8040019
H -5.7720016 13.3510037 7.0430020
O 13.3100037 -0.0550000 -11.1490031
H 12.8120036 -0.4940001 -10.4370029
H 14.2360040 -0.3310001 -11.0060031
O 11.4839878 -1.2642224 5.4458247
H 10.5689189 -0.9121115 5.4571231
H 11.3447282 -2.1038093 5.9291761
O -1.7300476 0.2577555 -7.3178569
H -0.7488002 0.2800345 -7.3694366
H -1.8858860 -0.6983827 -7.4539013
O -4.7182978 1.9380260 10.6464322
H -5.2543265 1.3485655 11.2100797
H -4.0157326 1.3124397 10.3767182
O 18.1280051 0.7850002 -7.3650021
H 18.1940051 1.7400005 -7.3850021
H 17.2130048 0.6080002 -7.7400022
O 13.7240038 3.1080009 10.1180028
H 13.3150037 2.5850007 9.4570026
H 13.0480037 3.1820009 10.8670030
O -1.5967410 -1.0805683 -14.2987150
H -2.1217923 -0.2525033 -14.3039913
H -0.9540329 -0.8591385 -14.9970718
O -7.8237222 -0.3850817 3.8103827
H -8.6573740 0.1340466 3.8460215
H -7.3093169 0.0116885 4.5429917
O 2.2490006 19.2120054 4.9780014
H 1.2800004 19.1560054 4.7410013
H 2.7090008 19.2380054 4.1380012
O 12.2916467 -1.6855391 2.8985124
H 12.0465249 -1.4312097 3.8201016
H 13.1912932 -2.0476320 3.0501250
O 0.1491783 -2.2474868 -9.6234661
H -0.5533286 -2.6701757 -10.1397105
H 0.7354149 -1.9232782 -10.3388169
O -2.9366736 -0.1412384 10.3057679
H -2.4389697 -0.6753292 9.6499842
H -3.8025739 -0.6167440 10.2834973
O -3.7830011 17.7080050 7.7200022
H -3.7680011 17.0290048 8.4610024
H -3.9590011 17.2650048 6.8820019
O 15.0910042 0.3330001 6.5720018
H 15.4340043 0.3620001 5.6620016
H 15.9000044 0.6300002 7.0550020
O -13.6630038 2.3210006 -12.4830035
H -12.8010036 2.8260008 -12.2130034
H -13.7360038 1.5710004 -11.8880033
O -17.5570049 0.5350001 7.5420021
H -18.0520051 -0.3370001 7.5200021
H -18.3290051 1.2030003 7.4180021
O 0.2640001 -16.9500047 8.6390024
H 0.0750000 -17.5670049 9.3200026
H 0.2360001 -16.1520045 9.1420026
O 3.5718000 2.2766189 -9.0960502
H 3.1865873 1.8578665 -9.8945850
H 4.2269216 1.5896546 -8.8515029
O 1.7037696 1.0960284 4.9613447
H 2.1013043 0.5425896 5.6625841
H 2.4890316 1.3036846 4.4192699
O 17.6860049 1.0920003 7.6100021
H 18.5560052 1.1930003 7.2600020
H 17.8830050 0.9560003 8.5580024
O -13.3170037 0.3970001 -10.6440030
H -12.8220036 -0.4460001 -10.7740030
H -12.8060036 0.7380002 -9.9310028
O -12.9680036 2.3580007 9.8740028
H -13.0390036 2.7070008 10.8130030
H -13.8830039 2.0980006 9.6020027
O 8.4889900 -0.7336176 -10.1749647
H 9.1959189 -0.5946699 -10.8338861
H 8.5708541 0.0647185 -9.6116743
O 5.9059346 2.9124911 6.4868708
H 5.1819952 3.2922976 5.9473852
H 5.8342146 3.4616762 7.2937604
O -0.8135644 -3.3999538 -12.9189780
H -1.2060639 -2.6058957 -13.3345388
H 0.0857186 -3.3160864 -13.2831183
O -7.1981987 -2.4497068 7.1039222
H -8.1571595 -2.5777709 6.8889523
H -7.3086258 -2.0088193 7.9728007
O -1.2040003 14.3800040 5.9260017
H -1.0100003 14.6260041 5.0270014
H -0.8760002 15.0750042 6.4680018
O 13.0860037 -5.3680015 4.1080011
H 13.8910039 -4.9900014 4.4130012
H 12.9270036 -4.8110013 3.3710009
O -0.1440000 -6.9190019 -13.0190036
H -0.4570001 -6.8150019 -13.9740039
H -0.4550001 -6.0520017 -12.6850036
O -4.7455002 -3.9627882 3.0307070
H -3.8786307 -3.8304599 3.4736653
H -5.3635358 -3.4878815 3.6273496
O -3.1610009 -2.2470006 18.8060053
H -3.3000009 -3.2080009 18.8580053
H -2.2360006 -2.1130006 18.9310053
O -0.8300002 14.3160040 2.7940008
H -1.5790004 14.1840040 2.2200006
H -0.5190001 15.2170043 2.4980007
O 14.7390041 -2.9160008 2.9810008
H 15.6960044 -3.0840009 3.2480009
H 14.7550041 -3.4660010 2.1980006
O -1.6950005 -17.7210050 3.7530011
H -1.4630004 -17.4100049 2.8870008
H -2.4310007 -17.1480048 3.9440011
O 0.1260000 -0.6260002 -16.5090046
H 1.0950003 -0.5770002 -16.2560045
H -0.0440000 0.2570001 -16.8770047
O -6.1808645 0.0211210 6.0592731
H -5.2385407 -0.0354906 6.3411731
H -6.5288909 -0.7780129 6.4920094
O 15.0120042 -0.4680001 1.3810004
H 14.5440041 0.1290000 1.9830006
H 15.2890043 -1.2090003 1.9600005
O -13.0720037 -2.5770007 -9.1920026
H -12.7000036 -3.4040010 -8.9100025
H -12.7930036 -2.5370007 -10.0570028
O -16.0450045 -2.4250007 7.4830021
H -15.5990044 -1.7000005 7.9770022
H -16.8830047 -2.4960007 8.0020022
O 4.9713418 -2.8869132 -6.7877167
H 5.4459937 -3.6910963 -7.0805367
H 5.7458669 -2.2940387 -6.6816439
O 2.9159064 -0.5221321 6.8848780
H 3.5069736 -1.0898069 6.3442239
H 3.5650341 -0.1491860 7.5182715
O 5.4160015 13.4160038 -9.4260026
H 5.9380017 13.9540039 -10.0290028
H 5.8870016 13.5270038 -8.5480024
O -10.7890030 3.6840010 -11.6840033
H -10.0600028 3.9800011 -12.3230034
H -10.3770029 3.4100010 -10.8080030
O -12.6177810 2.8319963 4.9220338
H -11.7503225 2.7131772 5.3461530
H -12.5983068 3.7601632 4.6292550
O 5.8879919 -0.5975464 -11.1355187
H 5.7338054 0.3699553 -11.0507872
H 6.7843853 -0.6747885 -10.7419164
O 5.7575311 -0.2200016 3.5514321
H 5.5979162 -0.3978918 2.5990773
H 5.1874161 0.5651224 3.6852644
O -2.2488750 -3.7010692 -10.1381004
H -1.9000145 -4.5449984 -10.5017474
H -2.4967235 -3.2106056 -10.9543727
O -5.1304410 -4.5654857 6.9939209
H -5.6008692 -5.4218315 6.8986294
H -5.8602956 -3.9203396 6.9449542
O -1.8673038 11.4818778 -6.7907721
H -2.5800232 11.2961553 -7.4363555
H -1.8863602 12.4573954 -6.7404299
O -4.9350014 14.2060040 12.3870035
H -5.3340015 13.5080038 11.8600033
H -5.1890015 13.8840039 13.2750037
O 10.8028802 -3.4306440 6.9477834
H 9.8520159 -3.6513515 6.8299942
H 11.1854985 -4.3348818 6.9555667
O -1.3913397 -6.3312771 -10.4455224
H -0.7109287 -6.8180065 -10.9378171
H -2.0280393 -7.0635948 -10.2760199
O -2.7273640 -7.9156910 5.1413720
H -3.5117354 -7.4836126 4.7391792
H -2.5726138 -8.6238023 4.4743645
O -1.9210005 12.6190035 -13.3620037
H -1.6630005 12.3260034 -12.5290035
H -2.3360007 13.5160038 -13.1920037
O 0.9260003 12.7590036 4.0350011
H 0.9110003 12.9460036 5.0230014
H 0.0790000 13.1300037 3.7510010
O 15.7240044 -7.0860020 5.2250015
H 15.5690044 -6.3680018 5.8750016
H 15.2440043 -7.7880022 5.7230016
O -16.5510046 -5.4540015 5.7230016
H -17.4590049 -5.4030015 6.0180017
H -16.6340047 -5.5240015 4.7390013
O 2.3642789 -6.6628313 -6.9748252
H 2.1626514 -6.4703900 -6.0328414
H 1.5762135 -6.2670992 -7.4065062
O -2.3499395 -4.1435658 7.2564768
H -3.2799185 -4.3550528 7.0419620
H -1.8574710 -4.8130158 6.7537277
O 2.1660006 14.7020041 -10.1390028
H 1.7740005 15.5310043 -10.5040029
H 2.7280008 15.2720043 -9.5560027
O 1.6750005 13.6550038 8.3440023
H 2.2260006 13.8080039 9.1020025
H 2.4150007 13.5810038 7.6520021
O -14.6220041 -3.6110010 5.7160016
H -15.1600042 -4.4270012 5.5850016
H -15.1620042 -3.1350009 6.4150018
O 5.9340017 -4.5560013 -11.5360032
H 6.4140018 -5.3850015 -11.4730032
H 6.5150018 -3.7630011 -11.1940031
O 0.5142427 -2.8766971 5.6613438
H -0.2742677 -2.3038533 5.5660542
H 0.8014149 -2.9129996 4.7208806
O 4.9720014 13.9570039 -12.2350034
H 4.4650012 13.4030038 -11.6050032
H 4.3670012 14.0120039 -13.0330036
O 0.8310002 16.4030046 5.3400015
H 0.5090001 17.2060048 4.8720014
H 1.3730004 16.7580047 6.0630017
O -13.7390038 -5.3720015 -10.1660028
H -13.5450038 -6.2090017 -9.6480027
H -14.0780039 -4.8520014 -9.4310026
O -16.2260045 -7.3690021 7.5970021
H -16.4310046 -6.4490018 7.6820021
H -15.2950043 -7.2550020 7.2750020
O 4.7434790 -6.8147136 -8.2865461
H 4.5588297 -7.5177814 -8.9467000
H 3.8496933 -6.6646367 -7.9075987
O 0.5911673 -7.7545295 8.6306492
H 0.5874674 -8.0834726 7.7043440
H -0.3415476 -7.4809623 8.7420174
O 7.2020020 13.6600038 -7.2990020
H 7.2480020 13.3700037 -6.3840018
H 7.3720021 14.5830041 -7.1320020
O 3.8870011 13.1170037 6.5870018
H 4.5820013 12.4740035 6.7860019
H 4.4490012 13.8990039 6.7250019
O -3.5589993 -7.4748213 -6.9332253
H -3.6030798 -7.5044868 -5.9577925
H -3.5156539 -6.5024723 -7.0596045
O -6.0140017 -9.0390025 8.7960025
H -6.4960018 -8.6510024 9.4870027
H -5.1380014 -9.0530025 9.1850026
O -5.2320015 12.7280036 -7.2940020
H -6.1480017 12.5170035 -7.0590020
H -4.8090013 11.8840033 -7.6780021
O -5.4490015 12.1400034 3.1830009
H -5.8190016 12.9810036 2.8370008
H -6.0080017 11.4710032 2.7620008
O 9.5610027 -9.0370025 11.4920032
H 9.7750027 -9.7290027 10.8540030
H 10.2750029 -8.4190024 11.2570032
O 11.4400032 11.9390033 -10.2840029
H 11.2990032 11.2850032 -9.6250027
H 12.1270034 11.5240032 -10.8150030
O 10.6200030 13.4320038 7.4690021
H 9.7340027 13.0290036 7.3610021
H 10.9330031 12.8650036 8.1280023
O -17.0490048 -5.0560014 3.1780009
H -17.2880048 -5.9660017 2.8730008
H -17.4790049 -4.5570013 2.4140007
O -3.0970009 -11.1220031 -9.0500025
H -2.9730008 -12.0960034 -8.8630025
H -3.3090009 -10.9030031 -8.1040023
O -2.7850497 -9.0261311 7.6181309
H -2.6790396 -8.6596130 6.7099002
H -2.5171747 -8.2462859 8.1498650
O -0.7127081 8.8945444 -10.0472071
H 0.0637949 8.3515548 -10.3099582
H -1.4333119 8.4380834 -10.5292288
O -5.6450987 8.7079514 3.0492108
H -5.5257656 9.3299639 2.3100838
H -6.5482467 8.3748132 2.8614118
O 0.6145735 -9.2732661 -8.9962095
H 0.2817478 -9.9066796 -9.6661363
H -0.1408661 -9.2447527 -8.3668588
O -2.0099711 -7.0662594 9.2928449
H -2.1966658 -7.6031895 10.0908683
H -2.2518173 -6.1733618 9.6177676
O 0.1686601 9.7323169 -7.5906209
H -0.2208872 9.4426351 -8.4451870
H -0.4615279 10.4295318 -7.3158380
O -2.9760008 12.7120036 9.3800026
H -2.2220006 12.3110034 8.9330025
H -2.4160007 12.9800036 10.1810028
O -2.3480007 -13.5580038 -8.2350023
H -1.4580004 -13.4730038 -7.7760022
H -2.6660007 -14.3400040 -7.7330022
O -1.1440003 -6.1330017 12.7720036
H -0.7690002 -7.0120020 12.6740035
H -0.3620001 -5.6060016 12.6140035
O -0.4543526 4.2119052 -9.6992635
H -0.7344049 4.4743490 -10.5986024
H -1.1842034 4.6457674 -9.2037808
O -2.1658446 8.0559983 8.4310480
H -2.7390765 8.8316808 8.5573985
H -2.2522648 7.5968129 9.2877930
O 13.9540039 8.6430024 -6.8040019
H 13.6650038 8.8690025 -5.9270017
H 14.6100041 9.2920026 -6.9930020
O -7.5180021 -16.0440045 -7.3960021
H -7.3800021 -16.3280046 -8.3410023
H -8.1950023 -15.3480043 -7.5530021
O -5.7386213 5.1139815 -6.5233552
H -5.3163983 4.4849672 -7.1416020
H -6.4171212 5.4921258 -7.1242798
O -6.5170018 5.0580014 11.9770034
H -7.0730020 5.8570016 12.0020034
H -6.9490019 4.4130012 12.5660035
O 12.8380036 5.6510016 -9.3620026
H 13.2030037 5.9290017 -8.4960024
H 12.4480035 4.8530014 -9.0790025
O 9.9130028 6.4610018 12.1490034
H 10.6070030 5.9170017 11.7100033
H 9.4290026 6.8810019 11.4150032
O -8.5090024 -10.9290031 -1.7730005
H -9.3500026 -11.0870031 -1.2580004
H -8.9870025 -10.6650030 -2.6120007
O -5.3919558 7.1214165 -4.6448125
H -5.3245811 6.3721078 -5.2758147
H -6.3032277 6.9938444 -4.3097226
O 10.3010029 -10.7320030 -1.9200005
H 9.4890027 -10.2780029 -1.6380005
H 10.2890029 -11.5210032 -1.3120004
O 10.1442155 9.2205846 -3.4664810
H 9.9239162 9.0558672 -2.5285696
H 9.5756844 8.5656201 -3.9083998
O -4.8450014 -11.8810033 -3.6070010
H -4.8610014 -11.7770033 -4.6100013
H -4.0750011 -11.3940032 -3.3800009
O -7.9436770 5.5200519 0.8943139
H -7.7436728 6.2715352 1.4801707
H -8.9233944 5.5160147 0.9629962
O 6.9180019 -12.0940034 -2.3150006
H 6.3620018 -11.6730033 -1.6250005
H 7.5830021 -11.3460032 -2.4780007
O 12.4230572 3.6458056 -0.8516543
H 11.5288061 3.9199033 -0.5540984
H 12.8795757 3.7103606 0.0125022
O -8.3823254 -9.8479079 3.0029764
H -9.2940091 -9.5678394 2.7747269
H -7.8737566 -9.0847619 2.6566717
O -5.9500017 8.0080022 -14.3920040
H -5.1030014 8.1000023 -14.8900042
H -5.8050016 7.0420020 -14.2130040
O -8.1306940 8.6430725 -0.4426324
H -8.1064043 9.1742475 -1.2708158
H -9.1010022 8.5071320 -0.3585116
O 8.6570024 -11.1900031 0.8070002
H 9.1690026 -10.6160030 1.4730004
H 9.1840026 -11.9970034 0.6090002
O 9.3760026 10.4250029 1.1300003
H 8.6990024 10.8910030 1.6340005
H 10.2310029 10.8270030 1.4840004
O -9.0570025 -9.2070026 -11.7240033
H -9.3330026 -8.7900025 -12.5550035
H -9.1300026 -10.1230028 -11.9730034
O -11.1320031 -14.0880039 5.0540014
H -10.5250029 -13.3560037 5.3530015
H -10.5290029 -14.7000041 4.5240013
O -8.6660024 5.5860016 -10.8490030
H -8.9840025 6.4650018 -11.0070031
H -8.3810023 5.3760015 -11.7500033
O -9.9056670 6.8062930 6.3294353
H -10.0776801 6.4530459 5.4259421
H -8.9266996 6.7036523 6.3470919
O 9.0200025 -10.2270029 5.5240015
H 8.7220024 -10.7890030 4.7120013
H 8.2480023 -10.2960029 6.1330017
O 8.4620024 7.5410021 -11.8220033
H 7.5150021 7.7260022 -11.6440033
H 8.7550025 8.3090023 -12.3230034
O 7.7807331 9.0528184 4.3238943
H 8.3738560 8.3787685 3.9334534
H 7.0454699 9.0475276 3.6889678
O -9.0040025 -14.0890039 9.4230026
H -8.3330023 -13.3780037 9.4250026
H -9.7110027 -13.4770038 9.7710027
O -10.1960029 4.2740012 -9.1590026
H -10.8370030 4.7880013 -9.6700027
H -9.3150026 4.4640012 -9.5100027
O -11.2120031 3.6370010 8.5920024
H -11.7440033 3.0840009 9.2770026
H -11.9220033 4.0920011 8.1000023
O 6.8330019 -16.6130046 -7.2560020
H 5.9480017 -16.5600046 -6.8430019
H 6.6060018 -15.9600045 -7.9390022
O 6.3340018 -15.3370043 9.7070027
H 5.7840016 -14.7640041 9.0960025
H 5.7440016 -15.4750043 10.4430029
O 8.1397896 1.5146750 -8.5170121
H 7.1825510 1.3192489 -8.4996684
H 8.2284363 2.0255591 -7.6848136
O 5.8658511 4.7587638 8.5221736
H 6.7533315 5.1692664 8.4779796
H 5.3276454 5.4718829 8.1167994
O -9.7860027 -15.7380044 -2.7630008
H -9.9170028 -16.2920046 -3.5220010
H -9.5540027 -16.4610046 -2.1290006
O -8.8825866 2.8504225 -5.5152384
H -9.1155892 2.0579586 -4.9785124
H -7.9711015 2.9863299 -5.1682545
O 8.5652352 2.8686421 -6.1711537
H 8.3322100 3.8108995 -6.1128112
H 9.5437723 2.9116432 -6.0637674
O 4.6640013 2.5050007 13.4810038
H 4.5250013 3.2810009 14.0940039
H 4.0210011 2.7230008 12.7690036
O -6.5744836 0.2126502 -3.3619935
H -7.5072377 0.4236413 -3.5644040
H -6.4275383 0.8137887 -2.6002293
O 5.6510016 -17.9360050 -2.4890007
H 5.2880015 -18.8140053 -2.7450008
H 6.5570018 -18.0650051 -2.8280008
O 7.5263063 1.5261237 -0.4580914
H 7.6188615 0.5697202 -0.6149944
H 7.1062390 1.7972399 -1.2958052
O 6.7560019 0.8760002 15.3770043
H 5.9020017 0.8220002 14.8660042
H 6.4240018 0.6070002 16.2550045
O -10.0710028 -14.0290039 0.8400002
H -9.1460026 -14.3240040 0.7170002
H -9.9160028 -13.2600037 1.4380004
O -7.6206953 5.4604358 -1.8162815
H -8.0148521 4.5720602 -1.9447246
H -7.6822065 5.5039562 -0.8360914
O 7.5760177 5.0187609 -1.0477163
H 8.2065069 5.1425807 -1.7878611
H 6.9501691 5.7526540 -1.2148485
O 4.5550013 0.4670001 17.4120049
H 4.2240012 -0.3190001 17.0650048
H 3.9160011 1.0710003 17.0500048
O -14.7900041 -8.5760024 3.9190011
H -14.0980039 -7.8890022 3.9930011
H -15.0050042 -8.6430024 2.9920008
O -9.0983040 3.5540042 4.5709081
H -9.4201430 4.4165553 4.2373487
H -8.1394145 3.7308986 4.5455783
O 8.5360024 -12.5340035 3.8600011
H 8.2790023 -13.3890037 3.5150010
H 9.4600026 -12.6890036 3.8230011
O 4.9670014 5.3870015 -15.9340045
H 5.0950014 6.0170017 -16.7010047
H 4.8040013 4.5080013 -16.3940046
O 7.2916155 7.7788906 0.8779562
H 6.6706632 8.3166022 1.4043114
H 6.7193193 7.4772709 0.1444219
O -7.6530617 -0.5537439 -7.2706187
H -6.8496675 -0.0983280 -6.9306634
H -7.6971644 -0.2600127 -8.2018471
O -12.5660035 -0.9320003 13.8530039
H -12.8280036 -0.5410002 14.7160041
H -11.9100033 -0.2760001 13.5400038
O 8.0900023 -14.8850042 6.8390019
H 8.4810024 -15.7460044 7.0230020
H 7.2300020 -15.2080043 6.4750018
O 10.8500030 1.7360005 -9.0400025
H 10.7060030 1.8080005 -9.9810028
H 9.9540028 1.8780005 -8.7000024
O 6.9690020 3.1440009 11.9030033
H 6.1710017 3.0740009 12.4060035
H 6.7450019 3.9030011 11.4440032
O -9.5560027 -5.0690014 -8.9100025
H -10.4360029 -5.0160014 -8.5200024
H -9.6180027 -5.8300016 -9.5090027
O -9.9760028 -2.4400007 10.6080030
H -10.4180029 -2.7540008 11.4270032
H -10.6950030 -2.4560007 9.9530028
O -7.7610022 15.0020042 9.5160027
H -8.4170024 15.5970044 9.0430025
H -7.5340021 14.2580040 8.9100025
O 8.2130023 -3.5050010 -10.1450028
H 8.3190023 -2.4940007 -9.9980028
H 9.1320026 -3.7610011 -10.1510028
O 6.7486534 -2.7814235 10.1594866
H 7.4365682 -3.4583894 10.1377514
H 6.4540711 -2.7851142 9.2231637
O -9.5319566 -0.1558225 -1.3838095
H -10.1967905 0.4719508 -1.0342857
H -9.1823006 -0.5439366 -0.5631746
O 7.6854569 -1.2370608 -1.0011247
H 8.2513982 -1.2664680 -1.8082365
H 8.2620957 -1.7164508 -0.3618866
O 5.2480015 -0.5880002 13.2170037
H 5.1800014 -1.5190004 13.5770038
H 4.2860012 -0.4540001 13.1810037
O 9.9820028 16.3910046 -2.3540007
H 9.8660028 16.6380047 -3.2340009
H 9.0000025 16.1660045 -2.1850006
O -5.6650016 -17.2870048 -3.1200009
H -5.5430016 -16.5250046 -2.4950007
H -5.9640017 -17.9870050 -2.4690007
O -8.8545067 3.0081013 -1.7063025
H -7.9998757 2.5313003 -1.7516766
H -9.1471397 2.6588802 -0.8351615
O 9.2765639 -2.2949627 0.9019367
H 8.8405383 -2.2033284 1.7786106
H 9.9565475 -1.5927604 0.9466904
O -7.9125552 -0.0637862 -10.0381642
H -8.6131015 -0.4497950 -10.5835853
H -7.1436072 -0.5678981 -10.3804828
O -7.2838509 3.6358699 8.8545586
H -6.9710443 3.5877200 9.7646236
H -7.9211444 4.3733424 8.8952875
O 3.5890010 -17.0990048 7.9110022
H 2.7640008 -16.6180047 7.6460021
H 3.4100010 -17.3370049 8.8200025
O 10.1690028 -0.9610003 -12.5460035
H 10.8010030 -1.6940005 -12.5440035
H 9.3430026 -1.3570004 -12.9730036
O 3.2993573 5.3030258 1.2102086
H 4.2242657 4.9997438 1.3445980
H 3.4387661 6.1553295 0.7445615
O -7.6027051 -3.4238800 -9.8888305
H -8.3639479 -3.8918882 -9.4765836
H -7.7413021 -3.6759655 -10.8244041
O -12.0430034 -1.0570003 8.9840025
H -12.9490036 -0.8400002 8.7670025
H -12.0330034 -1.8260005 8.3530023
O 10.7390030 -4.4290012 -9.6380027
H 10.9140031 -4.9360014 -10.4730029
H 11.6280033 -4.0750011 -9.5440027
O 6.8198758 0.3799314 7.0621287
H 6.1614952 0.1520488 7.7461984
H 6.4608495 1.2406610 6.7677377
O -11.7880033 -4.6510013 -7.5880021
H -11.8370033 -4.6750013 -6.6330019
H -11.9460033 -5.6150016 -7.6880022
O -13.3110037 -5.5620016 9.1120026
H -12.8740036 -6.3110018 9.6840027
H -13.6320038 -6.0550017 8.4220024
O -10.6420030 12.9240036 -9.1070025
H -10.0680028 12.3840035 -8.4330024
H -10.8300030 13.7510038 -8.6870024
O 6.6451907 -4.8930282 -7.8542850
H 7.1100594 -4.5873450 -8.6536087
H 6.0132127 -5.5646779 -8.1944213
O 3.8105916 -4.8591069 8.5203722
H 3.1723310 -4.9909319 7.7921425
H 3.2375805 -5.1158718 9.2719471
O 8.2150023 11.3410032 -9.4320026
H 7.6250021 11.8030033 -8.8030025
H 8.8580025 10.9710031 -8.8150025
O 4.4000012 13.6380038 9.4960027
H 4.6980013 14.4510040 9.0560025
H 4.9390014 13.0030036 9.0300025
O -8.6778608 -3.5030836 -3.3290674
H -8.9040187 -2.8284333 -4.0068172
H -8.3730682 -4.2331257 -3.8865959
O -8.7230024 16.5410046 -3.7780011
H -8.1680023 15.9040045 -3.3440009
H -8.0920023 17.2570048 -4.0160011
O 7.2121766 -3.9955979 -4.0946227
H 7.1200983 -4.7768613 -4.6575929
H 8.1093262 -3.7062090 -4.3588631
O 4.8460014 -2.8390008 14.5830041
H 5.4870015 -2.7300008 15.3260043
H 5.2360015 -3.4460010 13.9320039
O -14.1130039 -3.5230010 2.5330007
H -13.4790038 -3.0120008 1.9700006
H -14.2210040 -2.9430008 3.3090009
O 6.9648206 -4.3850609 2.2908549
H 7.3230909 -3.5687744 2.6921782
H 6.3494663 -4.6922798 2.9770751
O 4.0090011 -6.3100018 17.3370049
H 4.9890014 -6.1510017 17.4520049
H 3.5980010 -5.4850015 17.3630049
O -8.0480023 -2.9720008 -14.8710042
H -8.3590023 -2.7550008 -15.7740044
H -7.2660020 -2.2690006 -14.9330042
O -14.5860041 1.4840004 6.2340017
H -14.6100041 0.7720002 5.5710016
H -13.7870039 1.9780006 5.9790017
O 7.6150021 -1.5980004 -13.4520038
H 6.9060019 -2.2450006 -13.4780038
H 7.1220020 -0.7370002 -13.3990037
O 7.9326125 -1.9458925 3.3058671
H 7.1510336 -1.3548633 3.3327282
H 8.3936965 -1.6084418 4.1023860
O -4.7148457 -4.6441784 -9.3751799
H -3.8394099 -4.2905437 -9.6313502
H -4.5600099 -4.7300242 -8.4111583
O -12.1970034 -3.5130010 7.5250021
H -12.2790034 -4.3650012 8.0670023
H -12.9770036 -3.6080010 6.9170019
O -9.7840027 13.2470037 6.7570019
H -10.3240029 13.3530037 5.9600017
H -9.1750026 12.5720035 6.4440018
O 11.9160033 -6.2570018 -11.2350031
H 11.8690033 -7.1860020 -11.2020031
H 12.8450036 -6.1400017 -11.5510032
O 8.2197777 -4.2842172 6.5573725
H 8.0223604 -5.1801304 6.8804988
H 7.4183680 -3.8028851 6.8582874
O -10.2760029 -11.8380033 -9.2220026
H -9.2900026 -12.0050034 -9.2440026
H -10.5570030 -12.1030034 -10.1500028
O -9.0670025 -8.0200022 8.4920024
H -8.7780025 -8.9550025 8.5210024
H -8.5270024 -7.7570022 9.2340026
O -7.2600020 8.7910025 -8.5890024
H -6.5690018 8.7260024 -9.3020026
H -6.9790020 9.5050027 -8.0830023
O -7.9340022 11.2740032 5.8970017
H -7.2030020 10.7290030 5.5680016
H -8.5710024 10.4940029 5.9940017
O 10.6740030 -9.4060026 -8.7570025
H 11.3760032 -9.1130026 -9.3790026
H 11.1640031 -9.4320026 -7.9000022
O 6.3720018 -8.9250025 9.0580025
H 6.4760018 -9.1380026 10.0390028
H 7.1770020 -8.4310024 8.8880025
O 7.7740022 9.9060028 7.4440021
H 8.4740024 10.3460029 6.9020019
H 7.2080020 9.5390027 6.7460019
O -10.8670030 -7.0520020 -2.2560006
H -11.5920032 -6.3990018 -2.0660006
H -11.3510032 -7.9280022 -2.3890007
O -6.8980019 14.5230041 -2.5090007
H -7.5640021 13.7950039 -2.5240007
H -6.2120017 14.1630040 -3.1120009
O 7.9910022 -6.3160018 -5.8430016
H 7.4650021 -5.9570017 -6.6020018
H 8.8880025 -6.1280017 -6.2350017
O 6.6340019 -5.3830015 14.1920040
H 6.9640019 -5.1720014 13.2980037
H 6.8690019 -4.6150013 14.7450041
O 9.6020027 11.4600032 -5.0760014
H 10.0820028 10.9310031 -4.3720012
H 9.3540026 12.2400034 -4.4800013
O -5.3700015 -7.4170021 -15.2640043
H -5.9770017 -7.8040022 -15.8850044
H -5.1670014 -6.4840018 -15.5930044
O -6.9806004 -4.5984247 -0.4472663
H -6.3265112 -5.2149315 -0.8251667
H -7.7467178 -5.2110073 -0.4292110
O -5.9696974 10.5131544 0.8360815
H -5.7999732 9.9266048 0.0871196
H -5.2192425 11.1471056 0.7371197
O 9.3210129 -4.8989356 -0.1651719
H 9.3684250 -4.0082219 0.2461576
H 9.3311165 -5.4743925 0.6302321
O -9.3640026 -4.7870013 -16.9110047
H -8.7830025 -5.2130015 -16.2570045
H -9.9560028 -4.2460012 -16.3680046
O -9.5154421 -3.5996238 1.5212472
H -9.3087115 -2.6483853 1.5274592
H -9.7449601 -3.7072083 0.5723949
O 9.1915470 -1.2770940 -3.2477145
H 9.5349004 -2.0017984 -3.8145224
H 8.7553542 -0.7014599 -3.9123834
O 11.5960032 14.9860042 -0.5270001
H 10.9700031 15.4230043 -1.1890003
H 11.8800033 15.6830044 0.1380000
O -6.9384286 -6.0684685 -8.1917579
H -7.8267317 -5.9669870 -8.5870059
H -6.4217942 -5.4266047 -8.7130605
O -11.0440031 -6.1870017 6.7710019
H -10.5720030 -5.9080017 5.9870017
H -10.3270029 -6.7530019 7.1180020
O -7.9100022 12.4600035 -6.5980018
H -8.7670025 12.0270034 -6.8770019
H -8.3230023 13.2510037 -6.2500017
O -11.6400033 13.2120037 4.6160013
H -12.1340034 13.5660038 3.8270011
H -12.3260034 12.6730035 4.9060014
O 6.8132511 -6.9602736 5.0471247
H 6.1179481 -6.3539452 4.7279803
H 6.9211924 -7.5322051 4.2608839
O 9.3460026 11.0550031 5.3520015
H 8.6900024 10.4630029 4.8570014
H 10.1530028 10.9060031 4.9280014
O -12.6810035 -3.5610010 -4.9410014
H -13.2700037 -3.2750009 -5.6570016
H -12.0710034 -2.7900008 -5.0460014
O -12.8010036 -7.5120021 11.1000031
H -12.0790034 -7.4020021 11.8190033
H -13.6080038 -7.4470021 11.6060032
O -6.5110018 11.4920032 -4.4060012
H -6.2080017 10.6830030 -4.9430014
H -7.0120020 11.8810033 -5.1340014
O 8.6790024 -7.5080021 -9.7740027
H 9.3230026 -8.2350023 -9.6440027
H 8.5830024 -7.2010020 -8.8670025
O 9.6930027 -5.3660015 9.3480026
H 10.5060029 -5.6990016 8.8710025
H 8.9550025 -5.8210016 8.8700025
O 6.5060018 12.4570035 7.3910021
H 7.2840020 12.8340036 7.8330022
H 6.6620019 11.5030032 7.3670021
O -10.3898773 -3.4775567 -1.0613022
H -10.9486471 -4.1543501 -1.4791725
H -9.7048798 -3.3617273 -1.7542156
O -11.0630031 -7.6730021 13.2180037
H -11.0080031 -7.9920022 14.1470040
H -10.3470029 -7.0150020 13.2100037
O -4.6220013 14.1770040 -4.7490013
H -5.1250014 14.9280042 -4.9980014
H -4.8810014 13.5120038 -5.4680015
O 8.2220023 -9.7200027 -5.1260014
H 8.8390025 -8.9660025 -4.8560014
H 7.3920021 -9.3290026 -5.4560015
O 8.1690023 -5.5450016 11.6100032
H 8.7480024 -5.5720016 10.7880030
H 7.3920021 -5.6580016 11.0620031
O 12.7150036 11.9090033 -6.2800018
H 12.7210036 11.8650033 -5.3210015
H 12.3000034 12.8250036 -6.3560018
O -12.6170035 -9.4280026 -1.9850006
H -13.4090038 -9.7800027 -1.4920004
H -11.9170033 -9.9870028 -1.5710004
O -10.6460030 8.7860025 -2.7820008
H -9.6340027 8.8370025 -2.9380008
H -10.9010031 8.2410023 -3.5520010
O 6.0435625 -10.9995278 0.1807697
H 5.9097396 -10.0376980 0.2544861
H 7.0072563 -11.0587344 0.3836202
O 4.6130013 -9.0710025 15.8540044
H 5.0620014 -8.3710023 15.3110043
H 3.9440011 -8.4340024 16.1230045
O 6.9163766 11.1965605 -0.1468267
H 6.8855703 11.6263373 0.7287704
H 7.8120580 10.8158487 -0.1233047
O 3.0280008 6.6770019 14.5070041
H 3.4710010 6.6380019 13.6560038
H 3.6350010 7.3720021 14.9370042
O -8.5880024 -6.9760020 -10.5810030
H -9.0560025 -7.7180022 -10.9950031
H -7.8320022 -6.8870019 -11.2430031
O -9.1973725 -6.7229402 4.6973352
H -8.7016541 -7.5156457 4.9750602
H -8.5184303 -6.2247574 4.1947848
O -6.8010019 14.0990039 -10.7370030
H -7.4730021 14.1820040 -11.4360032
H -6.8170019 14.9680042 -10.3550029
O -8.6200024 11.6500033 0.8800002
H -7.7970022 11.2520031 0.5000001
H -8.7190024 10.8950030 1.5330004
O 11.9500033 -9.1310026 -11.1190031
H 11.3620032 -9.4300026 -11.7920033
H 12.6280035 -9.8430028 -11.1400031
O 10.1420028 -7.7520022 5.2070015
H 9.7170027 -8.6100024 5.1360014
H 10.6530030 -7.7420022 4.3690012
O 11.5510032 11.9160033 1.3970004
H 11.2650032 12.1610034 0.4450001
H 12.4810035 12.1780034 1.3520004
O -7.4430021 -11.9530033 -9.6600027
H -7.3130020 -12.3150034 -10.5920030
H -7.0970020 -12.6830035 -9.1850026
O -7.6130021 -11.5940032 6.8910019
H -8.4330024 -11.8790033 6.6160019
H -7.5160021 -11.7710033 7.8410022
O -5.4136856 3.7981426 -10.7283592
H -6.2847918 3.3806843 -10.5462275
H -5.0600635 3.8104861 -9.8208760
O -5.0991337 6.0447574 8.5046772
H -5.1137928 6.9199089 8.9223562
H -4.8075408 5.4860269 9.2498286
O 11.8130033 -10.5700030 6.7920019
H 11.3510032 -10.4420029 7.6490021
H 11.1410031 -10.4400029 6.0890017
O 10.7620030 6.5770018 -14.1690040
H 10.6030030 5.8820016 -13.5110038
H 11.3530032 7.2040020 -13.7250038
O 8.5809245 3.3561122 6.1445331
H 7.6562580 3.0662801 6.2920967
H 8.4266586 4.2579845 5.7936173
O -0.8580002 -10.9610031 -10.7280030
H -1.6670005 -10.8770030 -10.1560028
H -0.8370002 -11.9430033 -10.8780030
O -3.9346581 -11.9092639 4.2587756
H -3.2630084 -11.2309966 4.0682620
H -4.1814183 -11.6969608 5.1789036
O -1.8403121 5.2475632 -11.9096277
H -2.2576574 6.1072029 -11.6981869
H -1.0872992 5.5513001 -12.4676220
O -4.3414294 6.3228149 3.5870115
H -4.7671287 7.1532636 3.2910437
H -3.6277262 6.7127924 4.1350892
O 12.9150036 -12.8120036 5.9410017
H 12.2900034 -13.4230038 6.3210018
H 12.7130036 -12.0760034 6.4840018
O 14.9660042 8.3950023 7.2770020
H 15.8770044 8.6920024 7.0880020
H 14.8080041 7.6300021 6.6950019
O 2.5000007 -12.6320035 -10.4220029
H 3.0510009 -12.6090035 -9.6020027
H 1.9140005 -13.3260037 -10.1130028
O 0.5444707 -8.9140293 6.1214099
H 1.3979592 -9.3816122 5.9935074
H -0.0626332 -9.6827491 6.0218655
O 2.5840007 9.5970027 -12.3290035
H 2.7760008 10.3440029 -11.6890033
H 3.3340009 9.7540027 -12.9740036
O 1.1068268 10.0398756 3.3792324
H 0.9099092 10.9973460 3.4023899
H 1.2510492 9.8729850 4.3373002
O 6.3760018 -9.8690028 -12.0080034
H 5.4280015 -10.0060028 -12.4270035
H 6.8960019 -10.5800030 -12.4650035
O 0.4365636 -7.7216051 3.6251048
H 0.4755880 -8.1654054 4.4971392
H 1.2139683 -8.1197404 3.1802884
O 2.6352685 10.3323554 -8.7506766
H 3.1410330 9.5051576 -8.7052986
H 1.8135729 10.0881479 -8.2745372
O 5.0700014 9.2110026 7.3730021
H 5.7230016 9.0370025 8.0830023
H 4.4010012 9.7270027 7.9060022
O -11.8910033 -7.6650021 -12.2760034
H -12.8380036 -7.4200021 -12.3680035
H -12.0420034 -8.6050024 -12.2620034
O -10.8830030 -8.7860025 2.7030008
H -11.2550031 -8.0410023 2.2300006
H -10.9270031 -8.4810024 3.6310010
O -11.0880031 11.4200032 -11.4590032
H -10.5360029 11.8270033 -12.2040034
H -10.9720031 12.0270034 -10.6850030
O -9.9790028 9.7930027 2.9440008
H -10.8190030 10.1990029 2.6590007
H -10.0090028 9.9110028 3.8940011
O 6.4637370 -10.7817011 3.8889597
H 6.7733932 -9.9358445 3.4911538
H 7.1962708 -11.3924170 3.6611232
O 6.7760019 11.4560032 -11.7330033
H 6.1630017 12.2320034 -11.7080033
H 7.2490020 11.6470033 -10.8720030
O 7.3030020 11.6440033 2.6210007
H 6.8080019 12.1090034 3.3270009
H 6.8400019 10.7820030 2.5310007
O -5.7540016 -10.2110029 -11.8610033
H -6.0360017 -9.4190026 -11.3940032
H -5.6020016 -10.8440030 -11.1620031
O -5.2146495 -9.8173553 2.0885238
H -5.8286962 -9.0529209 2.1019937
H -5.7667651 -10.5154874 2.4842907
O -5.7970016 8.0190022 -10.8860030
H -6.1460017 7.2960020 -11.4680032
H -6.3360018 8.6960024 -11.3610032
O -5.5522407 9.7127319 5.6404543
H -5.5296479 9.2891553 4.7571099
H -4.6316235 10.0151601 5.7167462
O 11.5790032 -8.2730023 -0.5820002
H 11.5090032 -9.1210026 -1.0440003
H 11.0400031 -7.5960021 -1.0500003
O 11.7530033 10.8030030 4.1460012
H 11.7630033 11.5460032 3.4660010
H 11.5940032 10.0710028 3.5030010
O -3.1200009 -8.4340024 -10.1370028
H -3.2480009 -9.0860025 -9.5080027
H -4.0560011 -8.1790023 -10.3170029
O -2.6689199 -9.6822724 3.0840582
H -3.5576539 -9.7245387 2.6704744
H -2.1349460 -9.3012960 2.3593934
O -2.8695415 7.8726551 -11.5529882
H -3.8325325 7.8864469 -11.4069007
H -2.7743796 8.4527562 -12.3393637
O -2.9313183 12.3634015 4.1984941
H -3.8393654 12.2614026 3.8268450
H -2.5598578 13.0507316 3.6356194
O 11.8690033 -7.6170021 2.9740008
H 12.4680035 -6.8630019 3.1810009
H 12.5430035 -8.3490023 2.6890008
O 13.4720038 10.7990030 6.1760017
H 13.0670037 10.8480030 5.3130015
H 14.0280039 10.0380028 6.0280017
O -15.8470044 8.9020025 1.6530005
H -16.4250046 8.2570023 1.1150003
H -16.2540045 8.7150024 2.5390007
O 1.9040005 -8.5840024 -12.3950035
H 2.2860006 -7.9500022 -11.7340033
H 1.0940003 -8.1060023 -12.4210035
O -2.2821354 -3.8640467 4.1225866
H -1.6808865 -4.4755511 4.5948427
H -2.0659858 -3.0130350 4.5590188
O 2.0240006 13.4070038 -13.3950037
H 1.9780006 12.7280036 -14.1940040
H 2.2760006 12.8670036 -12.6300035
O 3.0785632 9.6547164 1.4791603
H 2.6573387 10.2959774 0.8670351
H 2.4475557 9.7114816 2.2271158
O -13.7560038 -6.9130019 6.4590018
H -13.8890039 -6.6340019 5.5430016
H -12.7600036 -6.7030019 6.6220019
O -15.2230043 12.0830034 1.8070005
H -15.4620043 11.1670031 1.7550005
H -14.6620041 12.2900034 1.0720003
O 3.9400011 -10.0760028 -13.2540037
H 3.1540009 -9.5340027 -13.0520037
H 4.3300012 -9.5300027 -13.9240039
O 2.3657570 -9.0658065 2.1368543
H 1.9401600 -9.4899206 1.3622128
H 2.9506902 -9.7938846 2.4363983
O 4.7270013 9.2660026 -14.4390040
H 4.8180013 10.2050029 -14.7900041
H 5.6740016 9.0520025 -14.3520040
O 5.6052048 9.3599102 2.5629819
H 4.8345846 9.5410815 1.9808659
H 5.1103531 9.3342029 3.4151713
O -14.8510042 -10.0700028 6.0640017
H -14.2080040 -9.4560026 6.4050018
H -15.0470042 -9.5110027 5.2100015
O -7.4090021 9.3760026 -12.6130035
H -7.3800021 10.2840029 -12.9810036
H -6.6260019 8.9770025 -13.0970037
O -13.3520037 12.9590036 -0.0480000
H -12.4370035 13.0170036 0.1390000
H -13.3200037 13.1620037 -1.0200003
O 3.9090011 -8.8700025 -16.3320046
H 4.5320013 -9.2130026 -16.9830048
H 3.5810010 -9.7440027 -16.0590045
O 3.9072346 -11.1835908 3.1145077
H 4.8484146 -11.0103553 3.3402101
H 3.9129513 -12.1631399 3.0669474
O 5.5241200 5.4341391 -12.3166468
H 6.3245604 5.4140742 -12.8579686
H 5.8725889 5.1902033 -11.4357367
O 6.1330017 13.0420037 4.5460013
H 5.2580015 12.6690035 4.6640013
H 5.8700016 14.0000039 4.3810012
O -4.3172938 -10.6726531 -0.3031162
H -4.5466918 -10.2835145 0.5677015
H -4.2117001 -11.6123656 -0.0461344
O -4.4610012 -11.8770033 14.4810041
H -3.9880011 -11.0380031 14.3200040
H -3.7200010 -12.4300035 14.8540042
O -3.8910011 8.0070022 -16.2830046
H -2.9990008 8.3400023 -16.4600046
H -3.7370010 7.0400020 -16.2350045
O -3.3955147 6.3113482 -0.2880693
H -4.2221260 6.7316148 -0.6049881
H -2.9248361 7.1190616 0.0255930
O 10.0350028 -13.0860037 -0.5340001
H 10.4080029 -13.6520038 0.0940000
H 9.8260028 -13.6880038 -1.2330003
O 12.3770035 9.4940027 -0.6120002
H 12.1200034 10.4290029 -0.7690002
H 12.2560034 9.4610026 0.4060001
O -3.7390010 -13.2150037 0.6890002
H -3.4530010 -13.8580039 0.0080000
H -2.9590008 -13.3020037 1.3260004
O -1.3590004 9.0370025 -16.8340047
H -1.0550003 9.0140025 -17.7900050
H -1.0780003 9.9220028 -16.5890046
O -2.2017393 8.6179226 0.4843237
H -1.6952812 8.4513855 1.3064586
H -1.8157253 9.4662756 0.1899251
O 15.1340042 7.8960022 -0.0410000
H 15.8700044 7.9910022 0.5700002
H 14.9230042 8.8550025 -0.1290000
O -18.5280052 6.2630018 2.4970007
H -17.6520049 6.1360017 3.0200008
H -18.1290051 6.2530018 1.6270005
O -1.0920003 -11.0120031 -15.7360044
H -0.9120003 -11.8220033 -15.2410043
H -0.8310002 -10.4110029 -15.0750042
O -1.8140005 -14.2830040 2.5960007
H -1.3320004 -15.1050042 2.1650006
H -1.8130005 -14.4940041 3.5190010
O 0.3570001 8.9070025 -13.5840038
H -0.4500001 9.4460026 -13.6630038
H 1.0830003 9.4770027 -13.2750037
O 1.6594583 11.0020033 -0.4248446
H 1.7336454 10.2813276 -1.0868429
H 2.1236412 11.7297727 -0.8801783
O 12.9570036 -10.0560028 2.3720007
H 12.6290035 -10.8280030 2.8550008
H 13.7710039 -10.4290029 1.9990006
O 1.8820005 -7.0700020 -16.4330046
H 1.2320003 -7.7590022 -16.6700047
H 2.6680007 -7.6500021 -16.5910046
O -1.8179181 -5.6485787 -2.6341428
H -1.3669337 -5.3320248 -3.4432449
H -2.3912969 -6.3366167 -3.0209821
O 4.0790011 13.1720037 0.8580002
H 4.7820013 13.7710039 1.0330003
H 3.6250010 13.0380036 1.7080005
O 15.0380042 -4.6540013 0.8590002
H 15.2720043 -4.4620012 -0.0140000
H 14.3770040 -5.2910015 0.7770002
O -12.6030035 -5.1850015 -1.4830004
H -12.6020035 -5.0810014 -0.5460002
H -13.3480037 -4.5910013 -1.7730005
O -10.8540030 8.4970024 -0.1070000
H -11.0580031 8.5790024 -1.1010003
H -11.3940032 9.2610026 0.2450001
O 5.4700015 -6.5940018 -16.5050046
H 5.1370014 -7.4710021 -16.2600046
H 4.8370014 -6.3650018 -17.2230048
O 7.9549447 -9.3651172 -1.7054246
H 7.4114250 -8.9879933 -0.9898001
H 7.8931572 -8.6558516 -2.3777858
O 7.4230021 15.6750044 -2.1520006
H 6.9910020 14.7950041 -2.1810006
H 7.2850020 15.8850044 -1.1540003
O -6.8231016 -7.6453273 2.5115656
H -7.2398493 -6.7804128 2.3305291
H -6.0660927 -7.3424776 3.0580381
O -4.3506586 11.7896820 -2.4990986
H -3.5514594 11.6016655 -3.0313366
H -5.0526993 11.7273229 -3.1685106
O 7.8999040 -7.0991788 -3.2733437
H 7.9895334 -6.8426320 -4.2228844
H 8.6745439 -6.6466544 -2.8902998
O 9.8130027 -2.0280006 12.7670036
H 9.0650025 -1.5500004 12.3180034
H 9.7580027 -1.5340004 13.6710038
O 9.3549438 8.4970681 -0.8313485
H 9.5908587 9.2183873 -0.2088011
H 8.6139603 8.1110586 -0.3258950
O -6.4850018 -12.6270035 -1.4980004
H -7.3370021 -12.1580034 -1.6780005
H -5.9750017 -12.4050035 -2.3240007
O -7.3780021 -7.9480022 15.9800045
H -7.7090022 -8.8570025 15.8840044
H -7.9140022 -7.6400021 15.2910043
O -3.3592746 8.4217442 -3.2819982
H -3.9665893 7.8814607 -3.8324384
H -3.8435387 8.4042276 -2.4421409
O -7.8410022 9.2650026 14.2530040
H -7.8790022 9.4620026 15.1970043
H -7.8640022 8.2950023 14.3040040
O 10.4430029 -8.6420024 -3.7960011
H 10.4460029 -9.2780026 -3.0840009
H 10.3850029 -7.8080022 -3.3560009
O 12.9460036 8.6840024 -4.3160012
H 12.0610034 8.5070024 -4.0430011
H 13.4290038 8.0440023 -3.7950011
O -9.8060027 -6.8160019 -5.4200015
H -9.0520025 -6.1820017 -5.4030015
H -10.4060029 -6.5170018 -4.7250013
O -7.4190021 -7.8320022 10.9260031
H -6.5220018 -7.8810022 11.2720032
H -7.7930022 -7.2770020 11.5720032
O -5.7584539 9.4092946 -6.0324605
H -5.5698388 8.6365733 -5.4519878
H -5.1610103 9.1710137 -6.7706122
O -7.6260021 11.2030031 9.0480025
H -7.3410021 11.8850033 8.3460023
H -7.2380020 11.6220033 9.8260028
O 12.8000036 -6.6760019 -6.8830019
H 13.7730039 -6.9340019 -6.8100019
H 12.4150035 -7.5870021 -6.6120019
O 10.5330029 10.7380030 -7.5680021
H 11.3300032 11.2270031 -7.8300022
H 10.3610029 10.9930031 -6.6430019
O 8.4060024 12.9940036 9.4440026
H 9.2060026 12.5560035 9.8910028
H 8.3760023 13.7000038 10.0700028
O -13.3720037 6.6340019 -0.5010001
H -13.9190039 7.2090020 -1.1490003
H -12.7400036 6.1660017 -1.0230003
O -0.7367294 -8.9979564 -1.2746753
H -1.0373349 -8.5437627 -0.4606686
H 0.0143474 -9.4888027 -0.8844458
O -2.3570007 -10.6970030 13.4100038
H -2.0530006 -11.6290033 13.5500038
H -1.7030005 -10.0890028 13.7720039
O -1.1388359 11.0992803 -0.2401042
H -1.0495980 11.8069489 -0.9102876
H -0.1882994 10.9858109 -0.0371381
O -1.5900004 11.1710031 14.4090040
H -0.9930003 11.7810033 14.8080041
H -2.2520006 10.9010031 15.1770042
O 15.3930043 10.3240029 -2.8200008
H 15.7090044 9.3920026 -2.9950008
H 15.5840044 10.4430029 -1.8650005
O -17.0060048 -8.4730024 -2.0390006
H -17.0330048 -8.5470024 -3.0050008
H -16.0980045 -8.0500023 -2.0280006
O -13.4830038 10.5850030 -2.9220008
H -12.5260035 10.4120029 -2.9750008
H -13.6250038 11.5390032 -3.0810009
O 4.0646735 -8.6191165 -1.6045899
H 4.3926299 -8.1883394 -2.4254055
H 3.1437366 -8.3288682 -1.6022371
O 2.0040006 -7.6460021 15.7080044
H 2.6630007 -6.9610019 15.9030045
H 1.3120004 -7.6910022 16.3690046
O 6.4750018 13.3350037 -1.8570005
H 6.4480018 12.6170035 -1.2110003
H 6.0380017 12.8680036 -2.6220007
O -11.4830032 -8.8050025 -5.0370014
H -12.0610034 -8.0510023 -4.9750014
H -10.6880030 -8.3000023 -5.4380015
O -10.2100029 10.9980031 -6.8950019
H -10.8920030 10.4410029 -7.2530020
H -9.6730027 10.3950029 -6.3840018
O 5.2495079 -7.3332083 -3.7023991
H 5.3010821 -7.6988069 -4.6067888
H 6.2074831 -7.2374031 -3.5069594
O 1.7764835 -5.7803903 10.1635487
H 1.0419618 -5.1376280 10.0565312
H 1.4468977 -6.5364674 9.6321028
O 5.3390015 13.2920037 -4.8190013
H 5.0880014 12.4900035 -5.2750015
H 4.7640013 13.9100039 -5.3040015
O 2.3180006 10.2840029 14.0620039
H 2.5490007 11.1390031 13.6690038
H 2.7610008 10.3700029 14.9140042
O -7.4860021 -9.9090028 -4.8330014
H -7.5680021 -9.9240028 -5.8070016
H -7.9290022 -10.7490030 -4.6030013
O -8.8970025 -12.0910034 12.6900036
H -9.7970027 -12.0580034 12.2850034
H -8.3750023 -12.2250034 11.8810033
O -2.6124289 6.4590596 -6.0857457
H -2.5502850 5.7118147 -5.4526654
H -1.7960693 6.9601764 -5.8694219
O -8.1780023 6.6270019 15.1950043
H -8.8730025 6.6060018 15.8090044
H -8.7100024 6.5110018 14.3940040
O 7.5790021 -11.9280033 -6.7680019
H 6.8250019 -11.5260032 -7.2030020
H 7.7770022 -11.2220031 -6.1330017
O 10.8580030 5.8230016 -6.1080017
H 10.2840029 6.5110018 -6.4670018
H 11.7480033 6.0070017 -6.3890018
O -3.6909474 -4.7330013 -6.8317439
H -4.1285373 -4.5747349 -5.9671688
H -3.1328109 -3.9390726 -6.9065915
O -5.0800014 -7.7070022 12.0540034
H -4.3330012 -8.0290022 11.4460032
H -4.5720013 -7.3000020 12.7540036
O -3.8954603 10.7224161 -8.4973920
H -3.8265471 9.7463504 -8.5565968
H -3.8562074 11.0128896 -9.4308274
O -5.9090017 12.0580034 11.0460031
H -5.8470016 11.4150032 11.7990033
H -5.0770014 11.9600033 10.5520030
O 15.9380045 -6.9120019 -8.1570023
H 15.7880044 -6.3230018 -8.9230025
H 16.6370047 -6.4960018 -7.6310021
O 11.8990033 -7.6500021 10.8090030
H 11.8190033 -7.8810022 9.8870028
H 12.7600036 -7.2190020 10.8010030
O 10.9910031 11.9890034 9.6780027
H 11.3290032 11.1290031 9.4020026
H 11.3310032 12.0300034 10.5990030
O -1.1438488 -8.7512438 -4.2258941
H -2.0152927 -8.3301631 -4.1293294
H -0.7956518 -8.6619796 -3.3183669
O -2.6239874 -4.8259128 10.7375677
H -2.3449003 -5.1453682 11.6192449
H -1.8250060 -4.3260810 10.4677639
O -0.2021818 13.1627953 -1.8660087
H 0.5396998 13.3788153 -1.2561763
H 0.2609875 12.8146720 -2.6514932
O 15.9160045 -6.6980019 -4.6690013
H 15.4380043 -5.8180016 -4.8200013
H 15.3830043 -6.9350019 -3.8810011
O 9.2150026 -8.5960024 14.5960041
H 9.0730025 -9.4510026 14.2750040
H 9.3310026 -8.1740023 13.7020038
O -17.0560048 7.9180022 -6.1490017
H -16.4260046 7.3550021 -5.7440016
H -16.6480047 8.8070025 -6.1490017
O 2.4005240 -9.3734241 -6.8781171
H 1.8563062 -9.5288206 -7.6798413
H 2.4738988 -8.3982536 -6.9404847
O -1.9004901 -11.1816037 9.1195583
H -1.6014120 -11.8588596 8.4828658
H -2.1333166 -10.4445201 8.5137614
O 2.5962033 10.1751999 -4.5046321
H 1.8805424 10.8452044 -4.4652920
H 3.1907668 10.5902335 -5.1660693
O 1.2840004 11.4190032 11.1520031
H 0.5900002 11.1570031 11.7820033
H 1.8410005 10.6000030 11.1210031
O -10.1590028 -10.9930031 -3.8910011
H -10.9080031 -11.6380033 -3.8370011
H -10.7320030 -10.2350029 -4.1600012
O -11.3070032 6.6050018 -4.7410013
H -10.7060030 6.1910017 -5.4150015
H -11.1660031 5.8980017 -4.0990011
O -12.2470034 5.9810017 11.6920033
H -12.8640036 5.2250015 11.8720033
H -12.8070036 6.7470019 11.4460032
O 9.2770026 -12.9260036 -4.6940013
H 8.6780024 -12.5130035 -5.3030015
H 8.9000025 -13.7660039 -4.7150013
O 3.3390009 -9.7610027 12.7000036
H 4.0020011 -10.1450028 12.1090034
H 3.9620011 -9.2610026 13.2640037
O 6.6517327 9.2220987 -4.0381752
H 5.8296431 8.7117872 -4.2027371
H 7.3312929 8.5169553 -4.1323590
O 7.9660022 11.7810033 12.8410036
H 7.0690020 12.1630034 12.6700035
H 7.7870022 11.0550031 12.1820034
O -5.5169603 -8.3113662 -8.7177537
H -6.1040411 -7.5320045 -8.5933884
H -4.7964961 -8.0750420 -8.0931498
O -7.7613747 -9.0879201 5.5657082
H -7.9457290 -9.4780695 4.6839886
H -7.6195334 -9.9096690 6.0804672
O -4.3060012 12.6650035 -10.5150029
H -3.8570011 13.4720038 -10.1190028
H -5.2240015 12.9370036 -10.5240029
O -3.9006140 10.2093832 8.6373281
H -3.7809716 11.1502174 8.8826537
H -3.7485371 10.2728048 7.6746356
O 13.5740038 -8.3370023 7.2710020
H 12.9980036 -8.9180025 6.6880019
H 13.8640039 -8.9530025 7.9410022
O 10.6730030 7.5020021 8.1240023
H 11.2130031 6.9390019 7.6040021
H 11.0630031 8.4060024 8.0900023
O -1.3143635 -9.1194780 -7.0354136
H -1.1109812 -9.0132801 -6.0861723
H -2.0812219 -8.5225631 -7.1282036
O -2.3170006 -8.9610025 11.2540031
H -1.4110004 -9.1560026 11.0030031
H -2.3860007 -9.5790027 12.0440034
O -4.0612407 8.0351967 -7.8727385
H -3.9678112 7.4208925 -8.6171363
H -3.5824446 7.5372091 -7.1751334
O -2.7035619 10.4457243 6.1067786
H -2.7716862 11.1544317 5.4237327
H -1.9645941 10.7938137 6.6385800
O 14.2380040 -6.1100017 10.3710029
H 15.0380042 -6.1350017 10.9100031
H 14.0000039 -5.1690014 10.2130029
O 12.2030034 9.8900028 8.5920024
H 12.4180035 10.1900029 7.6800021
H 13.0350036 9.5570027 9.0790025
O -5.3120015 -11.8790033 -6.7480019
H -5.0120014 -12.3440035 -7.4980021
H -5.9740017 -11.2950032 -7.1990020
O -5.7920016 -13.6140038 12.4840035
H -5.1840015 -13.4260038 11.7520033
H -5.4840015 -12.8670036 13.0970037
O -2.2387174 4.1403044 -4.5804121
H -2.8604011 3.8443882 -3.8758633
H -1.3772804 3.9021749 -4.1929623
O -4.8950014 8.4260024 10.5160029
H -4.5230013 8.9270025 9.7600027
H -5.3150015 9.0860025 11.0520031
O 9.9370028 -11.0980031 9.4260026
H 10.5550030 -11.8210033 9.4730027
H 9.1310026 -11.6300033 9.1330026
O 13.0860037 9.2060026 -9.4280026
H 12.9400036 8.9830025 -8.5150024
H 14.0260039 9.0670025 -9.4880027
O 11.9690033 8.7900025 11.8260033
H 12.3960035 8.0680023 11.4240032
H 12.4010035 8.7940025 12.6940036
O -12.5720035 -7.1800020 -7.9840022
H -13.3660037 -7.5500021 -7.5330021
H -12.1830034 -8.0230022 -8.3260023
O -14.1610040 8.7110024 8.0260022
H -14.2950040 9.1020025 8.9490025
H -13.3070037 8.2040023 8.0930023
O 9.1500026 -10.3610029 -10.8170030
H 8.2560023 -10.1020028 -10.4610029
H 9.7320027 -10.0960028 -10.1320028
O 2.7244333 -10.4760390 5.5125863
H 3.4114530 -10.0971695 6.1075138
H 3.2105048 -10.4927552 4.6640016
O 5.8246574 9.4197421 -8.3271738
H 5.6915864 8.5783695 -7.8480682
H 6.5512914 9.8143812 -7.8071032
O 3.5910010 10.6670030 8.9460025
H 3.0740009 11.3470032 9.3850026
H 3.2510009 9.9020028 9.4070026
O -10.7540030 -9.3790026 5.9810017
H -11.4240032 -9.1310026 6.6350019
H -10.0170028 -8.9930025 6.5080018
O -11.6120032 6.6380019 -9.8680028
H -10.9440031 7.2240020 -9.4600026
H -12.1320034 6.4380018 -9.0910025
O -13.4140038 8.3310023 4.5310013
H -14.2630040 8.8130025 4.4260012
H -12.8510036 9.0370025 4.8320014
O 6.1530129 -11.5594033 6.6282602
H 5.6388143 -10.7401420 6.8065945
H 6.2247259 -11.4972944 5.6568011
O 6.4691347 4.3965260 -9.9339526
H 6.1130858 4.2669191 -9.0352891
H 7.3406694 4.7960969 -9.7120579
O 4.2895617 6.5571359 7.1746873
H 4.6486244 7.4566150 7.0515533
H 3.6255871 6.7567036 7.8728559
