19
13a (NH); source-verbatim CASSCF(14,12) optimized coordinates from JA043988W SI
C       -2.402036       0.466307       1.152344
C       -2.928065      -0.552636       0.429175
C       -2.281488      -1.070459      -0.788745
C       -1.036787      -0.708796      -1.195218
C       -0.303356       0.282896      -0.372881
C       -1.183969       0.965261       0.535466
C        2.749396      -0.909464       0.747629
C        3.259812       0.098203      -0.107470
C        2.139696       0.692223      -0.629695
N        1.070198       0.055217      -0.089880
N       -0.765370       1.706679      -0.397397
N        1.432929      -0.922638       0.745238
H        2.011330       1.505686      -1.310605
H       -2.827581       0.862770       2.052105
H        3.289352      -1.606865       1.354578
H        4.281945       0.347059      -0.299293
H       -3.853511      -1.006133       0.734538
H       -2.825386      -1.809451      -1.348792
H       -0.564675      -1.185055      -2.035351
