39
VERBATIM heavy-atom coordinates for the full VASP-optimized pSb3 precursor from jp046147k SI; hydrogens were not included in the source table; precursor was truncated/reduced for the reported CASSCF/CASPT2 model; heavy-atom formula C31N3O5
C -6.215620 2.104700 0.054490
C -7.496710 1.970080 0.917050
C -7.228440 1.342590 2.280950
C -6.722990 -0.080550 2.068840
C -5.633500 -0.168010 1.032020
C -5.368370 0.821470 0.135070
C -4.255020 0.783930 -0.802300
C -2.978910 0.378110 -0.540350
C -1.872010 0.389460 -1.457490
C -0.626560 0.015140 -0.984650
C 0.578350 -0.043720 -1.735030
C 1.853810 -0.390130 -1.331190
C 2.401530 -0.732480 -0.046610
C 3.743740 -1.064510 -0.021830
C 4.489390 -1.463840 1.108980
N 5.762560 -1.802750 1.016790
C -6.666880 2.398780 -1.393060
C -5.382720 3.301050 0.560160
C -4.910340 -1.486030 1.048080
C -2.115800 0.785350 -2.879960
C 1.556720 -0.724540 1.203850
C 3.773640 -6.324630 3.855500
C 3.966050 -7.777730 4.267960
C 5.141090 -5.695470 3.495470
C 5.056550 -4.281450 2.914370
C 6.430970 -3.797820 2.424920
C 6.532640 -2.277260 2.152470
N 3.052380 -5.519850 4.842610
O 4.194320 -8.711800 3.519430
C 6.028840 -1.271840 -5.372660
C 4.631670 -1.086810 -4.760530
C 7.063800 -0.337890 -4.676170
C 7.641350 -0.871240 -3.370980
C 6.660880 -0.881630 -2.195980
N 5.982220 -1.104070 -6.827850
O 3.983050 -1.940230 -4.184720
O 6.999780 -1.674160 -1.225890
O 5.652770 -0.154570 -2.225180
O 4.887910 -3.789270 -1.927770
