10
Source Table I UHF/4-31G H(CC)4H+ 2Pi_g geometry; exact printed bond-length embedding
H   0.0000000000  0.0000000000  0.0000000000
C   1.0580000000  0.0000000000  0.0000000000
C   2.2840000000  0.0000000000  0.0000000000
C   3.6120000000  0.0000000000  0.0000000000
C   4.8430000000  0.0000000000  0.0000000000
C   6.1600000000  0.0000000000  0.0000000000
C   7.3910000000  0.0000000000  0.0000000000
C   8.7190000000  0.0000000000  0.0000000000
C   9.9450000000  0.0000000000  0.0000000000
H   11.0030000000  0.0000000000  0.0000000000
