17
Source-verbatim SI TS-5-6 CASSCF(6,6)/6-31+G(d) geometry
C 2.62243 0.78397 -0.09245
C 2.08803 -0.47073 -0.37518
C 0.85413 -0.97752 0.03037
C -0.17531 -0.25918 0.86697
C -1.42028 0.14902 0.08462
C -2.31167 -0.84341 -0.33695
C -1.64762 1.49086 -0.19831
H -0.97161 2.25906 0.12791
H -2.50870 1.80057 -0.76239
H -0.47687 -0.91608 1.67958
H 0.25750 0.61702 1.33236
H 2.69447 -1.12746 -0.97802
H 2.10418 1.51564 0.49735
H 0.59452 -1.96876 -0.29896
H -2.14872 -1.88099 -0.11032
H -3.19441 -0.59533 -0.89720
H 3.59137 1.05834 -0.46461
