25
TS: 2b (NN) <--> 5b; source-verbatim CASSCF(14,12) optimized coordinates from JA043988W SI
C        2.249258       1.168921      -0.169080
C        1.513197       2.364638       0.009632
C        0.185604       2.002301       0.042007
C       -0.815453      -0.343817      -0.003364
C       -0.212536      -1.630570       0.175705
C       -1.054305      -2.775796       0.103758
C       -2.433323      -2.612597       0.063836
C       -3.000087      -1.340011      -0.081978
C       -2.182766      -0.202418      -0.164732
C        3.727739       0.966222      -0.295064
C       -1.028736       2.852731       0.246995
N        1.407257       0.161987      -0.262976
N        0.163605       0.647759      -0.122000
N        1.054560      -1.745366       0.466292
H       -2.623463       0.756237      -0.352874
H       -4.063946      -1.232193      -0.183165
H       -0.603782      -3.747781       0.164385
H       -3.069720      -3.478600       0.087039
H        1.901046       3.359832       0.084871
H        3.951982      -0.091172      -0.346534
H        4.114330       1.444290      -1.189614
H        4.249159       1.386823       0.558236
H       -0.715820       3.863502       0.475521
H       -1.652220       2.890961      -0.640050
H       -1.633495       2.494569       1.073023
