10
Exact ACS SI CASSCF(6,6)/6-31G* geometry for 25 (1A’); DOI 10.1021/jo0256991
C       0.9607579      0.0475400      0.0000000
C       0.2371239      1.2400835      0.0000000
C      -1.1295555      1.0977636      0.0000000
C      -0.9591924     -1.1416266      0.0000000
N       2.3060188      0.0263522      0.0000000
N       0.3869114     -1.1609000      0.0000000
N      -1.7508334     -0.0805238      0.0000000
H       0.7133211      2.2008684      0.0000000
H      -1.7592695      1.9692210      0.0000000
H      -1.4298675     -2.1061395      0.0000000
