25
14b (NN); source-verbatim CASSCF(14,12) optimized coordinates from JA043988W SI
C       -2.619778      -0.880222      -0.129431
C       -2.911779       0.467419       0.227240
C       -1.702707       1.104784       0.286824
C        0.625253       0.243318      -0.124298
C        1.362614       1.314164      -0.510721
C        2.832975       1.298373      -0.468203
C        3.571474       0.307787       0.097355
C        2.854988      -0.855837       0.664026
C        1.478924      -0.890650       0.224024
C       -3.574873      -2.017765      -0.326799
C       -1.393184       2.522763       0.658403
N       -1.328265      -1.044109      -0.274114
N       -0.764334       0.154725      -0.032709
N        2.167647      -1.791337      -0.321359
H        4.639513       0.403293       0.180123
H        3.327517       2.160045      -0.879510
H        0.885883       2.205628      -0.868756
H       -3.871570       0.896325       0.429722
H        3.172756      -1.289996       1.594854
H       -3.029651      -2.919125      -0.575014
H       -4.153902      -2.201506       0.572875
H       -4.273215      -1.805684      -1.130360
H       -0.556342       2.583947       1.344442
H       -1.162945       3.132200      -0.209087
H       -2.258836       2.955659       1.143592
