10
Exact ACS SI CASSCF(6,6)/6-31G* geometry for 10 (1A’); DOI 10.1021/jo0256991
C       0.9428511      0.0183067      0.0000000
C       0.1738752      1.2057309      0.0000000
C      -0.9574661     -1.2078488      0.0000000
C      -1.7104736     -0.0514639      0.0000000
N       2.3036424      0.0739964      0.0000000
N       0.4030879     -1.1884078      0.0000000
N      -1.1211286      1.1505706      0.0000000
H       0.6440149      2.1720688      0.0000000
H      -1.4105317     -2.1805002      0.0000000
H      -2.7827251     -0.0736972      0.0000000
