35
Source-verbatim DFT/PBE0 optimized geometry from publisher ESI Table S15
C -0.957528469 -1.048701789 0.212465140
C 1.386966625 -0.304893084 0.212465140
C -0.429438156 1.353594873 0.212465140
C -1.707569250 -0.890131376 -0.937924859
C 1.624661009 -1.033732661 -0.937924859
C 0.082908241 1.923864037 -0.937924859
H 0.807005031 -1.426832468 -1.526304858
H 0.832170648 1.412303092 -1.526304858
H -1.639175679 0.014529376 -1.526304858
C -2.570425565 -1.908790926 -1.326264858
C 2.938274215 -1.271658375 -1.326264858
C -0.367848650 3.180449301 -1.326264858
H -3.168238876 -1.785346324 -2.221154858
H 3.130274709 -1.851102190 -2.221154858
H 0.037964167 3.636448513 -2.221154858
C -2.671783262 -3.065734106 -0.572814860
C 3.990895248 -0.780965125 -0.572814860
C -1.319111986 3.846699231 -0.572814860
H -3.348290998 -3.854909594 -0.877314859
H 5.012595137 -0.972250267 -0.877314859
H -1.664304138 4.827159861 -0.877314859
C -1.911686952 -3.204257130 0.581375140
C 3.730811551 -0.053440899 0.581375140
C -1.819124599 3.257698030 0.581375140
H -1.993679814 -4.102309249 1.181495139
H 4.549543931 0.324577259 1.181495139
H -2.555864117 3.777731990 1.181495139
C -1.055819496 -2.193138291 0.982885140
C 2.427223222 0.182202640 0.982885140
C -1.371403726 2.010935651 0.982885140
H -0.477760086 -2.245571808 1.894665138
H 2.183602275 0.709033533 1.894665138
H -1.705842189 1.536538275 1.894665138
N 0.000000000 0.000000000 0.708045140
O 0.000000000 0.000000000 2.059245138
