17
Source-verbatim SI TS-1-3 CASSCF(6,6)/6-31+G(d) geometry
C -2.77365 -0.27049 -0.44463
C -1.58702 0.03610 0.12131
C -1.05069 1.37994 0.29119
C -0.47549 -0.93102 0.42787
C 0.69809 -0.29174 -0.28214
C 1.99864 -0.16388 0.29617
C 3.12346 0.19832 -0.38769
H -3.46672 0.49613 -0.74401
H -3.06496 -1.29073 -0.62042
H -1.50869 2.22514 -0.19424
H -0.46414 1.59748 1.16435
H -0.67747 -1.94563 0.09502
H -0.28482 -0.97245 1.49836
H 0.61363 -0.20997 -1.35272
H 2.08435 -0.34620 1.35625
H 3.09899 0.39830 -1.44450
H 4.06989 0.30452 0.10939
