19
2a (NH)  open-shell singlet; source-verbatim CASSCF(14,12) optimized coordinates from JA043988W SI
C       -1.877191       0.910388       0.424720
C       -3.043301      -0.836457      -0.227232
C       -3.167328       0.478279       0.288412
C        0.333506      -0.194928       0.027780
C        1.135625       1.043661      -0.102539
C        2.599806       0.904938      -0.026734
C        3.183858      -0.330448       0.061343
C        2.381105      -1.490898       0.136805
C        0.951686      -1.380762       0.135578
N       -1.068683      -0.105959      -0.001061
N       -1.785104      -1.172721      -0.388227
N        0.622481       2.192170      -0.314979
H        2.830369      -2.461376       0.217927
H       -4.061255       1.018414       0.516547
H        3.178175       1.806230      -0.088512
H        4.254395      -0.418384       0.085829
H       -3.816542      -1.529392      -0.487530
H        0.357518      -2.269816       0.208851
H       -1.480587       1.833183       0.781533
