25
2b (NMe) triplet; source-verbatim CASSCF(14,12) optimized coordinates from JA043988W SI
C       -2.565127      -0.575313       0.775444
C       -2.751366       0.071934      -0.476574
C       -1.496585       0.423539      -0.897983
C        0.760027       0.156606       0.174308
C        1.283310       0.833615       1.244647
C        2.661853       1.001283       1.384133
C        3.533978       0.486436       0.422889
C        3.027081      -0.209853      -0.664505
C        1.630766      -0.403791      -0.802701
C       -3.603080      -1.168992       1.679281
C       -1.063830       1.173688      -2.120458
N       -1.291393      -0.609133       1.090836
N       -0.638684      -0.018444       0.072617
N        1.164631      -1.133591      -1.835047
H        4.594556       0.622791       0.526941
H        3.046687       1.536381       2.232296
H        0.611297       1.228556       1.982623
H       -3.674408       0.258737      -0.985798
H        3.678257      -0.629730      -1.408314
H       -3.135265      -1.559922       2.573887
H       -4.338637      -0.425922       1.971926
H       -4.132348      -1.979355       1.187613
H       -0.595346       0.522702      -2.848504
H       -1.930164       1.629901      -2.582847
H       -0.361565       1.963020      -1.873297
