25
13b (NN); source-verbatim CASSCF(14,12) optimized coordinates from JA043988W SI
C        2.302708      -0.855067       0.787129
C        2.820436       0.004992      -0.218101
C        1.724750       0.616731      -0.772272
C       -0.731378       0.387565      -0.328818
C       -1.469969      -0.435228      -1.320105
C       -2.684957      -0.923651      -0.959981
C       -3.298504      -0.698710       0.360865
C       -2.775668       0.167022       1.262844
C       -1.599945       0.832588       0.724402
C        1.628079       1.631848      -1.873735
C        3.056540      -1.761665       1.713109
N        0.991995      -0.770926       0.835538
N        0.643725       0.123085      -0.103179
N       -1.244603       1.770203      -0.040549
H       -3.177018       0.351393       2.238890
H        3.846680       0.154670      -0.485350
H       -4.195017      -1.243640       0.594736
H       -3.227013      -1.549639      -1.645731
H       -1.021199      -0.706213      -2.259024
H        0.601540       1.896275      -2.087136
H        2.150089       2.542207      -1.600229
H        2.078631       1.251174      -2.784094
H        2.365469      -2.290476       2.357340
H        3.637038      -2.493194       1.159186
H        3.745615      -1.200444       2.336931
