19
14a (NH); source-verbatim CASSCF(14,12) optimized coordinates from JA043988W SI
C       -1.945405      -1.026533       0.065397
C       -3.209830       0.772897       0.063367
C       -3.259114      -0.645120       0.085224
C        0.185473       0.221944      -0.024742
C        0.896792       1.347262      -0.274470
C        2.368329       1.332248      -0.295223
C        3.132754       0.276800       0.090208
C        2.439427      -0.948149       0.552693
C        1.052235      -0.934968       0.169374
N        1.709315      -1.784052      -0.493420
N       -1.203518       0.117170       0.037959
N       -1.971862       1.212172       0.034472
H        4.204051       0.360668       0.126549
H        2.845488       2.242732      -0.610247
H        0.385184       2.267569      -0.476900
H       -4.022232       1.469575       0.071936
H       -4.121528      -1.276113       0.111968
H       -1.483883      -1.990368       0.062982
H        2.789728      -1.475812       1.421386
