25
14b (NMe); source-verbatim CASSCF(14,12) optimized coordinates from JA043988W SI
C        0.962451      -0.492906       1.431786
C       -0.163175      -0.005812       0.635294
C       -1.234528       0.270542       1.419807
C       -1.211247       0.045077       2.871994
C       -0.219757      -0.610628       3.530913
C        0.926374      -1.105893       2.737039
C        0.911058       0.372353      -1.592026
C        0.380483       0.449967      -2.850113
C       -1.015152       0.214274      -2.692647
C       -2.075937       0.178071      -3.750419
C        2.325909       0.556372      -1.134059
N       -0.142819       0.091906      -0.757982
N       -1.305865       0.008510      -1.431440
N        1.890562      -0.071071       2.172942
H       -0.306543      -0.822928       4.581449
H       -2.067344       0.396323       3.419558
H       -2.130574       0.655275       0.973844
H        0.911571       0.649473      -3.757880
H        1.335335      -2.082540       2.924010
H       -2.128151       1.122802      -4.282603
H       -1.873439      -0.599694      -4.480132
H       -3.041225      -0.016813      -3.301015
H        2.918943       0.915652      -1.965526
H        2.400698       1.278346      -0.329299
H        2.764837      -0.372600      -0.787665
