17
Source-verbatim SI TS-1-6 CASSCF(6,6)/6-31+G(d) geometry
C 2.04407 1.08654 -0.27264
C 1.86370 -0.26615 -0.31241
C 0.80496 -0.99982 0.30956
C -0.28301 -0.35019 1.14668
C -1.36247 -0.98120 -0.89529
C -1.27460 0.07978 0.09420
C -1.78492 1.32180 -0.05047
H -1.44289 -1.99937 -0.56245
H -1.72317 -0.78033 -1.88989
H -0.71835 -1.08432 1.81865
H 0.07614 0.47109 1.75763
H 2.57191 -0.85031 -0.87746
H 1.38892 1.74095 0.27053
H 0.93169 -2.06438 0.38663
H -1.61480 2.08930 0.68373
H -2.37767 1.58694 -0.90841
H 2.86189 1.54599 -0.79674
