25
TS 2b (NMe) <--> 13b (NMe) (diradicaloid) singlet; source-verbatim CASSCF(14,12) optimized coordinates from JA043988W SI
C        2.484723      -0.379549       0.930245
C        2.797730       0.070232      -0.389277
C        1.605189       0.225658      -1.008144
C       -0.742257      -0.091594      -0.213160
C       -1.464939      -0.925766      -1.114119
C       -2.808722      -1.121312      -0.898792
C       -3.496350      -0.513730       0.241122
C       -2.903946       0.440178       0.995480
C       -1.565415       0.870892       0.557483
C        3.433017      -0.701520       2.044339
C        1.280080       0.722240      -2.381165
N        1.191652      -0.482847       1.087136
N        0.648915      -0.130727      -0.102861
N       -1.104428       2.014411       0.299458
H       -4.495366      -0.840841       0.464880
H       -3.358600      -1.796341      -1.527577
H       -0.945590      -1.488344      -1.867867
H        3.767416       0.255944      -0.803098
H       -3.389900       0.914941       1.826237
H        2.186709       1.054869      -2.869495
H        0.832328      -0.051604      -2.996168
H        0.589010       1.556704      -2.335646
H        2.884909      -1.061683       2.905467
H        4.144688      -1.464309       1.743830
H        3.998239       0.177349       2.339515
