25
13b (NMe); source-verbatim CASSCF(14,12) optimized coordinates from JA043988W SI
C        0.464743       0.081120      -1.584599
C       -1.602593      -0.384875      -2.246806
C       -0.274480      -0.168487      -2.710108
C       -0.149952       0.114696       0.852369
C       -0.019697      -1.144563       1.628193
C        0.987825      -1.230480       2.535105
C        1.962059      -0.151378       2.782293
C        1.822820       1.086524       2.247842
C        0.600912       1.182076       1.460063
C       -2.827495      -0.699102      -3.051718
C        1.924248       0.376248      -1.425890
N       -0.410870       0.024020      -0.538039
N       -1.657338      -0.271807      -0.940239
N       -0.646600       1.323000       1.589618
H        2.797439      -0.369464       3.422821
H        1.123657      -2.140877       3.090674
H       -0.661960      -1.980848       1.422124
H        0.078530      -0.191759      -3.720743
H        2.506912       1.897456       2.399297
H        2.420645       0.260336      -2.381116
H        2.094917       1.392524      -1.084731
H        2.395529      -0.297818      -0.718572
H       -3.053015       0.100706      -3.750497
H       -2.695626      -1.610391      -3.627187
H       -3.678098      -0.828003      -2.394645
