30
CTS (Hexamethyl Dewar Benzene) 1/2; verbatim CAS(5,6)/6-31G(d) coordinates from Supporting Information, DOI 10.1021/ja060182i
C  -1.258104  -0.745807  -0.211701
C  0.029775  -1.000666  0.501094
C  -1.303306  0.593451  -0.333141
C  -0.036508  1.129618  0.261868
C  1.265819  0.674434  -0.323827
C  1.304171  -0.665040  -0.202417
C  0.047835  -1.723040  1.802294
H  0.928496  -1.487525  2.384548
H  -0.850153  -1.543699  2.378058
H  0.082347  -2.788244  1.565472
C  -2.228994  -1.836633  -0.561814
H  -3.088405  -1.431015  -1.077188
H  -1.765651  -2.572925  -1.210742
H  -2.581591  -2.349901  0.326768
C  -2.402571  1.485957  -0.832848
H  -2.783711  2.117430  -0.037603
H  -2.033562  2.134183  -1.621077
H  -3.228001  0.909219  -1.226840
C  -0.076470  2.287600  1.215940
H  0.802270  2.311762  1.848083
H  -0.103855  3.220052  0.654308
H  -0.959519  2.256194  1.841728
C  2.310290  1.634511  -0.815753
H  2.645131  2.288549  -0.017908
H  3.173238  1.110990  -1.203617
H  1.906916  2.258395  -1.606783
C  2.344363  -1.692469  -0.545202
H  2.722422  -2.182408  0.346078
H  1.932941  -2.456571  -1.196968
H  3.180050  -1.233475  -1.054784
