16
Verbatim CASSCF(6,6)/6-311G(d) geometry: (11) CI-4-d; DOI 10.1021/jp060995t SI
C     -0.002494    -0.055198    -0.060050
C      0.068767    -0.204530     1.292421
N      1.265346    -0.306653     2.026556
C      2.360775     0.023107     1.415686
N      2.221494     0.456626     0.142939
C      1.344715    -0.196227    -0.660745
C      3.665151     0.144790     2.136817
C     -1.269497    -0.029237    -0.861394
H     -0.819853    -0.281643     1.891973
H      1.621405    -1.175173    -1.042351
H     -1.336930     0.880270    -1.448974
H     -2.142311    -0.082913    -0.221581
H     -1.307846    -0.864965    -1.555044
H      3.995234     1.178237     2.131302
H      4.434008    -0.448725     1.653910
H      3.545191    -0.184748     3.157998
