12
VERBATIM TS1d CASSCF(8,8)/6-31G* optimized geometry from scanned SI; OCR-assisted and visually checked page by page (angstrom)
N   0.000000000  0.000000000  0.000000000
C   0.000000000  0.000000000  1.260809000
C   1.056043000  0.000000000  2.281378000
C   0.955026000  1.017355000  3.154648000
C  -1.276861000  0.662130000  1.516248000
C  -1.170482000  1.844478000  2.307141000
C  -0.106550000  2.021895000  3.135768000
H   1.880023000 -0.685152000  2.277936000
F   1.874221000  1.200181000  4.094318000
H  -2.189279000  0.329683000  1.072313000
F  -2.190443000  2.691978000  2.340118000
H  -0.044211000  2.857714000  3.804142000
