12
VERBATIM 2e CASSCF(8,8)/6-31G* optimized geometry from scanned SI; OCR-assisted and visually checked page by page (angstrom)
N   0.072684000 -0.082301000 -0.011310000
C  -0.009449000 -0.007860000  1.243310000
C   0.825313000 -0.030917000  2.441042000
C   1.269469000  1.209737000  2.749009000
C  -0.750983000  1.106359000  0.719430000
C  -0.061669000  2.388015000  0.975959000
C   0.881725000  2.373249000  1.940321000
H   1.076174000 -0.915921000  2.991082000
H   1.932747000  1.389988000  3.574150000
H  -1.813565000  1.075631000  0.572909000
H  -0.332711000  3.310099000  0.496185000
F   1.522542000  3.495673000  2.271583000
