21
atrans-fc; exact publisher-SI CASSCF coordinates; DOI 10.1021/jp909947c
C 0.4623103467 1.0316605525 -0.5041088026
C 2.1387282974 -0.3106827122 0.1845695602
C 2.4404554509 1.0970396978 0.3764755893
C 3.5425724017 1.7734529505 0.8934707717
C 4.7870732801 1.4135426462 1.4310748796
C 5.6643928117 2.4661172229 1.8638338383
C 5.2900434164 0.0777262475 1.5994204677
C 6.8969019286 2.2405522198 2.4017190486
C 6.5206238112 -0.1710518505 2.1354997481
C 7.4164617015 0.8910241900 2.5769612600
N 1.3422597408 1.8604379503 -0.0795030503
N 0.8667712965 -0.2841847212 -0.3784182034
O 2.7404703163 -1.3451088058 0.4086889541
O 8.5257836558 0.6664424658 3.0601186771
H 5.3243549088 3.4844379343 1.7547730885
H 4.6729280482 -0.7428730079 1.2916901508
H 7.5272090062 3.0555318723 2.7150348065
H 6.8745471452 -1.1815439670 2.2510357136
H 3.3758540309 2.8390169824 0.8633172773
H -0.4921852415 1.2933937893 -0.9168795149
H 0.3670363070 -1.1013306569 -0.6351709600
