16
VERBATIM CASSCF(14,11)/6-31G* S1 geometry for guanine tautomer 4 from ACS Supporting Information p. S7 (angstrom)
N 0.02084600 0.01279800 -0.01694800
C 0.05764000 -0.02396000 1.29789700
H 0.93997600 -0.06231900 1.89672800
N -1.22218100 -0.01185300 1.86102600
C -2.11492200 0.03797300 0.83480100
C -3.50288000 0.07522100 0.70576200
O -4.31234000 0.06489300 1.78123000
N -4.06226400 0.12318900 -0.53198900
C -3.19575400 0.13128600 -1.56624600
N -3.75105500 0.17908100 -2.78614700
H -4.74020200 0.20433700 -2.88166600
H -3.16658600 0.18649300 -3.59068000
N -1.83351700 0.09909800 -1.57524500
C -1.29038700 0.05152300 -0.34505600
H -5.21089800 0.09450400 1.47420600
H -1.43902600 -0.02772200 2.82959800
