15
VERBATIM 9H-adenine (nπ*)ts optimized geometry from SI, CASSCF/6-311G* except B3LYP ground minimum (angstrom)
N   0.000000000  0.000000000  0.000000000
C   1.385184880  0.000000000  0.000000000
H   1.942430610  0.912791450  0.000000000
N   1.883506470 -1.191269610  0.038277910
C   0.793799990 -2.039048250  0.124140310
C   0.678269810 -3.446843050 -0.228490490
N   1.798699490 -4.115196020 -0.558898670
H   1.709254680 -5.032045400 -0.923364090
H   2.635636640 -3.612552380 -0.725845950
N  -0.481450080 -4.052575720 -0.259893850
C  -1.490191740 -3.303420750  0.337091330
H  -2.425850620 -3.765759930  0.575315610
N  -1.517384320 -1.962178280 -0.137813260
C  -0.372164550 -1.301160230  0.089966070
H  -0.592690840  0.792916760  0.021161170
