30
1 (Hexamethyl Dewar Benzene) 0/1; verbatim CAS(6,6)/6-31G(d) coordinates from Supporting Information, DOI 10.1021/ja060182i
C  -0.910990  2.143736  1.723887
C  -0.272926  1.289903  0.672976
C  0.538033  -0.000077  0.801938
C  -0.272997  1.289870  -0.672955
C  0.538033  -0.000065  -0.801940
C  -0.911178  2.143647  -1.723840
C  1.800466  -0.000339  -1.641606
C  -0.911800  -2.143672  1.723745
C  -0.273493  -1.289789  -0.673003
C  1.800468  -0.000440  1.641601
C  -0.273571  -1.289749  0.672984
C  -0.911603  -2.143773  -1.723787
H  -0.173352  -2.519775  -2.427446
H  -1.641613  -1.576948  -2.296974
H  -1.420423  -2.997595  -1.288609
H  -1.420608  -2.997496  1.288556
H  -1.641844  -1.576804  2.296846
H  -0.173623  -2.519669  2.427483
H  2.405843  0.878895  1.442007
H  2.404597  -0.880875  1.443108
H  1.561698  0.000401  2.702731
H  1.561694  0.000511  -2.702735
H  2.404648  -0.880741  -1.443132
H  2.405789  0.879028  -1.441994
H  -0.172689  2.521404  -2.426318
H  -1.422051  2.996274  -1.288741
H  -1.639412  1.575875  -2.298357
H  -1.421873  2.996364  1.288802
H  -0.172429  2.521493  2.426289
H  -1.639193  1.576006  2.298484
