12
VERBATIM 1c CASSCF(8,8)/6-31G* optimized geometry from scanned SI; OCR-assisted and visually checked page by page (angstrom)
N   0.000000000  0.000000000  2.132335000
C   0.000000000  0.000000000  0.856892000
C   0.000000000  0.000000000 -2.006526000
C   0.000000000  1.234184000  0.062097000
C   0.000000000 -1.234184000  0.062097000
C   0.000000000  1.235697000 -1.296630000
C   0.000000000 -1.235697000 -1.296630000
F   0.000000000  2.363742000  0.750208000
F   0.000000000 -2.363742000  0.750208000
H   0.000000000  2.172924000 -1.819820000
H   0.000000000 -2.172924000 -1.819820000
H   0.000000000  0.000000000 -3.078247000
