12
Symmetric spiro TS, CAS(14,11)/6-31+G(d,p); verbatim SI coordinates, units not stated
C 2.2128398204 -0.1408014199 -0.7940299988
C 2.2455363317 -0.0790697524 0.5702766913
O 0.4841331270 0.5458869182 -0.0972023112
O -1.3624878041 1.0905388214 -0.0732034279
C -1.9846190843 -0.0164853543 -0.0125913691
O -1.4606118923 -1.1214973731 0.0188262069
H 0.0477519771 -0.3570644343 -0.0495896815
H -3.0674645781 0.0918822652 0.0106495110
H 1.9757365750 -1.0554113565 -1.3043248701
H 2.5216601295 0.6922053936 -1.3939969450
H 2.5815832144 0.8038229001 1.0770768969
H 2.0358838442 -0.9434715567 1.1719343155
