20
TME + singlet O2 TS2 (structure 15); verbatim CASSCF/6-31G* Cartesian coordinates from ja027225p_si_001.pdf pp. 173-174
C -0.259008 -0.582884 1.361283
C -0.656823 0.856012 1.465165
O 0.184854 -0.538485 -0.079990
O -0.810279 -0.504860 -0.938923
C 1.003991 -0.972081 2.112637
C -1.353093 -1.620747 1.560506
C -1.798132 1.219124 0.695921
C 0.385900 1.899536 1.790896
H -1.470443 0.696349 -0.410932
H -2.709437 0.666066 0.867438
H -1.984190 2.276692 0.580013
H 1.839137 -0.338311 1.847264
H 0.839870 -0.898577 3.182690
H 1.270624 -1.994974 1.876809
H -2.215578 -1.445435 0.937542
H -0.967774 -2.605174 1.322130
H -1.666470 -1.617075 2.599561
H 1.211101 1.881411 1.085420
H -0.052019 2.889674 1.764471
H 0.798454 1.748589 2.783226
