12
VERBATIM 1h CASSCF(8,8)/6-31G* optimized geometry from scanned SI; OCR-assisted and visually checked page by page (angstrom)
N  -0.027003000  0.000000000  0.055932000
C   0.000661000  0.000000000  1.330743000
C   1.257221000  0.000000000  2.105227000
C   1.244149000  0.000000000  3.471679000
C   0.013390000  0.000000000  4.184518000
C  -1.250412000  0.000000000  2.111181000
C  -1.223705000  0.000000000  3.475896000
Cl  2.754004000  0.000000000  1.233403000
H   2.173612000  0.000000000  4.008631000
H   0.023282000  0.000000000  5.257200000
H  -2.171809000  0.000000000  1.561198000
H  -2.145626000  0.000000000  4.027872000
