15
VERBATIM 1j CASSCF(8,8)/6-31G* optimized geometry from scanned SI; OCR-assisted and visually checked page by page (angstrom)
N  -0.072713000  0.000019000  0.071867000
C  -0.027120000 -0.000022000  1.348075000
C   1.256143000 -0.000027000  2.088453000
C   1.215424000 -0.000009000  3.461442000
C  -0.005156000  0.000001000  4.187992000
C  -1.279270000 -0.000012000  2.126032000
C  -1.248482000 -0.000010000  3.490192000
C   2.562867000 -0.000003000  1.329374000
H   2.141691000  0.000013000  4.010059000
H   0.010452000  0.000025000  5.261208000
H  -2.203115000  0.000007000  1.579500000
H  -2.167614000  0.000006000  4.047827000
H   2.402084000  0.000021000  0.260328000
H   3.153084000  0.876361000  1.577994000
H   3.153093000 -0.876371000  1.577955000
