12
VERBATIM 2d CASSCF(8,8)/6-31G* optimized geometry from scanned SI; OCR-assisted and visually checked page by page (angstrom)
N   0.049230000 -0.073769000 -0.021349000
C  -0.011851000  0.016129000  1.232007000
C   0.811504000 -0.023676000  2.432204000
C   1.241985000  1.219816000  2.719801000
C  -0.754151000  1.128110000  0.697682000
C  -0.038313000  2.377509000  0.981149000
C   0.897865000  2.421888000  1.952355000
H   1.095847000 -0.903372000  2.971978000
F   2.070142000  1.431571000  3.733678000
H  -1.819637000  1.130251000  0.569154000
F  -0.415341000  3.486248000  0.359657000
H   1.391293000  3.339268000  2.208809000
