12
VERBATIM 2f CASSCF(8,8)/6-31G* optimized geometry from scanned SI; OCR-assisted and visually checked page by page (angstrom)
N   0.066133000 -0.073732000 -0.020077000
C  -0.025536000 -0.001707000  1.235591000
C   0.818241000  0.014756000  2.421576000
C   1.268833000  1.236870000  2.752870000
C  -0.757908000  1.119188000  0.716530000
C  -0.059088000  2.395008000  0.978724000
C   0.892054000  2.416142000  1.947605000
F   1.119329000 -1.094259000  3.074101000
H   1.938822000  1.356785000  3.583689000
H  -1.818885000  1.087260000  0.558510000
H  -0.341823000  3.300025000  0.471807000
H   1.397377000  3.335593000  2.180911000
