12
Planar TS variant 1, CAS(12,12)/6-31G(d); verbatim SI coordinates, units not stated
C 0.8494141355 -0.0235521863 2.5809508556
C -0.4787563154 0.0874552822 2.1794334597
O -0.4422044981 0.0258776498 0.3227778954
O -0.9549185663 0.0067692676 -1.6403968300
C 0.1949346561 -0.0473881644 -2.2883804528
O 1.3125165038 -0.0797630490 -1.8258251767
H 0.5258787795 -0.0182412637 0.1620797999
H -0.0320399045 -0.0590976416 -3.3557908369
H 1.3167001581 -0.9849113456 2.6902074511
H 1.4839328625 0.8414564719 2.6435626535
H -0.9609946673 1.0427204642 2.2592566470
H -1.1267836308 -0.7579325165 2.3085983796
