22
ztrans-fc; exact publisher-SI CASSCF coordinates; DOI 10.1021/jp909947c
C 0.4063389693 0.9840526205 -0.5311035357
C 2.1454203655 -0.3061167862 0.1874312599
C 2.4601864959 1.0956713013 0.3849102849
C 3.5735747125 1.8292496172 0.9092620538
C 4.7870021827 1.4551521844 1.4325976761
C 5.6906409296 2.5142368895 1.8772602397
C 5.2634768155 0.0841907028 1.5878968930
C 6.9076541606 2.2586325019 2.4071683826
C 6.4805801974 -0.1850867379 2.1172881612
C 7.3920973336 0.8781076655 2.5657199853
N 1.3601454292 1.7788540175 -0.0750913648
N 0.8734527974 -0.2782268961 -0.3758532019
O 2.7515069878 -1.3303380664 0.4141304617
O 8.4869519804 0.6347155176 3.0418697551
H 5.3614105372 3.5338853667 1.7729003959
H 4.6263019947 -0.7161478607 1.2721059131
H 7.5623658680 3.0469592583 2.7302011624
H 6.8272640620 -1.1958930901 2.2297355514
H 3.4086244665 2.8958625432 0.8798371012
H -0.5318013751 1.2816564264 -0.9351820542
H 0.3904990091 -1.1111275766 -0.6245165111
H 1.2863165603 2.7717471412 -0.0669107595
