32
VERBATIM KP- singlet long-distance-CT local minimum, CASSCF(14,11)/6-31G*, SI p. S29 (angstrom)
C  -4.083836000 -1.673595000  0.568647000
C  -2.872698000 -1.071401000  0.278179000
C  -2.784076000  0.345540000  0.050009000
C  -4.014121000  1.068774000  0.180999000
C  -5.195574000  0.458183000  0.458789000
C  -5.272723000 -0.940243000  0.653396000
H  -4.104436000 -2.734681000  0.745310000
H  -1.994512000 -1.677865000  0.284724000
H  -3.973970000  2.130248000  0.045022000
H  -6.088109000  1.053424000  0.536243000
H  -6.204470000 -1.417032000  0.873743000
C  -1.600423000  1.064373000 -0.234484000
O  -1.506786000  2.309661000 -0.261601000
C  -0.328337000  0.335461000 -0.543584000
C   0.845573000  0.755321000  0.030173000
C  -0.261209000 -0.698116000 -1.506771000
C   2.104252000  0.212255000 -0.355416000
H   0.804173000  1.560494000  0.744389000
C   0.963657000 -1.297209000 -1.870888000
H  -1.184327000 -1.028281000 -1.966881000
C   2.124727000 -0.869472000 -1.304360000
H   0.967704000 -2.093814000 -2.596453000
H   3.062223000 -1.340761000 -1.537055000
C   3.912487000 -0.446474000  1.260487000
O   4.317923000 -1.429154000  0.666920000
O   3.835185000 -0.097707000  2.415855000
C   4.472638000  1.052181000 -0.782810000
H   5.332122000  1.430346000 -0.236745000
H   4.790859000  0.172475000 -1.325915000
H   4.171446000  1.818832000 -1.496438000
C   3.342250000  0.746033000  0.207466000
H   3.135196000  1.614543000  0.821666000
