16
Verbatim CASSCF(6,6)/6-311G(d) geometry: (9) 2,5-dimethylpyrazine (4); DOI 10.1021/jp060995t SI
C      0.000000     0.000000     0.000000
N      0.000000     0.000000     1.326688
C      1.184095     0.000000     1.938032
C      2.358748     0.002789     1.183047
C      1.175760     0.000856    -0.755534
N      2.358646     0.002438    -0.144814
H      3.320833     0.008496     1.663430
C      1.164860    -0.022314    -2.260355
H     -0.961827     0.003833    -0.481028
C      1.193384    -0.021922     3.442783
H      1.484627    -0.991930    -2.627069
H      1.850891     0.718144    -2.652182
H      0.176448     0.178499    -2.656144
H      0.895908    -0.998410     3.810355
H      0.489578     0.702648     3.832342
H      2.176285     0.201975     3.840097
