16
Verbatim CASSCF(6,6)/6-311G(d) geometry: (20) Pro-5-g; DOI 10.1021/jp060995t SI
N      0.000000     0.000000     0.000000
C      0.000000     0.000000     1.356466
N      1.108642     0.000000     2.064475
C      2.295436     0.000523     1.481904
C      1.183936     0.000177    -0.619275
C      2.354535     0.000367     0.128301
C      3.501478    -0.000216     2.376346
C     -1.349760    -0.017664     2.068493
H      1.180743     0.001452    -1.693363
H      3.303950     0.001278    -0.378316
H     -1.807978    -0.994637     1.961473
H     -2.012527     0.712777     1.622993
H     -1.212973     0.196639     3.118389
H      3.497078    -0.884520     3.003242
H      3.476802     0.862522     3.031739
H      4.422831     0.018976     1.807833
