23
ctrans-fs; exact publisher-SI CASSCF coordinates; DOI 10.1021/jp909947c
C 0.4073733259 0.9350986900 -0.5329254807
C 2.1697879094 -0.2832383311 0.1993888238
C 2.4571818412 1.1419352795 0.3855502631
C 3.5469353006 1.8992449561 0.9004447296
C 4.8071352224 1.4847299396 1.4429319674
C 5.7073939600 2.5160423119 1.8848891548
C 5.2434047231 0.1165798945 1.5805478533
C 6.9366878085 2.2203486330 2.4185312451
C 6.4743659822 -0.1840029931 2.1147266847
C 7.3376714582 0.8555656668 2.5406121808
N 1.3241101465 1.7866937074 -0.0909624863
N 0.8997637538 -0.3015556435 -0.3651551965
O 2.8143711729 -1.2775462577 0.4446556063
O 8.5121386471 0.6356080936 3.0530179308
H 5.4111315634 3.5438722681 1.7954870215
H 4.6026360357 -0.6778151292 1.2635015177
H 7.6145357720 2.9823723372 2.7507048383
H 6.7881291282 -1.2077623744 2.2120655796
H 8.7371419254 -0.2890473120 3.1150081647
H 3.3929158772 2.9630450103 0.8757274538
H -0.5415100642 1.1926319736 -0.9435889001
H 0.4347981174 -1.1496866711 -0.6064366728
H 1.2026779931 2.7757969902 -0.1042215289
