23
triplet-13 | VERBATIM coordinates from ACS Supporting Information p. S37 for DOI 10.1021/om100427s | CASSCF(10,10)/CEP-31G(d) optimized computational geometry | total MCSCF energy -299.3426844242 a.u.
Cu    -0.2784383588    -0.0711615607    -0.1086274865
N     -1.7606186025     1.3160325164    -0.0570211769
N      1.3717846948    -1.2361083905    -0.3630537347
N     -1.8628651761    -1.3581801547     0.0196571999
S      2.3194297405    -0.0019355988     0.1267081578
O      1.3715609040     1.1446557895    -0.0902566572
O      2.7982389343    -0.1842835756     1.4612472403
C     -1.6353041333     2.5971478934     0.1547536471
C     -3.0945231612     0.7236425966    -0.2772637612
C     -3.1142383114    -0.6647353891     0.3802262251
C     -1.8552024786    -2.6501835748    -0.1582728665
C      3.6689722777     0.2148861618    -1.0056733502
H      3.2684090987     0.2981594833    -2.0188033046
H      4.3217299922    -0.6557805552    -0.9026740336
H      4.1878468708     1.1310074430    -0.7079458812
H     -2.5039887053     3.2612780026     0.1908863665
H     -0.6364357332     3.0121657238     0.2972852576
H     -3.2362356194     0.6289248528    -1.3601087404
H     -3.8904029436     1.3573129204     0.1260417231
H     -3.9975391896    -1.2303234739     0.0673938566
H     -3.1311921889    -0.5631895627     1.4714995881
H     -2.7659094296    -3.2499596782    -0.0675785715
H     -0.9121994816    -3.1427468696    -0.4005936978
