16
Verbatim CASSCF(6,6)/6-311G(d) geometry: (19) CI-5-g; DOI 10.1021/jp060995t SI
C      0.192080     0.396242     0.022924
C      0.038608    -0.023765     1.369273
N      1.177294    -0.023389     2.199635
C      2.257561    -0.219612     1.533656
N      1.401960     0.429161    -0.589398
C      1.893313    -0.568796     0.136407
C      3.643053    -0.000209     2.053919
C     -1.294840    -0.111955     2.046080
H     -0.667696     0.707860    -0.549747
H      1.824610    -1.597752    -0.197643
H     -1.490543    -1.113479     2.416942
H     -2.100300     0.151223     1.369393
H     -1.324669     0.558956     2.898669
H      4.243111    -0.902006     1.979318
H      3.590573     0.302491     3.090609
H      4.145917     0.777926     1.488952
