20
TME + singlet O2 perepoxide intermediate (structure 14); verbatim CASSCF/6-31G* Cartesian coordinates from ja027225p_si_001.pdf p. 173
C -0.328500 0.728960 -1.297016
C -0.324136 -0.741946 -1.287002
O 0.049905 0.010767 -0.032956
O -0.961623 0.052858 1.056479
C 0.830569 1.524289 -1.858478
C -1.612038 1.520997 -1.231657
C -1.611912 -1.529478 -1.215180
C 0.840822 -1.536169 -1.831774
H -2.275803 -1.129974 -0.469160
H -2.094304 -1.517583 -2.188237
H -1.398598 -2.560143 -0.958068
H 1.787072 1.089481 -1.611950
H 0.744877 1.590179 -2.938972
H 0.809906 2.531098 -1.457971
H -2.456267 0.950758 -0.888479
H -1.480128 2.363225 -0.564787
H -1.829347 1.911587 -2.245378
H 1.772540 -0.992645 -1.816319
H 0.966950 -2.438507 -1.245162
H 0.628578 -1.828495 -2.856007
