20
TME + singlet O2 TS1 (structure 13); verbatim CASSCF/6-31G* Cartesian coordinates from ja027225p_si_001.pdf pp. 172-173
C -0.224229 1.008541 -1.338862
C -0.513771 -0.366934 -1.529703
O 0.035273 -0.786334 0.226181
O -0.857507 -0.754410 1.089157
C 1.140171 1.604213 -1.582962
C -1.204840 1.868504 -0.594967
C -1.950853 -0.830865 -1.553313
C 0.445385 -1.243535 -2.303410
H -2.001474 -1.909195 -1.466478
H -2.530988 -0.407971 -0.745747
H -2.418497 -0.545627 -2.492255
H 1.693138 1.710069 -0.652065
H 1.744720 1.021874 -2.264347
H 1.036554 2.598673 -2.007101
H 0.430459 -0.993532 -3.361152
H 1.460942 -1.138481 -1.945139
H 0.165387 -2.284567 -2.201701
H -0.832446 2.878721 -0.473732
H -2.173043 1.923619 -1.081932
H -1.381508 1.452184 0.425842
