13
Verbatim CASSCF(6,6)/6-311G(d) geometry: (1) 2-methylpyrazine (3); DOI 10.1021/jp060995t SI
C      0.000000     0.000000     0.000000
C      0.000000     0.000000     1.401382
N      1.117518     0.000000     2.116265
C      2.257336     0.002100     1.432647
N      1.149016     0.000337    -0.674250
C      2.269147     0.001782     0.042306
H      3.171315     0.002320     1.997757
C     -1.276844     0.022583    -0.796287
H     -0.925260    -0.003817     1.949051
H      3.195607     0.000509    -0.502894
H     -1.480425     1.024614    -1.159813
H     -2.124525    -0.296012    -0.201380
H     -1.191217    -0.628391    -1.656441
