12
VERBATIM TS1g CASSCF(8,8)/6-31G* optimized geometry from scanned SI; OCR-assisted and visually checked page by page (angstrom)
N   0.000000000  0.000000000  0.000000000
C   0.000000000  0.000000000  1.263918000
C   1.056910000  0.000000000  2.290050000
C   1.036096000  1.065959000  3.125202000
C  -1.223542000  0.732602000  1.534939000
C  -1.118030000  1.951852000  2.264993000
C   0.005306000  2.109203000  3.033598000
H   1.813660000 -0.760259000  2.325994000
H   1.797330000  1.179627000  3.875441000
F  -2.408396000  0.292197000  1.153630000
H  -1.926205000  2.659578000  2.278568000
H   0.126345000  2.992477000  3.632554000
