15
VERBATIM 9H-adenine (S0/nπ*)CI optimized geometry from SI, CASSCF/6-311G* except B3LYP ground minimum (angstrom)
N   0.000000000  0.000000000  0.000000000
C   1.361633650  0.000000000  0.000000000
H   1.930335800  0.905203940  0.000000000
N   1.869310420 -1.200725320  0.011070740
C   0.775340510 -2.020047430  0.067659130
C   0.607034630 -3.480890250 -0.061237350
N   0.773044100 -3.931289830 -1.373263710
H   0.778109900 -4.914977820 -1.486328590
H   1.573550940 -3.524365540 -1.800353620
N  -0.632653660 -3.815469220  0.566124280
C  -1.724684180 -3.127186430 -0.005097600
H  -2.683126120 -3.605816780 -0.072544450
N  -1.672689650 -1.839011710 -0.102203130
C  -0.380693830 -1.313076600  0.051027330
H  -0.591146020  0.793233990  0.050601350
