12
Unsymmetric spiro TS, CAS(8,8)/6-31+G(d,p); verbatim SI coordinates, units not stated
C 2.6024546759 -0.2849212418 -0.8268819994
C 2.1889052210 0.0707216432 0.4494870511
O 0.3577834758 0.4174576973 0.2029688924
O -1.5206030163 0.9004337349 0.6400252270
C -2.2539064515 -0.0279952573 0.0573042626
O -1.8621672767 -0.9477446306 -0.5970235203
H 0.1129780449 -0.3164248454 -0.3579117416
H -3.3041932144 0.1717040145 0.2592529607
H 2.5632743884 -1.3074963008 -1.1578596499
H 2.8254806769 0.4656613441 -1.5623790614
H 2.4022685215 1.0580749650 0.8111889914
H 2.1176666150 -0.6889360720 1.2056536055
