12
VERBATIM 2g CASSCF(8,8)/6-31G* optimized geometry from scanned SI; OCR-assisted and visually checked page by page (angstrom)
N   0.037168000 -0.027701000 -0.024705000
C  -0.017584000  0.003290000  1.247278000
C   0.820337000 -0.026801000  2.436733000
C   1.259183000  1.221563000  2.736227000
C  -0.708849000  1.103494000  0.690697000
C  -0.056194000  2.397772000  0.960566000
C   0.882071000  2.409163000  1.942635000
H   1.077984000 -0.911467000  2.984027000
H   1.929297000  1.371996000  3.563281000
F  -2.049086000  1.129612000  0.574094000
H  -0.358183000  3.295328000  0.452917000
H   1.373382000  3.331749000  2.193967000
