22
nti-cas1212; exact publisher-SI CASSCF coordinates; DOI 10.1021/jp909947c
C 1.2659810139 0.2630304999 -1.1373258093
C 1.3728632892 0.7278423734 1.0733713922
C 2.5108852675 1.1497358043 0.3498734208
C 3.5369355866 2.0249470050 0.8672138733
C 4.7571755953 1.6156052494 1.4022000317
C 5.6981227359 2.5714898600 1.8885831775
C 5.0770766302 0.2334630299 1.4873922007
C 6.8953257087 2.1689816031 2.4241089085
C 6.2784256695 -0.1728374760 2.0260391004
C 7.1858139068 0.7906051312 2.4943637759
N 2.3929154895 0.8806063661 -1.0176459078
N 0.6189613696 0.1149356486 0.0693250104
O 1.0506883072 0.8080247870 2.2540316602
O 8.3560609958 0.4596757401 3.0257380138
H 5.4575165903 3.6166359490 1.8308741044
H 4.3551497302 -0.4705642336 1.1264248634
H 7.6200942266 2.8662309859 2.7971033160
H 6.5234724224 -1.2175501549 2.0957815843
H 8.4847842611 -0.4807468168 3.0493418999
H 3.3904096679 3.1021264843 0.8748806253
H 0.8670127015 -0.1181981774 -2.0547475555
H -0.2829140555 -0.2700010437 0.2228623698
