13
VERBATIM SI geometry: 2,2-difluorocyclopentane-1,3-diyl ring-inversion TS 2b, (2,2)CASSCF/6-31G*, C2v, SI p S6
C 0.000000 0.000000 0.681788
C 0.000000 1.154369 -0.236573
C 0.000000 -1.154369 -0.236573
C 0.000000 0.773051 -1.683034
C 0.000000 -0.773051 -1.683034
F 1.066765 0.000000 1.526825
F -1.066765 0.000000 1.526825
H 0.000000 2.164855 0.124912
H 0.000000 -2.164855 0.124912
H 0.870256 -1.172373 -2.197031
H -0.870256 -1.172373 -2.197031
H -0.870256 1.172373 -2.197031
H 0.870256 1.172373 -2.197031
