15
VERBATIM TS1k CASSCF(8,8)/6-31G* optimized geometry from scanned SI; OCR-assisted and visually checked page by page (angstrom)
N   0.000000000  0.000000000  0.000000000
C   0.000000000  0.000000000  1.261257000
C   1.075309000  0.000000000  2.266147000
C   1.031182000  1.015287000  3.158470000
C  -1.280614000  0.646837000  1.556720000
C  -1.148173000  1.855003000  2.336100000
C  -0.038445000  2.019994000  3.117543000
H   1.866665000 -0.725215000  2.240910000
H   1.801140000  1.122388000  3.901204000
C  -2.609693000  0.170480000  1.042212000
H  -1.957984000  2.562618000  2.386013000
H   0.048492000  2.878210000  3.758646000
H  -3.319220000  0.114915000  1.864148000
H  -3.025685000  0.842556000  0.297968000
H  -2.521129000 -0.808840000  0.592225000
