16
VERBATIM CASSCF(14,11)/6-31G* S1 geometry for guanine tautomer 3 from ACS Supporting Information p. S6 (angstrom)
N 0.00975700 -0.04255500 -0.00866800
C 0.00746100 0.05299600 1.36236200
H 0.91404100 0.07571200 1.92862600
N -1.19549500 0.09165400 1.86747500
C -2.03091100 0.01671500 0.79030000
C -3.48720300 -0.12174400 0.72054800
O -4.24552900 0.35997400 1.74072800
N -3.92993100 0.28010400 -0.53321300
C -3.12306400 0.11960500 -1.60504400
N -3.73467600 0.21596900 -2.79264900
H -4.71739300 0.35994400 -2.83204300
H -3.21011700 0.08986700 -3.62735600
N -1.78331400 -0.06365500 -1.64963400
C -1.29432800 -0.02994500 -0.41130500
H 0.80439400 -0.03782700 -0.60526700
H -3.82156900 0.14488100 2.56211800
