22
ztrans-fs; exact publisher-SI CASSCF coordinates; DOI 10.1021/jp909947c
C 0.3575783154 0.9727246295 -0.5819474740
C 2.2206352383 -0.2619942024 -0.0258197843
C 2.4722198542 1.1474554800 0.3034900690
C 3.5860302874 1.8647037887 0.7922597595
C 4.8299297518 1.4567787278 1.4004186038
C 5.7583239755 2.4916858554 1.7318899039
C 5.1876118012 0.1181432668 1.7083227543
C 6.9699600128 2.2185049053 2.3304387458
C 6.4047395280 -0.1724011371 2.3135788649
C 7.3382259486 0.8637576384 2.6459301017
N 1.3256129746 1.8506176555 -0.0909526008
N 0.8962012859 -0.3101767340 -0.4355262352
O 2.9527643712 -1.2168272803 0.0104058989
O 8.4408026017 0.6001349578 3.1960599427
H 5.5019041061 3.5116913798 1.5065444243
H 4.5221277012 -0.6804814024 1.4583428518
H 7.6626840038 3.0011122584 2.5771312181
H 6.6760587929 -1.1852032885 2.5452215668
H 3.4615108529 2.9311433965 0.7132941846
H -0.6767590895 1.1474741413 -0.3397488311
H 0.5845282380 -1.0833002076 -0.9788568021
H 1.0373199281 2.6544929116 0.4211806872
