22
nti-cas1413; exact publisher-SI CASSCF coordinates; DOI 10.1021/jp909947c
C 1.2718585332 0.2564521206 -1.1326777705
C 1.3753656775 0.7331657473 1.0741386109
C 2.5083325113 1.1626920440 0.3472195348
C 3.5370539890 2.0351420805 0.8657757173
C 4.7552863374 1.6214807446 1.4009596742
C 5.6985835969 2.5738617704 1.8899645430
C 5.0715611464 0.2381558419 1.4836255981
C 6.8943029553 2.1671430483 2.4254908243
C 6.2715334200 -0.1723333377 2.0219000999
C 7.1812677991 0.7878472149 2.4926734608
N 2.3969433923 0.8831130616 -1.0154486989
N 0.6246315876 0.1162005970 0.0709029882
O 1.0530745188 0.8094823822 2.2564374002
O 8.3504591117 0.4527503927 3.0233936075
H 5.4606862110 3.6197327345 1.8343654104
H 4.3485761109 -0.4637558358 1.1207497857
H 7.6206060405 2.8616558078 2.8005845096
H 6.5139830072 -1.2177854384 2.0894469927
H 8.4766993584 -0.4880588724 3.0453996409
H 3.3923687149 3.1121189389 0.8733426031
H 0.8763135216 -0.1336986173 -2.0477691346
H -0.2667295410 -0.2913234256 0.2293136022
