21
atrans-fs; exact publisher-SI CASSCF coordinates; DOI 10.1021/jp909947c
C 0.4436467638 0.9817444151 -0.5140849917
C 2.1502066018 -0.3101982096 0.1893823669
C 2.4197454450 1.1109889823 0.3676790733
C 3.5160464561 1.8621876820 0.8848349276
C 4.8033401643 1.4562618278 1.4398389333
C 5.6885160159 2.4868001903 1.8753168654
C 5.2615254636 0.1147740028 1.5882032287
C 6.9324252997 2.2138674003 2.4165161546
C 6.5095543962 -0.1678465949 2.1308452482
C 7.4208404352 0.8569113194 2.5775826624
N 1.3173975507 1.8345849414 -0.0913747026
N 0.8747154044 -0.3121174287 -0.3760454816
O 2.7686600994 -1.3438651229 0.4206500572
O 8.5417326121 0.6138221801 3.0654886063
H 5.3736917022 3.5131724766 1.7776814332
H 4.6286297404 -0.6888198621 1.2740610680
H 7.5789599018 3.0131021047 2.7364949307
H 6.8324334812 -1.1897471792 2.2322584645
H 3.3407735575 2.9221584275 0.8506676962
H -0.5130225303 1.2292780917 -0.9281094377
H 0.3947740991 -1.1434586446 -0.6242838028
