12
Unsymmetric spiro TS, CAS(14,11)/6-31+G(d,p); verbatim SI coordinates, units not stated
C 2.5541951770 -0.2764251240 -0.8103067970
C 2.0913218802 0.0722758266 0.4592520537
O 0.3832795062 0.4588333259 0.0789506269
O -1.4085867700 0.9379483097 0.5941795412
C -2.1573825016 -0.0496545517 0.0802013652
O -1.7793072805 -1.0004431057 -0.5453274618
H 0.1018546709 -0.3059974536 -0.4193323019
H -3.1986710477 0.1471071875 0.3181513128
H 2.4838603018 -1.2889397817 -1.1654927857
H 2.8325548354 0.4811139913 -1.5187606446
H 2.3502344057 1.0356341488 0.8552448788
H 1.9765884829 -0.7009177220 1.1970652303
