12
B (Benzene) 0/1; verbatim CAS(6,6)/6-31G(d) coordinates from Supporting Information, DOI 10.1021/ja060182i
C  -0.001267  0.000065  -0.000689
C  -0.001337  0.000552  1.395802
C  1.207904  -0.000052  2.094037
C  2.417338  -0.001027  1.395849
C  2.417408  -0.001465  -0.000503
C  1.208049  -0.000966  -0.698808
H  -0.932697  0.000482  -0.538452
H  -0.932823  0.001279  1.933470
H  1.207911  0.000246  3.169563
H  3.348711  -0.001477  1.933714
H  3.348840  -0.002235  -0.538271
H  1.208159  -0.001313  -1.774332
