15
VERBATIM 9H-adenine (nπ*/ππ*-La)CI2 optimized geometry from SI, CASSCF/6-311G* except B3LYP ground minimum (angstrom)
N  -0.053927000 -0.048929000  0.002776000
C  -0.058900000 -0.030398000  1.393931000
H   0.850467000 -0.081232000  1.955878000
N  -1.242140000  0.080175000  1.901773000
C  -2.093882000  0.200921000  0.816094000
C  -3.455079000 -0.178650000  0.730906000
N  -4.194437000 -0.498718000  1.816415000
H  -5.032207000 -1.004763000  1.659183000
H  -3.705624000 -0.698678000  2.656354000
N  -3.947522000 -0.322125000 -0.503397000
C  -3.212895000  0.370188000 -1.476090000
H  -3.721838000  0.729630000 -2.346972000
N  -1.863606000 -0.047063000 -1.601534000
C  -1.345753000  0.069620000 -0.411704000
H   0.736166000 -0.143242000 -0.586563000
