25
E alpha-(2-naphthyl)-N-methylnitrone S1; verbatim RSC ESI CASSCF(14,12)/6-31G* coordinates; E=-590.04387 Eh
C -1.478273000 -0.742782000 -0.315694000
C -1.766877000 0.630064000 -0.666338000
C -0.681454000 1.563654000 -0.684479000
C 0.624474000 1.181400000 -0.391892000
C 0.940634000 -0.153015000 -0.061716000
C -0.182679000 -1.118048000 -0.021459000
C -2.571618000 -1.673930000 -0.288990000
C -3.875863000 -1.262439000 -0.595454000
C -4.128566000 0.060662000 -0.930804000
C -3.056973000 0.999676000 -0.961041000
C 2.234037000 -0.613894000 0.239392000
N 3.394021000 0.175901000 0.108754000
C 3.864754000 0.639604000 -1.186966000
O 4.294682000 0.004592000 0.985837000
H -0.891992000 2.590416000 -0.922995000
H 1.397282000 1.926914000 -0.386123000
H 0.031624000 -2.139545000 0.236435000
H -2.374133000 -2.697717000 -0.028024000
H -4.678788000 -1.976690000 -0.568989000
H -5.124854000 0.385567000 -1.166532000
H -3.265307000 2.023091000 -1.219210000
H 2.394096000 -1.580640000 0.675918000
H 4.492392000 1.505189000 -1.030958000
H 4.441215000 -0.135719000 -1.681616000
H 3.025470000 0.905294000 -1.811114000
