12
DB (Dewar Benzene) 0/1; verbatim CAS(6,6)/6-31G(d) coordinates from Supporting Information, DOI 10.1021/ja060182i
C  0.064774  0.079636  -0.082548
C  -0.271249  -0.232546  1.369534
C  0.826218  0.021712  2.394148
C  1.461760  -1.141469  2.171577
C  0.486540  -1.619381  1.104121
C  0.700385  -1.083504  -0.305140
H  -0.085608  0.962810  -0.675936
H  -1.304536  -0.194972  1.688090
H  1.046594  0.876687  3.006662
H  2.379280  -1.562403  2.539941
H  -0.003984  -2.575135  1.232553
H  1.247204  -1.476201  -1.142695
