16
Verbatim CASSCF(6,6)/6-311G(d) geometry: (16) CI-5-f; DOI 10.1021/jp060995t SI
C      0.110463     0.176651    -0.034399
N     -0.238911     0.294608     1.189945
C      0.962841     0.281262     1.951129
C      2.070019     0.128609     1.207163
C      1.615797     0.044714    -0.248624
N      1.909576    -1.273944    -0.706626
C      3.499502     0.070833     1.650118
C      2.201625     1.121646    -1.168768
H     -0.609907     0.124158    -0.831529
H      0.901522     0.392785     3.015869
H      1.782568     1.041469    -2.165938
H      3.275526     1.005571    -1.250000
H      1.984247     2.113448    -0.787636
H      3.978061    -0.845655     1.321473
H      3.568014     0.116313     2.730222
H      4.073156     0.898652     1.245242
