12
VERBATIM TS1i CASSCF(8,8)/6-31G* optimized geometry from scanned SI; OCR-assisted and visually checked page by page (angstrom)
N   0.000000000  0.000000000  0.000000000
C   0.000000000  0.000000000  1.262798000
C   1.072016000  0.000000000  2.272486000
C   1.037560000  1.036296000  3.141045000
C  -1.259892000  0.672624000  1.571838000
C  -1.151532000  1.884106000  2.332655000
C  -0.023319000  2.052430000  3.088533000
H   1.851457000 -0.737768000  2.264888000
H   1.807198000  1.149258000  3.882640000
Cl -2.805141000  0.028445000  1.162762000
H  -1.967095000  2.581611000  2.374976000
H   0.080897000  2.925213000  3.706132000
