30
π-σ TS (Hexamethyl Dewar Benzene) 1/2; verbatim CAS(5,6)/6-31G(d) coordinates from Supporting Information, DOI 10.1021/ja060182i
C  -1.343240  -0.667905  -0.233376
C  -0.004591  -0.907908  0.455602
C  -1.343119  0.668119  -0.233445
C  -0.004424  0.907946  0.455506
C  1.200771  0.694484  -0.379671
C  1.200649  -0.694749  -0.379589
C  0.069293  1.801953  1.668531
H  1.002882  1.688506  2.206280
H  -0.021626  2.841193  1.363683
H  -0.750075  1.585562  2.342868
C  -2.242824  1.728238  -0.787083
H  -2.572776  2.407968  -0.008561
H  -1.732390  2.315435  -1.544918
H  -3.121430  1.286151  -1.239477
C  -2.243141  -1.727915  -0.786904
H  -2.573219  -2.407503  -0.008312
H  -3.121665  -1.285714  -1.239345
H  -1.732815  -2.315286  -1.544677
C  0.068956  -1.801808  1.668716
H  1.002560  -1.688476  2.206462
H  -0.750379  -1.585203  2.343025
H  -0.022148  -2.841062  1.363971
C  2.242675  -1.680196  -0.782105
H  2.661989  -2.162975  0.095481
H  1.790871  -2.456805  -1.391624
H  3.044749  -1.217706  -1.340149
C  2.242965  1.679702  -0.782312
H  2.662433  2.162440  0.095223
H  3.044912  1.217021  -1.340382
H  1.791279  2.456371  -1.391841
