15
VERBATIM 9H-adenine (nπ*/ππ*-Lb)CI1 optimized geometry from SI, CASSCF/6-311G* except B3LYP ground minimum (angstrom)
N   0.000000000  0.000000000  0.000000000
C   1.384446200  0.000000000  0.000000000
H   1.949892270  0.906216160  0.000000000
N   1.880656470 -1.208258790  0.000058490
C   0.801402830 -2.038963010  0.000098700
C   0.668266520 -3.462282340 -0.000037400
N   1.737886680 -4.312781970 -0.000066390
H   1.599121430 -5.290972070 -0.000558880
H   2.657009230 -3.949921250 -0.000323570
N  -0.581105290 -3.969943990 -0.000065570
C  -1.694794090 -3.209880880 -0.000065120
H  -2.651530090 -3.680119840 -0.000088410
N  -1.627049870 -1.828550800 -0.000035060
C  -0.394883760 -1.301552800 -0.000006730
H  -0.592637110  0.793307640  0.000049250
