13
Verbatim CASSCF(6,6)/6-311G(d) geometry: (8) Pro-3-c; DOI 10.1021/jp060995t SI
C      0.000000     0.000000     0.000000
C      0.000000     0.000000     1.396205
N      1.122542     0.000000     2.107137
C      2.261133     0.002350     1.432180
C      1.263479     0.000583    -0.597271
N      2.384876     0.002076     0.112937
H      3.168491     0.003510     2.006489
C     -1.272072     0.026249    -0.808464
H     -0.921119    -0.003850     1.953047
H      1.372440    -0.003668    -1.668216
H     -1.550435     1.042894    -1.066818
H     -2.096519    -0.410108    -0.257273
H     -1.162056    -0.529098    -1.732514
