12
π-σ TS (Dewar Benzene) 1/2; verbatim CAS(5,6)/6-31G(d) coordinates from Supporting Information, DOI 10.1021/ja060182i
C  -1.230789  -0.694551  -0.346166
C  0.001358  -0.886959  0.444737
C  -1.230645  0.694833  -0.346120
C  0.001556  0.886974  0.444732
C  1.325630  0.666577  -0.268483
C  1.325493  -0.666889  -0.268454
H  -2.018838  -1.381993  -0.596730
H  -2.018618  1.382425  -0.596515
H  -0.049051  1.509861  1.323894
H  -0.049450  -1.509799  1.323920
H  1.971515  -1.416966  -0.679563
H  1.971839  1.416490  -0.679601
