32
VERBATIM KP- triplet long-distance-CT local minimum, CASSCF(14,11)/6-31G*, SI p. S66 (angstrom)
C   4.470719000  1.043237000  1.134970000
C   3.151265000  0.636909000  0.930435000
C   2.837053000 -0.357599000  0.018829000
C   3.892047000 -0.975345000 -0.671453000
C   5.206388000 -0.570046000 -0.486341000
C   5.505619000  0.450770000  0.422325000
H   4.683145000  1.814520000  1.856166000
H   2.367119000  1.092393000  1.506575000
H   3.654622000 -1.778771000 -1.342335000
H   5.998279000 -1.049139000 -1.037608000
H   6.524338000  0.764745000  0.575515000
C   1.441637000 -0.895380000 -0.207672000
O   1.352721000 -2.125828000 -0.335516000
C   0.325517000 -0.021101000 -0.294281000
C  -0.984453000 -0.601035000 -0.379568000
C   0.372223000  1.409256000 -0.392907000
C  -2.136294000  0.174684000 -0.521018000
H  -1.060082000 -1.670283000 -0.341376000
C  -0.759050000  2.167904000 -0.513556000
H   1.322285000  1.909986000 -0.402262000
C  -2.037118000  1.596631000 -0.565733000
H  -0.662009000  3.239958000 -0.581486000
H  -2.912949000  2.213904000 -0.612082000
C  -4.130970000 -0.462587000  1.189145000
O  -4.634438000  0.592369000  1.326804000
O  -3.893144000 -1.528986000  1.623473000
C  -4.530001000  0.063839000 -1.484527000
H  -5.447170000 -0.503457000 -1.360118000
H  -4.738118000  1.097204000 -1.252538000
H  -4.233370000 -0.005246000 -2.528703000
C  -3.419845000 -0.502743000 -0.626120000
H  -3.325615000 -1.570632000 -0.713007000
