12
Symmetric spiro TS, CAS(12,12)/6-31G(d); verbatim SI coordinates, units not stated
C 2.2109032619 -0.1538964819 -0.8045709198
C 2.2426664482 -0.0942730062 0.5641157858
O 0.4437719845 0.5360305448 -0.0872418825
O -1.3597946632 1.0997962798 -0.0420626455
C -2.0180362722 -0.0337389612 0.0136639061
O -1.5220699847 -1.1454303195 0.0320021645
H 0.0514862480 -0.3504793138 -0.0475679949
H -3.0958760201 0.1041480775 0.0433004961
H 1.9834326690 -1.0686518847 -1.3183821321
H 2.5129793105 0.6820849342 -1.4027812496
H 2.5785854230 0.7868570906 1.0727948393
H 2.0485351719 -0.9625270145 1.1650097539
