15
VERBATIM 9H-adenine (ππ*-Lb)min optimized geometry from SI, CASSCF/6-311G* except B3LYP ground minimum (angstrom)
N   0.000000000  0.000000000  0.000000000
C   1.379152650  0.000000000  0.000000000
H   1.945251500  0.906360150  0.000000000
N   1.894544300 -1.207036200  0.001495480
C   0.826588530 -2.051277350  0.004017110
C   0.724027070 -3.459425930 -0.009037640
N   1.795306300 -4.306736690  0.075921800
H   1.623838050 -5.233280530 -0.239074040
H   2.673215090 -3.930910150 -0.197869100
N  -0.528982510 -4.032114120 -0.015649140
C  -1.625860900 -3.195137300 -0.020114720
H  -2.581006090 -3.676057480 -0.027790330
N  -1.627562130 -1.824034590 -0.012146400
C  -0.405232170 -1.308932550  0.001189560
H  -0.590743710  0.794603840 -0.001171980
