30
BRC (Hexamethylbenzene) 1/2; verbatim CAS(5,6)/6-31G(d) coordinates from Supporting Information, DOI 10.1021/ja060182i
C  0.004035  -0.018294  0.000185
C  -0.017656  0.028164  1.437684
C  1.175532  -0.027417  2.128946
C  2.411881  0.017645  1.395002
C  2.433572  -0.028806  -0.042500
C  1.240389  0.026770  -0.733761
C  -1.346781  0.125572  2.157186
H  -2.054145  0.716435  1.592797
H  -1.782396  -0.856420  2.316376
H  -1.233681  0.601209  3.119165
C  -1.292987  -0.151769  -0.751407
H  -1.688959  0.834432  -0.984953
H  -1.158864  -0.682171  -1.681842
H  -2.035832  -0.676395  -0.170179
C  1.203759  0.122603  -2.244813
H  2.093003  0.601388  -2.624980
H  1.129422  -0.860189  -2.700907
H  0.360303  0.709752  -2.579074
C  3.762667  -0.126191  -0.762057
H  4.198290  0.855806  -0.921197
H  4.470050  -0.717114  -0.197757
H  3.649501  -0.601746  -1.724072
C  3.708883  0.151077  2.146635
H  3.574691  0.681244  3.077194
H  4.104950  -0.835139  2.379959
H  4.451682  0.675915  1.565541
C  1.212236  -0.123265  3.639996
H  1.286587  0.859521  4.096099
H  0.323038  -0.602082  4.020221
H  2.055738  -0.710396  3.974184
