22
ncis-fc; exact publisher-SI CASSCF coordinates; DOI 10.1021/jp909947c
C -1.3981046793 -0.4293370736 -0.1699081544
C 0.0840348189 -1.9021512486 -0.9824141448
C 0.7203710527 -0.6632918806 -0.4461749614
C 2.0539605416 -0.4570891724 -0.4529053387
C 2.8400533438 0.6853005109 0.0259784222
C 2.2840247910 1.8351758775 0.6127050710
C 4.2386669118 0.6264223616 -0.1105873783
C 3.1009450988 2.8790663483 1.0426171881
C 5.0579279598 1.6661895646 0.3172099360
C 4.4865125230 2.7989476553 0.8970530781
N -0.2970846581 0.1881942960 0.0361595030
N -1.2618258871 -1.6702862017 -0.7677072412
O 0.5773673843 -2.8755416967 -1.4812701313
O 5.3209213647 3.7879713114 1.2996758280
H 1.2228016704 1.9128664521 0.7319176395
H 4.6899071105 -0.2422154649 -0.5562537866
H 2.6564265288 3.7523324062 1.4899242061
H 6.1250518191 1.6140587860 0.2096179502
H -1.9904281987 -2.3007970828 -1.0084959549
H -2.3645681254 -0.0450804701 0.0874296022
H 2.6238615372 -1.2643680033 -0.8792655022
H 4.8302116324 4.5051861748 1.6768246894
