30
2 (Hexamethylbenzene) 0/1; verbatim CAS(6,6)/6-31G(d) coordinates from Supporting Information, DOI 10.1021/ja060182i
C  -0.009176  -0.012473  -0.007786
C  -0.011454  0.012845  1.398962
C  1.205684  -0.011670  2.104349
C  2.425133  0.011876  1.402937
C  2.427420  -0.013500  -0.003820
C  1.210272  0.011102  -0.709211
C  -1.327047  0.095365  2.155678
H  -2.077793  0.626677  1.586559
H  -1.728604  -0.888917  2.387781
H  -1.212931  0.628342  3.089888
C  -1.322407  -0.094043  -0.768704
H  -1.723339  0.890525  -1.000662
H  -1.205413  -0.625712  -1.703288
H  -2.074842  -0.626212  -0.202596
C  1.212710  0.091863  -2.227005
H  2.081258  0.622211  -2.593276
H  1.211814  -0.892943  -2.689698
H  0.346921  0.624977  -2.595837
C  3.743036  -0.096248  -0.760485
H  4.144975  0.887950  -0.992270
H  4.493541  -0.627989  -0.191439
H  3.628824  -0.628937  -1.694841
C  3.738348  0.093409  2.163892
H  3.621459  0.625662  3.098161
H  4.138910  -0.891166  2.396457
H  4.491025  0.624976  1.597554
C  1.203151  -0.092321  3.622147
H  1.203034  0.892524  4.084755
H  0.335021  -0.623443  3.988316
H  2.069376  -0.624590  3.991157
