16
VERBATIM state-averaged CASSCF(16,12)/6-31G* S1 geometry for guanine tautomer 2 from ACS Supporting Information p. S5 (angstrom)
N -0.00994500 -0.02599600 0.00750100
C -0.03299700 -0.00821300 1.39642300
H 0.87777200 -0.05016200 1.96166600
N -1.21891100 0.04874600 1.91171300
C -2.07929100 0.14520700 0.83590200
C -3.45628600 -0.37454400 0.78618400
O -4.09269300 -0.83146600 1.70035300
N -3.95143300 -0.28406300 -0.51913700
H -4.92598700 -0.40288900 -0.66918700
C -3.20841900 0.63742100 -1.24203000
N -3.83751000 1.35739300 -2.22418100
H -4.64713600 1.86007200 -1.93242600
H -3.21241500 1.90858600 -2.76966700
N -1.84112000 0.22451600 -1.56801200
C -1.30468400 0.15428000 -0.40859900
H 0.79598500 0.07556000 -0.56258100
