25
Z alpha-(2-naphthyl)-N-methylnitrone S0; verbatim RSC ESI CASSCF(14,12)/6-31G* coordinates; E=-590.18078 Eh
C -1.475293000 -0.611764000 0.000001000
C -1.743322000 0.757374000 0.000001000
C -0.649797000 1.673332000 0.000001000
C 0.650152000 1.242033000 -0.000001000
C 0.932636000 -0.160046000 0.000000000
C -0.122296000 -1.051563000 0.000000000
C -2.561656000 -1.538946000 0.000002000
C -3.857808000 -1.094587000 0.000004000
C -4.130967000 0.300252000 0.000004000
C -3.098933000 1.202480000 0.000003000
C 2.279667000 -0.734931000 -0.000002000
N 3.411145000 -0.089143000 0.000002000
C 4.679018000 -0.817541000 -0.000001000
O 3.552220000 1.167974000 0.000006000
H -0.858780000 2.728496000 0.000001000
H 1.462754000 1.935648000 -0.000001000
H 0.068439000 -2.111240000 -0.000001000
H -2.347479000 -2.593302000 0.000001000
H -4.671799000 -1.797048000 0.000005000
H -5.150059000 0.643044000 0.000005000
H -3.298927000 2.259336000 0.000003000
H 2.361078000 -1.803097000 -0.000007000
H 5.224145000 -0.511700000 -0.879924000
H 5.224143000 -0.511711000 0.879926000
H 4.523542000 -1.886111000 -0.000008000
