12
VERBATIM 1e CASSCF(8,8)/6-31G* optimized geometry from scanned SI; OCR-assisted and visually checked page by page (angstrom)
N   0.000000000  0.000000000 -2.808263000
C   0.000000000  0.000000000 -1.531227000
C   0.000000000  0.000000000  1.278315000
C   0.000000000 -1.260514000 -0.767852000
C   0.000000000  1.260514000 -0.767852000
C   0.000000000 -1.240003000  0.600340000
C   0.000000000  1.240003000  0.600340000
H   0.000000000 -2.183153000 -1.315098000
H   0.000000000  2.183153000 -1.315098000
H   0.000000000 -2.146422000  1.175940000
H   0.000000000  2.146422000  1.175940000
F   0.000000000  0.000000000  2.607087000
