22
zcis-fs; exact publisher-SI CASSCF coordinates; DOI 10.1021/jp909947c
C -1.3088012873 -0.5838975617 0.2652186989
C -0.0185978585 -1.7104399036 -1.2019104460
C 0.7522531175 -0.6237700308 -0.6010771917
C 2.0805710853 -0.3775716378 -0.7240988953
C 2.8398808142 0.7220211756 -0.1464491986
C 2.2839718496 2.0043145712 0.1249611565
C 4.2164124526 0.5247163604 0.1414977887
C 3.0381599936 3.0152103852 0.6738849346
C 4.9930767984 1.5151132590 0.6999771153
C 4.4381882396 2.8203252943 1.0059800074
N -0.1668056073 0.1461965206 0.1918287743
N -1.3345982502 -1.5305530417 -0.7255172689
O 0.3195028190 -2.5901934053 -1.9402502435
O 5.1192374296 3.7185678523 1.5154920268
H 1.2653829870 2.2085358849 -0.1512631843
H 4.6613366172 -0.4305155531 -0.0792270652
H 2.6150592656 3.9844799991 0.8631537473
H 6.0328511365 1.3537708844 0.9158794333
H -1.9842424274 -2.2853929369 -0.7272152475
H -2.1767152213 -0.2712147975 0.8058878675
H 2.6290608408 -1.1191113300 -1.2788612335
H 0.1815481755 0.5790707444 1.0262116007
