30
π RC (Hexamethyl Dewar Benzene) 1/2; verbatim CAS(5,6)/6-31G(d) coordinates from Supporting Information, DOI 10.1021/ja060182i
C  -0.921050  2.082218  1.724015
C  -0.292693  1.211146  0.705440
C  0.600449  -0.002510  0.809613
C  -0.292673  1.211161  -0.705446
C  0.600445  -0.002513  -0.809623
C  -0.920992  2.082261  -1.724020
C  1.822958  0.011316  -1.701309
C  -0.933073  -2.075942  1.737068
C  -0.280840  -1.250598  -0.675918
C  1.822966  0.011333  1.701295
C  -0.280830  -1.250600  0.675924
C  -0.933100  -2.075944  -1.737049
H  -0.192446  -2.495862  -2.409473
H  -1.616713  -1.480033  -2.335476
H  -1.495863  -2.892587  -1.302493
H  -1.495841  -2.892588  1.302527
H  -1.616678  -1.480028  2.335503
H  -0.192408  -2.495854  2.409484
H  2.426679  0.897738  1.540203
H  2.437002  -0.858513  1.501463
H  1.536191  -0.017158  2.747345
H  1.536179  -0.017172  -2.747358
H  2.436985  -0.858537  -1.501479
H  2.426682  0.897714  -1.540220
H  -0.150984  2.525738  -2.349005
H  -1.523316  2.867143  -1.287833
H  -1.544466  1.475770  -2.376116
H  -1.523379  2.867096  1.287826
H  -0.151063  2.525700  2.349021
H  -1.544526  1.475707  2.376089
