16
VERBATIM CASSCF(14,11)/6-31G* S1 geometry for guanine tautomer 6 from ACS Supporting Information p. S9 (angstrom)
N -0.01358700 -0.00118300 -0.01363000
C 0.00241600 0.00045400 1.29976300
H 0.88276700 0.00136400 1.90359000
N -1.26535900 0.00069500 1.83437300
C -2.16367500 -0.00046600 0.78463200
C -3.54957900 -0.00060900 0.74043300
O -4.47641800 0.00075700 1.55318700
N -3.96283700 -0.00222100 -0.71993300
H -4.95413700 -0.00252000 -0.84045100
C -3.17782300 -0.00297900 -1.76641000
N -3.61997500 -0.00403900 -3.08018500
H -4.62607900 -0.00551700 -3.11555500
N -1.86276700 -0.00262900 -1.62252900
C -1.31666900 -0.00152700 -0.33247400
H -1.50846300 0.00309200 2.79649200
H -1.28691600 -0.00351200 -2.43621800
