23
ctrans-fc; exact publisher-SI CASSCF coordinates; DOI 10.1021/jp909947c
C 0.4367788193 0.9850666508 -0.5176747003
C 2.1513792072 -0.3034233022 0.1904175211
C 2.4847375632 1.1114585800 0.3963448958
C 3.5458262136 1.8098351955 0.8960654313
C 4.8135784733 1.4203557580 1.4429685066
C 5.6694258199 2.4690060257 1.8661782092
C 5.2700340668 0.0932186851 1.5910755598
C 6.9120728179 2.2131692698 2.4075300780
C 6.5197517806 -0.1647880617 2.1354708470
C 7.3457394253 0.8874530225 2.5455993352
N 1.3320992244 1.8092401635 -0.0866207101
N 0.8502405468 -0.2669870897 -0.3854492292
O 2.7402774105 -1.3163752357 0.4101821115
O 8.5558501084 0.6960418127 3.0751618886
H 5.3480054019 3.4899576514 1.7654288327
H 4.6622171129 -0.7315202720 1.2871906899
H 7.5575727705 3.0083318259 2.7269119319
H 6.8524617504 -1.1820156454 2.2413718088
H 8.7791867585 -0.2240978834 3.1364952342
H 3.3999955629 2.8775386491 0.8751357035
H -0.5092565146 1.2770934124 -0.9255421586
H 0.3378026957 -1.0832154575 -0.6463098694
H 1.2250005846 2.8035672849 -0.0934311676
