30
CI (CTS) (Hexamethyl Dewar Benzene) 1/2; verbatim CAS(5,6)/6-31G(d) coordinates from Supporting Information, DOI 10.1021/ja060182i
C  -1.258180  -0.719147  -0.154787
C  0.032182  -1.076449  0.498547
C  -1.299782  0.619572  -0.319690
C  -0.038655  1.202840  0.217815
C  1.260564  0.700287  -0.310411
C  1.302173  -0.638432  -0.145508
C  0.057341  -2.008742  1.666069
H  0.934756  -1.855384  2.280683
H  -0.832417  -1.911092  2.274280
H  0.090982  -3.033089  1.293551
C  -2.302416  -1.761861  -0.441696
H  -3.157291  -1.332549  -0.944260
H  -1.895956  -2.542806  -1.076424
H  -2.651755  -2.228262  0.473247
C  -2.403736  1.495664  -0.842893
H  -2.787864  2.147639  -0.065675
H  -2.041133  2.122850  -1.651049
H  -3.226894  0.905783  -1.219904
C  -0.079369  2.390143  1.124227
H  0.801126  2.444336  1.751058
H  -0.105642  3.293682  0.514218
H  -0.966046  2.388627  1.744652
C  2.310905  1.644293  -0.825806
H  2.647569  2.318987  -0.045975
H  3.172289  1.107516  -1.196717
H  1.915378  2.247583  -1.636707
C  2.412063  -1.613237  -0.424610
H  2.783456  -2.056910  0.492946
H  2.060205  -2.418093  -1.062079
H  3.241812  -1.130819  -0.921076
