15
VERBATIM 9H-adenine (S0/ππ*)CI optimized geometry from SI, CASSCF/6-311G* except B3LYP ground minimum (angstrom)
N   0.000000000  0.000000000  0.000000000
C   1.378549520  0.000000000  0.000000000
H   1.935706620  0.916182250  0.000000000
N   1.900294110 -1.190748060  0.027030610
C   0.833055100 -2.058830820  0.064351210
C   0.762494640 -3.455444190 -0.393537750
N   1.890895600 -4.143075430 -0.740025330
H   1.730117990 -4.946136050 -1.303482010
H   2.686793830 -3.604012710 -0.988634930
N  -0.420982700 -3.969667820 -0.531007550
C  -1.290606210 -3.174834350  0.190937860
H  -1.322126420 -3.362022890  1.250101980
N  -1.548304770 -1.882087850 -0.223049550
C  -0.396389550 -1.312016170  0.024141650
H  -0.596288460  0.788593440 -0.060315560
