21
acis-fs; exact publisher-SI CASSCF coordinates; DOI 10.1021/jp909947c
C -1.4133479548 -0.3985835707 -0.1539123392
N -0.2660097020 0.1795460362 0.0299705307
N -1.2831350687 -1.6377377589 -0.7512232194
C 0.0613288956 -1.8846975335 -0.9728354804
O 0.5195193458 -2.8959596332 -1.4870201339
C 0.7036510453 -0.6837259193 -0.4546255685
C 2.1048027026 -0.4948568371 -0.4747584615
C 2.8683832738 0.6528724714 0.0085166266
C 2.2921272853 1.8162742594 0.6030703549
C 4.2864708601 0.6280715979 -0.1132959525
C 3.0825231817 2.8718517404 1.0405755392
C 5.0822199363 1.6759035901 0.3200986871
C 4.5205263940 2.8688170954 0.9275900369
O 5.2407470977 3.8090618279 1.3158809690
H 1.2282767354 1.8667074897 0.7095188429
H 4.7516912996 -0.2364533343 -0.5579786937
H 2.6274693103 3.7398123312 1.4861043545
H 6.1527893015 1.6327037651 0.2165279568
H -2.0085577980 -2.2695870013 -0.9916528808
H -2.3649387281 0.0112615856 0.1143418992
H 2.6641694266 -1.3064625622 -0.9024833379
