13
Verbatim CASSCF(6,6)/6-311G(d) geometry: (7) CI-3-c; DOI 10.1021/jp060995t SI
C      0.191999     0.192206    -0.005643
C      0.149781     0.246278     1.453274
N      1.280336     0.092870     2.142398
C      2.255747    -0.235288     1.310795
N      1.245692     0.832330    -0.682147
C      1.986855    -0.214523    -0.128111
H      3.210608    -0.537557     1.696720
C     -1.038271    -0.125506    -0.809814
H     -0.782652     0.329769     1.979001
H      2.583152    -0.801366    -0.805315
H     -1.605563     0.784415    -0.989284
H     -1.676689    -0.835389    -0.297532
H     -0.768906    -0.538199    -1.772494
