12
VERBATIM 2c CASSCF(8,8)/6-31G* optimized geometry from scanned SI; OCR-assisted and visually checked page by page (angstrom)
N   0.028725000 -0.037553000 -0.022043000
C  -0.032292000 -0.007982000  1.251216000
C   0.813658000  0.002206000  2.430069000
C   1.259387000  1.231555000  2.750927000
C  -0.711164000  1.099984000  0.694391000
C  -0.053161000  2.393081000  0.960127000
C   0.874135000  2.412209000  1.951146000
F   1.133762000 -1.100288000  3.078883000
H   1.942192000  1.356221000  3.570384000
F  -2.047794000  1.129545000  0.574426000
H  -0.347376000  3.285976000  0.441060000
H   1.366843000  3.334424000  2.198584000
