13
VERBATIM SI geometry: 1,2,2,3-tetrafluorocyclopentane-1,3-diyl ring-inversion TS 2d, (2,2)CASSCF/6-31G*, C2, SI p S12
C 0.000000 0.000000 0.669330
C 0.021793 1.100302 -0.291562
C -0.021793 -1.100302 -0.291562
C -0.049517 0.768856 -1.739371
C 0.049517 -0.768856 -1.739371
F 1.062741 -0.007765 1.513068
F -1.062741 0.007765 1.513068
F 0.000000 2.351343 0.114543
F 0.000000 -2.351343 0.114543
H 0.979694 -1.113724 -2.180574
H -0.760680 -1.235003 -2.290322
H -0.979694 1.113724 -2.180574
H 0.760680 1.235003 -2.290322
