12
Planar TS, CAS(8,8)/6-31+G(d,p), Gaussian 98; verbatim SI coordinates, units not stated
C 2.6948895187 0.7390126246 -0.0955915372
C 2.2767119423 -0.5697159129 0.1191318106
O 0.3986448006 -0.4966933395 0.0763215072
O -1.5805784014 -1.0110184325 0.1413039454
C -2.2392277800 0.1206574500 -0.0359659326
O -1.7738303653 1.2063240782 -0.2042088466
H 0.2546000759 0.4581605022 -0.0851334247
H -3.3067530015 -0.0897593486 -0.0064163261
H 2.8084630252 1.1274441795 -1.0915098332
H 2.7788951057 1.4341638396 0.7200975959
H 2.3437795768 -0.9780300006 1.1095082870
H 2.3728848609 -1.2806025920 -0.6793251918
