25
E alpha-(2-naphthyl)-N-methylnitrone S0; verbatim RSC ESI CASSCF(14,12)/6-31G* coordinates; E=-590.17567 Eh
C 2.867369000 0.736156000 -1.918856000
N 3.578994000 0.318081000 -0.904937000
C 4.006431000 -1.073564000 -0.734487000
O 3.941233000 1.071426000 0.029832000
H 3.540521000 -1.727410000 -1.451805000
H 5.081880000 -1.105069000 -0.829956000
H 3.731283000 -1.351946000 0.270259000
H 2.587812000 1.768974000 -1.851031000
H -2.123513000 -1.671305000 -6.324178000
C 0.698813000 -0.850634000 -4.597694000
C 1.643644000 -1.498548000 -5.394749000
C 1.210436000 -2.218863000 -6.547999000
C -0.119279000 -2.279291000 -6.874295000
C -1.082028000 -1.620448000 -6.062480000
C -0.682464000 -0.923501000 -4.952378000
C 1.131532000 -0.133777000 -3.443699000
C 2.460443000 -0.069638000 -3.092692000
C 3.420512000 -0.719340000 -3.926953000
C 3.022303000 -1.415316000 -5.036786000
H 1.944764000 -2.714052000 -7.158450000
H -0.439429000 -2.823693000 -7.744310000
H -1.405754000 -0.422156000 -4.333905000
H 0.393827000 0.361286000 -2.836599000
H 4.465641000 -0.644303000 -3.686133000
H 3.753017000 -1.898226000 -5.661093000
