12
CI (π-σ) (Dewar Benzene) 1/2; verbatim CAS(5,6)/6-31G(d) coordinates from Supporting Information, DOI 10.1021/ja060182i
C  -1.255643  -0.682965  -0.308699
C  -0.000097  -0.863744  0.493873
C  -1.255539  0.683241  -0.308622
C  0.000097  0.863743  0.493873
C  1.255643  0.682965  -0.308699
C  1.255539  -0.683241  -0.308622
H  -1.946910  -1.412192  -0.686038
H  -1.946677  1.412619  -0.685905
H  0.000186  1.487033  1.373216
H  -0.000186  -1.487033  1.373216
H  1.946677  -1.412619  -0.685906
H  1.946910  1.412192  -0.686038
