12
π RC (Dewar Benzene) 1/2; verbatim CAS(5,6)/6-31G(d) coordinates from Supporting Information, DOI 10.1021/ja060182i
C  -1.212410  -0.702748  -0.302312
C  0.001321  -0.809603  0.575608
C  -1.212325  0.703067  -0.302175
C  0.001523  0.809596  0.575618
C  1.249560  0.673697  -0.295262
C  1.249495  -0.674008  -0.295125
H  -1.865243  -1.419027  -0.767547
H  -1.865048  1.419519  -0.767298
H  -0.015784  1.441323  1.448692
H  -0.016273  -1.441350  1.448662
H  1.842516  -1.422808  -0.781471
H  1.842668  1.422343  -0.781738
