16
VERBATIM CASSCF(14,11)/6-31G* S1 geometry for guanine tautomer 5 from ACS Supporting Information p. S8 (angstrom)
N 2.32304700 0.05167200 0.09068100
C 2.35642300 0.04362000 1.40368900
H 3.24544100 0.05934600 1.99472700
N 1.09809100 0.01263000 1.95848700
C 0.18211200 -0.00071600 0.91977800
C -1.19968400 -0.03212100 0.88951500
O -2.11523000 -0.05733900 1.71127400
N -1.62930700 -0.03344700 -0.56533300
H -2.61832300 -0.05480400 -0.70981500
C -0.86339300 -0.01054700 -1.61979700
N -1.48219600 -0.01798400 -2.86507200
H -0.79647300 0.00300400 -3.60233500
N 0.45882600 0.01939800 -1.49655000
C 1.01651000 0.02442800 -0.20949900
H 0.87083900 0.00341600 2.92455400
H 1.05518200 0.03530400 -2.29382600
