33
VERBATIM neutral ketoprofen ground-state stationary geometry, CASSCF(14,11)/6-31G*, SI p. S81 (angstrom)
C   4.221068000 -1.664549000 -0.616419000
C   2.992545000 -1.037749000 -0.475582000
C   2.922735000  0.310794000 -0.150932000
C   4.105463000  1.038419000  0.026187000
C   5.337890000  0.407690000 -0.095005000
C   5.397830000 -0.948129000 -0.419195000
H   4.261118000 -2.705965000 -0.880455000
H   2.092378000 -1.600463000 -0.638401000
H   4.044379000  2.085207000  0.254647000
H   6.243836000  0.966920000  0.054536000
H   6.349899000 -1.437262000 -0.521541000
C   1.621186000  1.049712000 -0.059022000
O   1.577819000  2.216009000 -0.323990000
C   0.375797000  0.349438000  0.403205000
C  -0.849609000  0.783599000 -0.110564000
C   0.392166000 -0.649931000  1.375669000
C  -2.049308000  0.218442000  0.315218000
H  -0.849617000  1.566685000 -0.845039000
C  -0.794809000 -1.202513000  1.815624000
H   1.322560000 -0.980612000  1.797692000
C  -2.006076000 -0.783257000  1.291665000
H  -0.778080000 -1.965515000  2.573094000
H  -2.916768000 -1.235356000  1.637943000
C  -4.077456000 -0.394647000 -1.009307000
O  -4.780054000 -1.202215000 -0.215480000
O  -4.017203000 -0.564412000 -2.182763000
C  -4.262712000  1.381763000  0.796783000
H  -5.186413000  1.741556000  0.355130000
H  -4.517188000  0.694347000  1.592740000
H  -3.742420000  2.228391000  1.229459000
C  -3.370425000  0.721003000 -0.262577000
H  -3.138281000  1.448987000 -1.028125000
H  -5.167613000 -1.882477000 -0.758319000
