15
VERBATIM 9H-adenine (nπ*)min optimized geometry from SI, CASSCF/6-311G* except B3LYP ground minimum (angstrom)
N   0.000000000  0.000000000  0.000000000
C   1.390988570  0.000000000  0.000000000
H   1.947401680  0.912679140  0.000000000
N   1.887478740 -1.193462920 -0.009567680
C   0.798285990 -2.034317540 -0.011509570
C   0.640869330 -3.458902870 -0.054182400
N   1.741820890 -4.276547370 -0.094267030
H   1.561303900 -5.211618830 -0.375102240
H   2.558606240 -3.876395850 -0.493312080
N  -0.552734690 -3.980487070 -0.029533540
C  -1.691496280 -3.263452740  0.298049530
H  -2.633698610 -3.714072860  0.062748430
N  -1.559683970 -1.897524810 -0.058770850
C  -0.374682730 -1.302771080 -0.007710550
H  -0.594466000  0.790654370  0.040812210
