12
Symmetric spiro TS, CAS(10,10)/6-31+G(d,p); verbatim SI coordinates, units not stated
C 2.2625334552 -0.1437930179 -0.7932751391
C 2.2844234013 -0.0740818293 0.5646925499
O 0.4451662560 0.5291201657 -0.0897215482
O -1.3724676378 1.0765721829 -0.0511194873
C -2.0303191737 -0.0181294810 -0.0092078794
O -1.5567397454 -1.1367335513 0.0029638481
H 0.0559114668 -0.3861731684 -0.0588481135
H -3.1079009518 0.1434329904 0.0158815040
H 2.0442934946 -1.0646061061 -1.3014495576
H 2.5338541242 0.6997093053 -1.3969357535
H 2.5804117598 0.8241932830 1.0695619504
H 2.0907752113 -0.9389757221 1.1712826444
