12
VERBATIM TS1c CASSCF(8,8)/6-31G* optimized geometry from scanned SI; OCR-assisted and visually checked page by page (angstrom)
N   0.011474000 -0.023028000  0.001046000
C  -0.019808000 -0.030169000  1.264742000
C   1.008443000 -0.004569000  2.313165000
C   0.997782000  1.041806000  3.158198000
C  -1.234064000  0.719644000  1.505421000
C  -1.131597000  1.942221000  2.236886000
C  -0.033538000  2.081844000  3.041088000
F   1.933026000 -0.947733000  2.338344000
H   1.767118000  1.140338000  3.900459000
F  -2.414015000  0.279417000  1.117229000
H  -1.927289000  2.663183000  2.223821000
H   0.082756000  2.963801000  3.642050000
