15
VERBATIM SI geometry: 2,2-difluoro-1,3-dicyanocyclopentane-1,3-diyl ring-inversion TS 2f used in Table 1, (6,6)CASSCF/6-31G*, C2, SI p S18
C 0.000000 0.000000 0.566915
C 0.000000 1.161416 -0.369515
C 0.000000 -1.161416 -0.369515
C -0.046837 0.770249 -1.819464
C 0.046837 -0.770249 -1.819464
F 1.067046 0.002065 1.381915
F -1.067046 -0.002065 1.381915
C 0.009548 2.494930 0.089003
N 0.020472 3.590266 0.443846
C -0.009548 -2.494930 0.089003
N -0.020472 -3.590266 0.443846
H 0.971123 -1.111304 -2.273880
H -0.766509 -1.227571 -2.371160
H -0.971123 1.111304 -2.273880
H 0.766509 1.227571 -2.371160
