15
VERBATIM 9H-adenine (ππ*-La)ts optimized geometry from SI, CASSCF/6-311G* except B3LYP ground minimum (angstrom)
N   0.008854000  0.002664000 -0.009844000
C  -0.002930000  0.024853000  1.366219000
H   0.905054000  0.042153000  1.934141000
N  -1.203911000  0.049019000  1.881872000
C  -2.060195000  0.094613000  0.808398000
C  -3.395011000 -0.351357000  0.749166000
N  -4.122393000 -0.734057000  1.833823000
H  -4.908797000 -1.312537000  1.657370000
H  -3.612899000 -0.934068000  2.661482000
N  -3.887615000 -0.505852000 -0.480734000
C  -3.180312000 -0.025095000 -1.574323000
H  -3.710264000  0.155832000 -2.485912000
N  -1.773067000 -0.160928000 -1.620181000
C  -1.298263000 -0.008943000 -0.439089000
H   0.805310000 -0.036030000 -0.594444000
