16
Verbatim CASSCF(6,6)/6-311G(d) geometry: (15) 2,6-dimethylpyrazine (5); DOI 10.1021/jp060995t SI
C      0.000000     0.000000     0.000000
N      0.000000     0.000000     1.323302
C      1.182897     0.000000     1.926437
C      2.380768     0.001854     1.201434
C      1.182281     0.000149    -0.739273
N      2.368175     0.001915    -0.134610
C      3.725584     0.001639     1.875783
C      1.177271    -0.020477    -2.244890
H     -0.957855     0.002898    -0.488093
H      1.183757     0.002711     3.001096
H      1.410849    -1.014694    -2.612018
H      1.928579     0.656217    -2.630916
H      0.212255     0.265869    -2.646061
H      4.272484    -0.901136     1.627773
H      3.632915     0.057981     2.953746
H      4.317040     0.844103     1.537366
