25
Z alpha-(2-naphthyl)-N-methylnitrone S1; verbatim RSC ESI CASSCF(14,12)/6-31G* coordinates; E=-590.04631 Eh
C 1.483846000 -0.650349000 0.000000000
C 1.767494000 0.784738000 0.000000000
C 0.682034000 1.686283000 0.000000000
C -0.668688000 1.253976000 0.000001000
C -0.985174000 -0.141490000 0.000004000
C 0.154755000 -1.081614000 0.000002000
C 2.554494000 -1.542919000 -0.000002000
C 3.876188000 -1.099505000 -0.000005000
C 4.163714000 0.276355000 -0.000001000
C 3.117322000 1.206447000 0.000000000
C -2.249393000 -0.703777000 0.000006000
N -3.462967000 -0.064093000 0.000000000
C -4.709790000 -0.815880000 0.000002000
O -3.588005000 1.181802000 -0.000010000
H 0.884088000 2.742189000 -0.000001000
H -1.455447000 1.975698000 0.000000000
H -0.049758000 -2.137050000 0.000002000
H 2.350558000 -2.599505000 -0.000004000
H 4.677621000 -1.815510000 -0.000007000
H 5.183714000 0.614020000 -0.000002000
H 3.333938000 2.259868000 0.000000000
H -2.338659000 -1.771218000 0.000011000
H -5.277190000 -0.550305000 0.881294000
H -5.277185000 -0.550318000 -0.881297000
H -4.513361000 -1.877561000 0.000011000
