12
Unsymmetric spiro TS, CAS(10,10)/6-31+G(d,p); verbatim SI coordinates, units not stated
C 2.5927750713 -0.2802935707 -0.8206270178
C 2.1482473209 0.0634293789 0.4517896136
O 0.3655603535 0.4484836079 0.1491652319
O -1.4765654725 0.9516496631 0.5855889802
C -2.2249396219 -0.0444153314 0.0723234807
O -1.8318249515 -0.9909927423 -0.5410339937
H 0.1076851952 -0.2967731785 -0.3900193019
H -3.2712373660 0.1485255615 0.2934601636
H 2.5382514325 -1.2954351629 -1.1712006807
H 2.8491590018 0.4783455759 -1.5365752992
H 2.3835467066 1.0364654417 0.8383184096
H 2.0492839907 -0.7084541921 1.1926354318
