22
zcis-fc; exact publisher-SI CASSCF coordinates; DOI 10.1021/jp909947c
C -1.5485747904 -0.5039053769 -0.1886540709
N -0.3896187718 0.1069188330 0.0106108775
N -1.2624235327 -1.6911164324 -0.7777628354
C 0.1090341631 -1.8553501645 -0.9651273098
O 0.6304389529 -2.8224751331 -1.4678736301
C 0.6763820176 -0.6352143286 -0.4284089593
C 2.0710533696 -0.3599052609 -0.4077699624
C 2.8277128356 0.7007728855 0.0340569473
C 2.3206374242 1.9202931093 0.6473430505
C 4.2771278893 0.6223610313 -0.1140380163
C 3.1359065219 2.9205751157 1.0570763322
C 5.1129234512 1.6078514403 0.2873973034
C 4.5980497041 2.8357291767 0.9062711464
O 5.3292366311 3.7372867181 1.2763794949
H 1.2643429381 2.0514552539 0.7876674729
H 4.6816447861 -0.2666441474 -0.5645278763
H 2.7470988302 3.8151347328 1.5076612695
H 6.1776611643 1.5293083568 0.1690381972
H -1.9287344894 -2.3762485628 -1.0519230719
H -2.5102565950 -0.1279543048 0.0687914976
H 2.6150394276 -1.1815984181 -0.8387844196
H -0.3259583676 1.0024883160 0.4344787726
