23
VERBATIM ground-state constrained proton-transfer scan geometry at O10-H11=1.60000 A, CASSCF(12,11)/6-31G*, SI pp. 22-23 (angstrom; atomic numbers converted to symbols)
C   0.038542000 -0.044627000  0.046740000
C   1.436432000  0.000423000  0.231605000
C   2.115273000  1.239402000  0.280544000
C   1.417028000  2.431560000  0.204796000
C   0.027978000  2.399489000  0.041958000
C  -0.636640000  1.184299000 -0.046768000
H   3.180602000  1.265302000  0.412782000
H   1.940426000  3.367220000  0.269888000
H  -0.527518000  3.317156000 -0.021453000
H  -1.702577000  1.166372000 -0.177087000
C   2.271835000 -1.198453000  0.379542000
C   3.669566000 -1.252884000 -0.163547000
H   3.959639000 -2.285555000 -0.294844000
H   3.750970000 -0.713802000 -1.096292000
H   4.344877000 -0.801121000  0.556525000
O   1.911595000 -2.231488000  0.973786000
C  -0.794764000 -1.303514000 -0.068718000
H  -1.622141000 -1.117355000 -0.737465000
H  -0.219889000 -2.127090000 -0.481283000
C  -1.351297000 -1.704581000  1.326835000
O  -2.540731000 -1.614330000  1.497931000
O  -0.460716000 -2.059021000  2.146771000
H   0.974649000 -2.187000000  1.451537000
