15
VERBATIM 2j CASSCF(8,8)/6-31G* optimized geometry from scanned SI; OCR-assisted and visually checked page by page (angstrom)
N   0.052902000 -0.121481000  0.057481000
C  -0.025441000  0.004528000  1.310355000
C   0.816787000  0.016367000  2.501776000
C   1.292049000  1.260831000  2.747066000
C  -0.765112000  1.097836000  0.739391000
C  -0.016439000  2.364721000  0.931220000
C   0.946518000  2.409902000  1.888159000
H   1.048370000 -0.849762000  3.090067000
H   1.960620000  1.433577000  3.571429000
C  -2.258395000  1.124855000  0.541142000
H  -0.283892000  3.253902000  0.385746000
H   1.473055000  3.329590000  2.071908000
H  -2.646847000  0.118722000  0.439908000
H  -2.754744000  1.601817000  1.382524000
H  -2.519801000  1.677438000 -0.356687000
