23
ccis-fc; exact publisher-SI CASSCF coordinates; DOI 10.1021/jp909947c
C -1.5059455479 -0.5372577638 -0.2106230682
C 0.1098117643 -1.8982674717 -0.9836417474
C 0.7181028322 -0.6595280129 -0.4444830656
C 2.0376438177 -0.3919365180 -0.4218047684
C 2.8320644242 0.7359639761 0.0499560803
C 2.3174640543 1.9084886118 0.6430108426
C 4.2267572122 0.6369755561 -0.1038103405
C 3.1553083355 2.9311620320 1.0617301546
C 5.0747897978 1.6580938466 0.3134921082
C 4.5403734140 2.8105868328 0.8987530847
N -0.4000340041 0.1062367953 0.0068922614
N -1.2858237372 -1.7097868997 -0.7840370034
O 0.6075328585 -2.8555617419 -1.4767754818
O 5.4038785357 3.7609266406 1.2813669520
H 1.2635985923 2.0518565851 0.7907459407
H 4.6513344814 -0.2425353692 -0.5518168289
H 2.7375939525 3.8146227633 1.5106872704
H 6.1380315873 1.5790716076 0.1946302151
H -1.9867574470 -2.3729912290 -1.0430496571
H -2.4760570123 -0.1613514308 0.0445459801
H 2.6090548307 -1.1978526294 -0.8485016123
H 4.9671567275 4.5087653725 1.6678705317
H -0.3639610998 1.0072521366 0.4320611720
