15
VERBATIM TS1j CASSCF(8,8)/6-31G* optimized geometry from scanned SI; OCR-assisted and visually checked page by page (angstrom)
N   0.000000000  0.000000000  0.000000000
C   0.000000000  0.000000000  1.260639000
C   1.062976000  0.000000000  2.283445000
C   1.003261000  1.063515000  3.121564000
C  -1.258604000  0.697357000  1.487685000
C  -1.143709000  1.925724000  2.221820000
C  -0.044502000  2.086794000  3.021231000
C   2.131204000 -1.054705000  2.276710000
H   1.760818000  1.195934000  3.874289000
H  -2.165096000  0.346421000  1.044375000
H  -1.938501000  2.649859000  2.225217000
H   0.049777000  2.961457000  3.638717000
H   2.607136000 -1.100827000  1.301062000
H   2.891573000 -0.848364000  3.020546000
H   1.713562000 -2.036344000  2.479337000
