13
VERBATIM SI geometry: 1,3-difluorocyclopentane-1,3-diyl ring-inversion TS 2c used in Table 1, (2,2)CASSCF/6-31G*, C1, SI p S9
C 0.015247 -1.116594 -0.029296
C -1.127441 -0.163167 -0.023310
C 1.144767 -0.156274 -0.290519
C -0.775347 1.287619 -0.060323
C 0.763295 1.253895 0.084422
H 0.157980 -1.623741 0.927110
H -0.072222 -1.887166 -0.791577
F -2.388311 -0.575146 0.073015
F 2.365883 -0.552226 0.087934
H 1.056734 1.430762 1.117090
H 1.265783 1.994382 -0.526617
H -1.078033 1.749767 -0.997908
H -1.251521 1.849482 0.737521
