27
VERBATIM FCZ Cartesian coordinates (angstrom) from ACS Supporting Information p. S13 for DOI 10.1021/jp107899g; B3LYP ground-state equilibrium geometry of Z-hemithioindigo
C       0.000000     0.000000     0.000000
C       1.176300     0.000000    -0.668383
C       1.505042     0.000000    -2.086100
C       0.557531     0.000000    -3.131065
C       0.966034     0.000000    -4.461664
C       2.325058     0.000000    -4.786313
C       3.278789     0.000000    -3.765783
C       2.872599     0.000000    -2.435690
C       0.000000     0.000000     1.506228
C      -1.387323     0.000000     2.010167
C      -1.770859     0.000000     3.353787
C      -3.126101     0.000000     3.671614
C      -4.085476     0.000000     2.648190
C      -3.712131     0.000000     1.302392
C      -2.352043     0.000000     0.996039
O       1.012855     0.000000     2.192793
S      -1.657235     0.000000    -0.643942
H       2.032617     0.000000     0.006723
H      -0.503824     0.000000    -2.910595
H       0.218778     0.000000    -5.250447
H       2.637669     0.000000    -5.826895
H       4.338101     0.000000    -4.007306
H       3.616755     0.000000    -1.643222
H      -1.000656     0.000000     4.119744
H      -3.444135     0.000000     4.709937
H      -5.141889     0.000000     2.903437
H      -4.464635     0.000000     0.519232
