12
CTS (Dewar Benzene) 1/2; verbatim CAS(5,6)/6-31G(d) coordinates from Supporting Information, DOI 10.1021/ja060182i
C  -1.288549  -0.682954  -0.302602
C  0.001796  -1.045593  0.342922
C  -1.292160  0.657259  -0.274858
C  -0.000571  1.054358  0.350922
C  1.289870  0.660241  -0.279110
C  1.289256  -0.679959  -0.306716
H  -2.052249  -1.382032  -0.584364
H  -2.082649  1.343145  -0.513149
H  -0.000006  1.736138  1.185469
H  0.003908  -1.631266  1.248743
H  2.053502  -1.377314  -0.591259
H  2.077851  1.347978  -0.520346
