12
BRC (Benzene) 1/2; verbatim CAS(5,6)/6-31G(d) coordinates from Supporting Information, DOI 10.1021/ja060182i
C  0.011127  0.000047  0.006952
C  -0.008026  0.000524  1.432491
C  1.178668  -0.000016  2.117380
C  2.404906  -0.001051  1.388276
C  2.424058  -0.001504  -0.037259
C  1.237363  -0.000958  -0.722149
H  -0.918962  0.000477  -0.530650
H  -0.949511  0.001286  1.947491
H  1.203493  0.000307  3.190190
H  3.334995  -0.001465  1.925879
H  3.365541  -0.002268  -0.552262
H  1.212542  -0.001289  -1.794959
