22
ntrans-fc; exact publisher-SI CASSCF coordinates; DOI 10.1021/jp909947c
C 0.4727218124 1.0173326628 -0.5000650223
C 2.1438001477 -0.3195048796 0.1864907694
C 2.4445868940 1.1347072708 0.3795221916
C 3.5085119672 1.8087378759 0.8794043126
C 4.8058303703 1.4111236067 1.4391312940
C 5.6561834650 2.4535610294 1.8597655315
C 5.2672919094 0.0927301948 1.5897358966
C 6.9091392450 2.2026090594 2.4059274518
C 6.5239594284 -0.1631419426 2.1373401681
C 7.3471856113 0.8851176920 2.5461931898
N 1.3256814810 1.8715774655 -0.0868307667
N 0.8835100090 -0.2995596404 -0.3713533266
O 2.7792091243 -1.3112857283 0.4273482298
O 8.5746301074 0.6845738624 3.0831056044
H 5.3309754072 3.4734370794 1.7573633041
H 4.6569666474 -0.7300385904 1.2847273890
H 7.5484390311 3.0050242862 2.7229452237
H 6.8567361010 -1.1820719923 2.2431348902
H 8.7698712793 -0.2412169206 3.1316960878
H 3.3559579978 2.8734712294 0.8553278269
H -0.4846046804 1.2603897444 -0.9148417185
H 0.3787764372 -1.1150982239 -0.6296224561
