16
Verbatim CASSCF(6,6)/6-311G(d) geometry: (12) Pro-4-d; DOI 10.1021/jp060995t SI
C      0.000000     0.000000     0.000000
C      0.000000     0.000000     1.400524
N      1.113657     0.000000     2.112047
C      2.273584    -0.002618     1.451207
C      1.260954    -0.002844    -0.584918
N      2.383702    -0.005004     0.132414
C      3.530709    -0.001936     2.275646
C     -1.275738     0.010159    -0.802256
H     -0.923716     0.000017     1.954588
H      1.379792    -0.004874    -1.654719
H     -1.822889     0.936028    -0.659357
H     -1.929582    -0.805166    -0.512457
H     -1.072668    -0.091644    -1.861542
H      3.565043     0.877299     2.909142
H      4.400622    -0.012024     1.634932
H      3.555830    -0.869583     2.925160
