15
VERBATIM SI geometry: 1,3-dicyanocyclopentane-1,3-diyl ring-inversion TS 2e used in Table 1, (6,6)CASSCF/6-31G*, Cs, SI p S15
C 1.180258 0.203453 0.000000
C 0.163389 0.258333 1.111923
C 0.163389 0.258333 -1.111923
C -0.962917 1.209419 0.773311
C -0.962917 1.209419 -0.773311
C 0.163389 -0.597986 2.225539
C 0.163389 -0.597986 -2.225539
N 0.164318 -1.294570 3.145435
N 0.164318 -1.294570 -3.145435
H 1.768157 -0.703927 0.000000
H 1.855555 1.055861 0.000000
H -1.907875 0.861720 -1.169862
H -0.778149 2.195345 -1.190775
H -1.907875 0.861720 1.169862
H -0.778149 2.195345 1.190775
