39
VERBATIM KP.2H2O short-distance-CT/ground-state conical-intersection geometry, CASSCF(14,11)/6-31G*, SI pp. S91-S92 (angstrom)
C  -4.949410000 -1.321250000  0.548299000
C  -3.593498000 -1.057233000  0.598644000
C  -3.080393000  0.150512000  0.121498000
C  -3.976955000  1.102752000 -0.362613000
C  -5.333744000  0.834659000 -0.418482000
C  -5.825483000 -0.379335000  0.030342000
H  -5.323209000 -2.255457000  0.926233000
H  -2.937631000 -1.779833000  1.043733000
H  -3.604321000  2.049381000 -0.697525000
H  -6.005262000  1.578762000 -0.806717000
H  -6.879437000 -0.585303000 -0.006872000
C  -1.647493000  0.483005000  0.182677000
O  -1.402973000  1.757555000  0.503998000
C  -0.572774000 -0.423336000 -0.034487000
C   0.728078000 -0.124994000  0.459974000
C  -0.745137000 -1.642550000 -0.737568000
C   1.792823000 -1.028327000  0.346421000
H   0.880153000  0.786154000  1.003909000
C   0.318105000 -2.522135000 -0.893373000
H  -1.681695000 -1.862293000 -1.212474000
C   1.567944000 -2.241361000 -0.357738000
H   0.169232000 -3.426974000 -1.454125000
H   2.374652000 -2.928516000 -0.509550000
C   4.090370000  0.004166000 -0.696323000
O   4.213126000  1.170236000 -0.530613000
O   4.294943000 -0.932206000 -1.371068000
H   3.370000000  2.411317000  0.496683000
C   3.091853000 -0.687266000  0.896502000
H   3.074126000  0.195385000  1.519366000
C   4.026239000 -1.763506000  1.409300000
H   4.969705000 -1.332930000  1.729432000
H   3.581200000 -2.260555000  2.269757000
H   4.246377000 -2.509414000  0.658241000
O   0.639626000  2.876883000 -0.910218000
H   0.475461000  3.716327000 -1.317323000
H  -0.677428000  2.154981000  0.000811000
H   3.243845000  3.768120000  1.188763000
O   2.752683000  3.000864000  0.926655000
H   1.401848000  2.991385000 -0.340818000
