21
acis-fc; exact publisher-SI CASSCF coordinates; DOI 10.1021/jp909947c
C -1.4360465408 -0.4452400853 -0.1744435878
N -0.3359541545 0.1802773366 0.0356563030
N -1.2539358789 -1.6796300574 -0.7735617078
C 0.1099727274 -1.8734843912 -0.9712534098
O 0.5950433033 -2.8668134345 -1.4788257727
C 0.6915088192 -0.6535695678 -0.4393923714
C 2.0537530210 -0.4041498897 -0.4277686841
C 2.8254049495 0.6781199183 0.0238087855
C 2.3012106814 1.8699757447 0.6278755216
C 4.2513446542 0.6248561593 -0.1122556756
C 3.1083967970 2.8883635679 1.0464555635
C 5.0790073316 1.6296778752 0.2983745025
C 4.5598644638 2.8431528370 0.9124209403
O 5.2880100042 3.7614580213 1.2897235549
H 1.2379473277 1.9525250653 0.7494824082
H 4.6843922074 -0.2554213398 -0.5619840126
H 2.6913359242 3.7732726580 1.4970294088
H 6.1468180669 1.5559446501 0.1804832037
H -1.9516290339 -2.3367392211 -1.0276809596
H -2.4125298733 -0.0793007823 0.0750983780
H 2.6167920428 -1.2184554246 -0.8568326587
