16
VERBATIM state-averaged CASSCF(16,12)/6-31G* S1 geometry for guanine tautomer 1 from ACS Supporting Information p. S4 (angstrom)
N 0.03808200 -0.01652700 0.00528600
C -0.02174900 -0.02084900 1.29432600
H 0.84043100 -0.06849200 1.93169500
N -1.28059700 0.06458400 1.83083100
C -2.16530500 0.17051800 0.77067000
C -3.46669800 -0.51879700 0.69724300
O -4.06152600 -1.02825800 1.61159200
N -3.92511000 -0.46746000 -0.61891800
H -4.88629700 -0.63113300 -0.80833200
C -3.19236000 0.50130200 -1.30033600
N -3.80888200 1.23402700 -2.27896300
H -4.63592600 1.71360500 -1.99703400
H -3.18198000 1.80858200 -2.79807100
N -1.80814500 0.11561800 -1.58068100
C -1.29119800 0.12204000 -0.40230400
H -1.51599900 -0.00967700 2.79149000
