16
Verbatim CASSCF(6,6)/6-311G(d) geometry: (14) Pro-4-e; DOI 10.1021/jp060995t SI
C      0.000000     0.000000     0.000000
N      0.000000     0.000000     1.339292
C      1.166081     0.000000     1.924173
C      2.354122     0.002531     1.180054
N      1.047492     0.000581    -0.794448
C      2.250405     0.001998    -0.191092
H      3.310210     0.004031     1.668930
C      3.448581     0.003833    -1.100231
H     -0.965739     0.000928    -0.471233
C      1.197250    -0.023989     3.428856
H      3.424958    -0.864754    -1.747959
H      4.377170    -0.004689    -0.542681
H      3.432886     0.882566    -1.734613
H      1.353715    -1.038830     3.782354
H      0.255191     0.328394     3.823155
H      2.001191     0.589725     3.819394
