12
VERBATIM 2h CASSCF(8,8)/6-31G* optimized geometry from scanned SI; OCR-assisted and visually checked page by page (angstrom)
N   0.073942000 -0.072223000 -0.015788000
C  -0.020284000  0.005990000  1.237123000
C   0.816322000  0.001557000  2.429005000
C   1.269168000  1.233595000  2.746629000
C  -0.759256000  1.121173000  0.717159000
C  -0.061674000  2.396500000  0.978630000
C   0.895907000  2.413492000  1.941631000
Cl  1.207332000 -1.444518000  3.288014000
H   1.932461000  1.369211000  3.580359000
H  -1.819639000  1.086306000  0.556904000
H  -0.347669000  3.303614000  0.477132000
H   1.402706000  3.331674000  2.177308000
