12
Symmetric spiro TS, CAS(12,12)/6-31+G(d,p); verbatim SI coordinates, units not stated
C 2.2714639911 -0.1482567731 -0.7953134986
C 2.2727146356 -0.0714675269 0.5636586982
O 0.4545352399 0.5300111620 -0.0922082982
O -1.3821911248 1.0822952115 -0.0391298754
C -2.0288853102 -0.0178832350 -0.0029327704
O -1.5447979366 -1.1330397387 -0.0060348237
H 0.0501031014 -0.3785961947 -0.0760386874
H -3.1078848088 0.1325646866 0.0326146631
H 2.0510934234 -1.0694232301 -1.3016418303
H 2.5529386975 0.6921245234 -1.3984342264
H 2.5719626846 0.8256246226 1.0683366842
H 2.0688890675 -0.9334184563 1.1709489832
