14
Verbatim CASSCF(6,6)/6-311G(d) geometry: (6) Pro-3-b; DOI 10.1021/jp060995t SI
C     -1.557721     0.000830    -0.285537
N     -1.557721     0.000830     1.041075
C     -0.363945     0.000830     1.617489
C      0.808032     0.005787     0.881716
N     -0.500605     0.001950    -1.075698
C      0.702916     0.004966    -0.494576
H      1.764961     0.010934     1.369770
C      1.898107    -0.008108    -1.405600
H     -2.518399     0.002228    -0.766804
H     -0.345922     0.001504     2.693056
H      2.052198    -1.007451    -1.799990
H      2.800661     0.294772    -0.889064
H      1.730445     0.652712    -2.245563
H     -1.162056    -0.529098    -1.732514
