13
Verbatim CASSCF(6,6)/6-311G(d) geometry: (3) CI-3-a; DOI 10.1021/jp060995t SI
C      0.018506     0.078948     0.205344
N     -0.093964    -0.074875     1.448527
C      1.203499    -0.011128     2.023775
C      2.175543     0.187596     1.122397
C      1.479563     0.291899    -0.248735
N      1.875082    -0.801485    -1.055206
H      3.229186     0.273327     1.291122
H      1.619370     1.266711    -0.705131
C     -1.130859     0.029400    -0.751541
H      1.302693    -0.121351     3.084681
H     -1.166918     0.922804    -1.366391
H     -2.056821    -0.065903    -0.203089
H     -1.026282    -0.822040    -1.417103
