30
σ RC (Hexamethyl Dewar Benzene) 1/2; verbatim CAS(5,6)/6-31G(d) coordinates from Supporting Information, DOI 10.1021/ja060182i
C  1.857114  0.000039  1.630484
C  0.986169  0.000010  0.414109
C  -1.857306  -0.000028  1.630362
C  0.661528  1.291940  -0.283273
C  0.661542  -1.291965  -0.283165
C  -0.661419  -1.291958  -0.283130
C  -0.661430  1.291906  -0.283169
C  1.687401  2.287571  -0.728189
C  1.687459  -2.287656  -0.727877
C  -1.687332  -2.287574  -0.728013
C  -1.687364  2.287659  -0.727742
C  -0.986065  -0.000006  0.414167
H  -2.354023  1.843753  -1.461511
H  -1.215629  3.152399  -1.174667
H  -2.290812  2.623489  0.109795
H  2.291367  2.623168  0.109072
H  1.215623  3.152462  -1.174784
H  2.353581  1.843582  -1.462332
H  -2.894963  -0.000162  1.294171
H  -1.705898  0.887563  2.231659
H  -1.705706  -0.887530  2.231733
H  1.705464  0.887592  2.231780
H  2.894871  0.000025  1.294613
H  1.705442  -0.887496  2.231797
H  1.215720  -3.152515  -1.174580
H  2.291207  -2.623304  0.109517
H  2.353833  -1.843724  -1.461881
H  -2.353775  -1.843478  -1.461870
H  -2.291025  -2.623484  0.109314
H  -1.215575  -3.152278  -1.174988
