12
Planar TS, CAS(10,10)/6-31+G(d,p); verbatim SI coordinates, units not stated
C 0.7702862676 -0.0054447688 2.6856942668
C -0.5604217370 0.0077522340 2.2822364543
O -0.5028111824 0.0005099964 0.4028209672
O -1.0390344336 -0.0022366425 -1.5719411607
C 0.0985555487 0.0000211052 -2.2389604721
O 1.2197448115 0.0026296373 -1.7761040692
H 0.4636851009 0.0007233926 0.2470983155
H -0.1158909027 -0.0010472436 -3.3049170513
H 1.3107972328 -0.9297821507 2.7806868237
H 1.3303938360 0.9076693536 2.7757075792
H -1.1174515126 0.9212887361 2.3674509036
H -1.1370130293 -0.8929636498 2.3727774431
