15
VERBATIM 9H-adenine (S0)min optimized geometry from SI, CASSCF/6-311G* except B3LYP ground minimum (angstrom)
N   0.000000000  0.000000000  0.000000000
C   1.379672660  0.000000000  0.000000000
H   1.944407890  0.921523990  0.000000000
N   1.897897120 -1.200113860 -0.000000000
C   0.798743050 -2.041566820 -0.000166180
C   0.669716370 -3.445004680 -0.002355910
N   1.741539830 -4.268931380  0.017898970
H   1.592145540 -5.259095140 -0.075399210
H   2.668626330 -3.891217180 -0.073429250
N  -0.561222740 -3.980006760 -0.011653360
C  -1.617092640 -3.153343510 -0.011142510
H  -2.587780410 -3.641562440 -0.017441120
N  -1.634696910 -1.819717640 -0.005414470
C  -0.396256510 -1.318693990 -0.001218780
H  -0.615028350  0.798096220 -0.000560870
