23
ccis-fs; exact publisher-SI CASSCF coordinates; DOI 10.1021/jp909947c
C -1.4756898608 -0.5986270103 0.1171901050
C 0.0474792226 -1.7485214852 -1.1180099762
C 0.7314299717 -0.6053311370 -0.4520833460
C 2.0707964572 -0.3962555141 -0.5595359535
C 2.8483573805 0.7015017795 -0.0283125580
C 2.2773207783 1.9473532803 0.3844765931
C 4.2680773999 0.5588772911 0.0396311534
C 3.0687672249 2.9758176648 0.8362081857
C 5.0663170392 1.5737291684 0.4998119818
C 4.4740300525 2.8008010258 0.9087772627
N -0.2658663476 0.1236332853 0.2069468574
N -1.2728046859 -1.6258630195 -0.7707749919
O 0.5452014280 -2.5915483998 -1.8145122149
O 5.2861675634 3.7276322629 1.3412272051
H 1.2218000627 2.1044564689 0.2955256669
H 4.7134298507 -0.3653520009 -0.2756112354
H 2.6334453040 3.9136646457 1.1294590008
H 6.1329102174 1.4780213100 0.5617332802
H -1.9774172747 -2.2624566310 -1.0745057716
H -2.4227277173 -0.0995490997 0.1853607163
H 2.6057138166 -1.1604399704 -1.0913977883
H 4.8511637323 4.5353628238 1.5958880652
H -0.0559876154 0.4960272615 1.1097067622
