23
VERBATIM SCT/S0 conical intersection, SA-CASSCF(12,9)/6-31G*, SI pp. 15-16 (angstrom; atomic numbers converted to symbols)
C   0.400131000 -0.294721000 -0.221127000
C   1.608267000 -0.095010000  0.616828000
C   2.050165000  1.244322000  0.811492000
C   1.192738000  2.291143000  0.718241000
C  -0.073841000  2.122337000  0.088165000
C  -0.456793000  0.918332000 -0.319520000
H   3.023649000  1.447657000  1.195203000
H   1.512940000  3.263522000  0.997051000
H  -0.713081000  2.969132000 -0.045426000
H  -1.396946000  0.788722000 -0.811161000
C   2.498521000 -1.213208000  0.549832000
C   3.364811000 -1.554037000 -0.666561000
H   3.933432000 -2.479949000 -0.585685000
H   2.704518000 -1.609575000 -1.547490000
H   4.057570000 -0.719594000 -0.850620000
O   2.506712000 -1.984598000  1.576113000
C  -0.130044000 -1.400236000 -0.758624000
H  -1.045755000 -1.279556000 -1.290139000
H   0.255176000 -2.382214000 -0.729130000
C  -2.020524000 -0.994173000  2.019036000
O  -2.894105000 -0.434898000  1.537399000
O  -1.185217000 -1.578819000  2.541582000
H   1.815762000 -1.536570000  2.224860000
