30
CI (π-σ) (Hexamethyl Dewar Benzene) 1/2; verbatim CAS(5,6)/6-31G(d) coordinates from Supporting Information, DOI 10.1021/ja060182i
C  -0.857718  2.190439  1.720783
C  -0.334233  1.255208  0.684276
C  0.478929  -0.000101  0.872043
C  -0.334347  1.255154  -0.684243
C  0.478929  -0.000074  -0.872043
C  -0.857986  2.190320  -1.720733
C  1.698644  0.000126  -1.761064
C  -0.857457  -2.190818  1.720733
C  -0.333930  -1.255579  -0.684276
C  1.698644  -0.000007  1.761064
C  -0.334044  -1.255525  0.684243
C  -0.857189  -2.190937  -1.720783
H  -0.043390  -2.593987  -2.315378
H  -1.526090  -1.667454  -2.397651
H  -1.396193  -3.015738  -1.273892
H  -1.396438  -3.015620  1.273819
H  -1.526414  -1.667279  2.397502
H  -0.043740  -2.593869  2.315438
H  2.306594  0.880131  1.589357
H  2.306735  -0.880042  1.589332
H  1.398373  -0.000045  2.805161
H  1.398373  0.000091  -2.805161
H  2.306807  -0.879865  -1.589357
H  2.306523  0.880308  -1.589333
H  -0.044367  2.593563  -2.315442
H  -1.397162  3.014995  -1.273819
H  -1.526821  1.666620  -2.397499
H  -1.396917  3.015112  1.273892
H  -0.044018  2.593681  2.315382
H  -1.526497  1.666795  2.397648
