16
Verbatim CASSCF(6,6)/6-311G(d) geometry: (13) CI-4-e; DOI 10.1021/jp060995t SI
C      0.033135    -0.071917    -0.113705
N     -0.148913    -0.027962     1.148323
C      1.148208     0.091336     1.757877
C      2.121705     0.116192     0.864928
C      1.498503     0.009101    -0.540333
N      1.838374    -1.252410    -1.115206
H      3.175386     0.189414     1.048695
C      1.809938     1.189130    -1.459978
H     -0.782063    -0.187465    -0.805429
C      1.209166     0.167468     3.245688
H      1.283681     1.085955    -2.402726
H      2.871808     1.227175    -1.674325
H      1.517348     2.126509    -1.000612
H      0.768183    -0.721612     3.683872
H      0.639415     1.019041     3.602554
H      2.229835     0.258366     3.594788
