12
Unsymmetric spiro TS, CAS(12,12)/6-31+G(d,p); verbatim SI coordinates, units not stated
C 2.5579292234 -0.2695096017 -0.8082368887
C 2.0824579788 0.0521142914 0.4605579580
O 0.3747213340 0.4961138315 0.0443250325
O -1.4074173303 0.9965945171 0.4856399846
C -2.1451523733 -0.0565384676 0.1019811915
O -1.7505104832 -1.0446369263 -0.4562730412
H 0.0878104393 -0.2806095791 -0.4348836152
H -3.1869998640 0.1229845300 0.3514895491
H 2.4743910124 -1.2700707274 -1.1930494294
H 2.8700055835 0.5008230412 -1.4881507299
H 2.3448193611 1.0009154865 0.8875944710
H 1.9278867788 -0.7376453446 1.1728305358
