12
Planar TS, CAS(12,12)/6-31+G(d,p); verbatim SI coordinates, units not stated
C 0.7688243453 -0.0042791732 2.6852904437
C -0.5618324104 0.0070110216 2.2804477168
O -0.5020473564 0.0031667393 0.4041513764
O -1.0340629892 0.0035493624 -1.5690748074
C 0.1065051770 -0.0004723054 -2.2353632862
O 1.2310951075 -0.0039876273 -1.7846398811
H 0.4646009900 -0.0020961892 0.2481717891
H -0.1330152020 -0.0001372973 -3.3006944586
H 1.3109093796 -0.9278500010 2.7793088398
H 1.3272617881 0.9097468294 2.7767581197
H -1.1205441480 0.9193466217 2.3677460209
H -1.1368546818 -0.8948779810 2.3704481268
