15
VERBATIM 9H-adenine (nπ*/ππ*-Lb)CI2 optimized geometry from SI, CASSCF/6-311G* except B3LYP ground minimum (angstrom)
N   0.000000000  0.000000000  0.000000000
C   1.382248350  0.000000000  0.000000000
H   1.947785960  0.908500760  0.000000000
N   1.889719270 -1.205543080  0.016332420
C   0.816130700 -2.049039250  0.019381920
C   0.720606710 -3.473314290  0.025777330
N   1.693234970 -4.345931010 -0.487835000
H   1.520609020 -5.279396610 -0.176149040
H   2.617071260 -4.074196040 -0.231308170
N  -0.576316580 -3.950886420 -0.012159950
C  -1.662065860 -3.134068820 -0.054253270
H  -2.611749880 -3.625297300 -0.092507610
N  -1.649035860 -1.786000280  0.002302930
C  -0.398181110 -1.304106620  0.016997040
H  -0.599108760  0.788866790 -0.027543230
