12
CI (CTS) (Dewar Benzene) 1/2; verbatim CAS(5,6)/6-31G(d) coordinates from Supporting Information, DOI 10.1021/ja060182i
C  -1.285226  -0.673184  -0.260302
C  0.001871  -1.126693  0.322326
C  -1.286758  0.669226  -0.263540
C  -0.000733  1.128210  0.317141
C  1.284393  0.672185  -0.267847
C  1.285961  -0.670225  -0.264609
H  -2.085840  -1.342685  -0.511607
H  -2.088794  1.335773  -0.518134
H  -0.000218  1.848076  1.118963
H  0.004043  -1.843373  1.126986
H  2.087266  -1.337883  -0.518599
H  2.084035  1.340574  -0.525125
