12
VERBATIM TS1f CASSCF(8,8)/6-31G* optimized geometry from scanned SI; OCR-assisted and visually checked page by page (angstrom)
N   0.000000000  0.000000000  0.000000000
C   0.000000000  0.000000000  1.260190000
C   1.036861000  0.000000000  2.295651000
C   1.080360000  1.062676000  3.117266000
C  -1.195641000  0.800301000  1.458622000
C  -0.990660000  2.045264000  2.155123000
C   0.102989000  2.150768000  2.967944000
F   1.915232000 -0.988478000  2.338444000
H   1.856561000  1.140605000  3.855177000
H  -2.132554000  0.488222000  1.051972000
H  -1.726084000  2.828136000  2.120972000
H   0.258158000  3.037418000  3.553987000
