12
Planar TS, CAS(6,6)/6-31G(d); verbatim SI coordinates, units not stated
C 2.7030077306 0.7551812550 -0.0971612228
C 2.2714008240 -0.5532292826 0.1128279108
O 0.4081040672 -0.5250316099 -0.0084228045
O -1.6277410419 -1.0335473774 -0.0685064652
C -2.2426149139 0.1352998436 -0.0072221519
O -1.7354378237 1.2116478234 0.0630985995
H 0.2383579033 0.4139406463 0.0355236608
H -3.3161335908 -0.0354516405 -0.0318300393
H 2.8304016906 1.1435176239 -1.0908062512
H 2.7612937286 1.4571727491 0.7146970030
H 2.3277082620 -0.9569281448 1.1058198889
H 2.4082085499 -1.2703128193 -0.6734261167
