13
Verbatim CASSCF(6,6)/6-311G(d) geometry: (4) Pro-3-a; DOI 10.1021/jp060995t SI
C      0.000000     0.000000     0.000000
N      0.000000     0.000000     1.329445
C      1.179025     0.000000     1.944252
C      2.374264     0.000646     1.237571
N      1.093671     0.000268    -0.763420
C      2.269161     0.000346    -0.150455
H      3.326136    -0.000474     1.733322
H      3.140738    -0.001252    -0.780737
C     -1.327973     0.025124    -0.704235
H      1.159415    -0.001760     3.019485
H     -1.532043     1.022960    -1.079555
H     -2.120820    -0.253697    -0.024841
H     -1.318854    -0.647428    -1.552356
