12
VERBATIM TS1h CASSCF(8,8)/6-31G* optimized geometry from scanned SI; OCR-assisted and visually checked page by page (angstrom)
N   0.000000000  0.000000000  0.000000000
C   0.000000000  0.000000000  1.259174000
C   1.047362000  0.000000000  2.289331000
C   1.051680000  1.060346000  3.124867000
C  -1.226780000  0.745799000  1.487681000
C  -1.064765000  1.980792000  2.205623000
C   0.037775000  2.116392000  3.003820000
Cl  2.237817000 -1.252917000  2.321682000
H   1.816067000  1.158874000  3.872473000
H  -2.151527000  0.410904000  1.070949000
H  -1.832899000  2.732447000  2.199174000
H   0.166207000  2.995686000  3.607317000
