16
Verbatim CASSCF(6,6)/6-311G(d) geometry: (18) Pro-5-f; DOI 10.1021/jp060995t SI
C     -1.889499     0.001887    -0.522937
N     -1.889499     0.001887     0.798598
C     -0.690913     0.001887     1.380339
C      0.500559     0.000026     0.668493
N     -0.818000     0.000930    -1.312278
C      0.376501     0.001253    -0.732520
C      1.836991     0.002895     1.365762
C      1.579003    -0.007470    -1.640035
H     -2.846029    -0.000022    -1.011605
H     -0.686826     0.001690     2.456872
H      2.154751    -0.919767    -1.517549
H      2.242736     0.824259    -1.428342
H      1.255936     0.058876    -2.668420
H      2.446307    -0.842846     1.066085
H      1.710169    -0.048548     2.440126
H      2.399593     0.903757     1.143991
