22
ntrans-fs; exact publisher-SI CASSCF coordinates; DOI 10.1021/jp909947c
C 0.47128316050 .9389170970 -0.5040600724
C 2.1981501295 -0.29216777440 .2115940558
C 2.43548772421 .12320061960 .3752394461
C 3.52782890561 .90377436680 .8921548894
C 4.78461047471 .49323968991 .4332860900
C 5.69469914222 .51330464751 .8792841984
C 5.22312586120 .12993069291 .5719689560
C 6.92316168962 .21077842902 .4122922140
C 6.4601597667 -0.17027723372 .1088799604
C 7.32631634700 .85325497962 .5355143988
N 1.34439053531 .8171975813 -0.0804019364
N 0.9243798658 -0.3258416404 -0.3550623695
O 2.8359564970 -1.31695039260 .4524016354
O 8.53238549070 .62071281793 .0614591858
H 5.39772265803 .54118138591 .7896632107
H 4.5765512685 -0.65950310341 .2524317596
H 7.59763679542 .97736480652 .7432588569
H 6.7647312828 -1.19839619042 .2018627255
H 8.7174025446 -0.30885307843 .1054106905
H 3.34689349662 .96044514370 .8552675007
H -0.48621742521 .1715628631 -0.9194156562
H 0.4587035828 -1.1704005670 -0.5965836687
