18
Tetramethylethylene (TME); verbatim CASSCF/6-31G* Cartesian coordinates from ja027225p_si_001.pdf p. 172
C 0.000416 -0.001232 0.675693
C 0.000290 -0.003897 -0.674508
C 1.255522 0.028627 -1.522999
C -1.254860 0.030659 1.523987
C 1.255612 -0.030221 1.524188
C -1.254573 -0.035779 -1.522095
H 2.146022 0.303827 -0.976812
H 1.432561 -0.938035 -1.990145
H 1.136422 0.748385 -2.328907
H 2.145919 -0.308186 0.979061
H 1.432991 0.938551 1.986816
H 1.136472 -0.746196 2.333442
H -2.145774 0.303054 0.977065
H -1.430129 -0.935298 1.993244
H -1.137134 0.752378 2.328358
H -2.145955 -0.314077 -0.978880
H -1.439325 0.953183 -1.991122
H -1.134477 -0.745744 -2.336387
