12
Symmetric spiro TS, CAS(8,8)/6-31+G(d,p); verbatim SI coordinates, units not stated
C 2.2601115587 -0.1449227080 -0.7915216737
C 2.2873196039 -0.0811788936 0.5652433164
O 0.4211367527 0.5317035889 -0.0951980710
O -1.3709237084 1.0790670827 -0.0670452323
C -2.0237686912 -0.0193227817 -0.0098051047
O -1.5382542693 -1.1320481025 0.0161076922
H 0.0504930564 -0.3622284057 -0.0554201076
H -3.1018218840 0.1350916464 0.0148501753
H 2.0427488095 -1.0644091421 -1.3029496685
H 2.5281815422 0.7011839104 -1.3931063876
H 2.5801786499 0.8162625323 1.0736582996
H 2.0945402401 -0.9486636760 1.1690117801
