12
VERBATIM TS1e CASSCF(8,8)/6-31G* optimized geometry from scanned SI; OCR-assisted and visually checked page by page (angstrom)
N   0.000000000  0.000000000  0.000000000
C   0.000000000  0.000000000  1.260326000
C   1.056854000  0.000000000  2.285504000
C   1.006415000  1.032076000  3.157855000
C  -1.259803000  0.689726000  1.518201000
C  -1.156056000  1.906724000  2.273970000
C  -0.055922000  2.030492000  3.062311000
H   1.836183000 -0.737346000  2.299101000
H   1.746260000  1.170615000  3.923688000
H  -2.166137000  0.353667000  1.064183000
H  -1.941004000  2.638272000  2.315268000
F   0.085637000  3.085105000  3.860107000
