22
ncis-fs; exact publisher-SI CASSCF coordinates; DOI 10.1021/jp909947c
C -1.3838143164 -0.3544061954 -0.1359326732
C 0.0831991149 -1.8362981776 -0.9510266157
C 0.7198753907 -0.6543935888 -0.4419252870
C 2.1386050811 -0.4942784572 -0.4768884954
C 2.88358079300 .6044214963 -0.0155464721
C 2.26744353421 .76525011550 .5812507982
C 4.31553533790 .6051029780 -0.1268278304
C 3.03110734902 .82527055441 .0228617689
C 5.06885067801 .66424043980 .3151751975
C 4.42833521772 .78950628150 .8970674429
N -0.22418717920 .21749061290 .0439636413
N -1.2604538664 -1.5840441460 -0.7269572865
O 0.5492420668 -2.8500174296 -1.4666295201
O 5.21308506893 .77777690531 .3031211337
H 1.20198175881 .78283024440 .6725956988
H 4.7998255025 -0.2457293292 -0.5668015923
H 2.55927942143 .68478660971 .4659675909
H 6.13891886631 .67347616810 .2361487090
H -1.9923774518 -2.2106061269 -0.9658956494
H -2.32817093420 .06580156840 .1364077696
H 2.6755969219 -1.3179821269 -0.9081809559
H 4.71557618494 .49335505341 .6801831476
