13
Verbatim CASSCF(6,6)/6-311G(d) geometry: (5) CI-3-b; DOI 10.1021/jp060995t SI
C      0.029666     0.045556    -0.038470
N     -0.127976     0.175782     1.222829
C      1.179802     0.263068     1.790094
C      2.149260     0.187809     0.866200
C      1.490250     0.024266    -0.491381
N      1.789200    -1.281536    -0.987898
H      3.208796     0.198576     1.024474
C      1.827088     1.117774    -1.507843
H     -0.801893    -0.065323    -0.711030
H      1.275508     0.374089     2.851085
H      1.268595     0.968503    -2.425131
H      2.882933     1.094218    -1.751179
H      1.586059     2.097552    -1.111170
