12
VERBATIM 1f CASSCF(8,8)/6-31G* optimized geometry from scanned SI; OCR-assisted and visually checked page by page (angstrom)
N   0.009222000  0.000000000  0.056478000
C   0.000717000  0.000000000  1.332254000
C   1.240549000  0.000000000  2.117953000
C   1.247785000  0.000000000  3.475851000
C   0.012732000  0.000000000  4.188560000
C  -1.251291000  0.000000000  2.108150000
C  -1.221026000  0.000000000  3.475499000
F   2.372165000  0.000000000  1.429088000
H   2.187220000  0.000000000  3.995738000
H   0.017720000  0.000000000  5.261008000
H  -2.174088000  0.000000000  1.560741000
H  -2.143532000  0.000000000  4.026637000
