12
VERBATIM 2i CASSCF(8,8)/6-31G* optimized geometry from scanned SI; OCR-assisted and visually checked page by page (angstrom)
N   0.050077000 -0.036536000 -0.034438000
C   0.002383000  0.006614000  1.229974000
C   0.823185000 -0.022402000  2.430857000
C   1.252910000  1.224849000  2.743511000
C  -0.720655000  1.107792000  0.693583000
C  -0.049520000  2.397812000  0.959600000
C   0.886057000  2.410163000  1.943533000
H   1.075080000 -0.911125000  2.973905000
H   1.908133000  1.374071000  3.582456000
Cl -2.477908000  1.131006000  0.568552000
H  -0.341513000  3.294123000  0.444849000
H   1.382835000  3.331704000  2.187756000
