12
VERBATIM 1d CASSCF(8,8)/6-31G* optimized geometry from scanned SI; OCR-assisted and visually checked page by page (angstrom)
N   0.000000000  0.000000000 -2.803263000
C   0.000000000  0.000000000 -1.527455000
C   0.000000000  0.000000000  1.323972000
C   0.000000000 -1.263154000 -0.769982000
C   0.000000000  1.263154000 -0.769982000
C   0.000000000 -1.212025000  0.587038000
C   0.000000000  1.212025000  0.587038000
H   0.000000000 -2.198051000 -1.294010000
H   0.000000000  2.198051000 -1.294010000
F   0.000000000 -2.338591000  1.290680000
F   0.000000000  2.338591000  1.290680000
H   0.000000000  0.000000000  2.394835000
