12
Planar TS, CAS(8,8)/6-31+G(d,p), GAMESS; verbatim SI coordinates, units not stated
C 0.7807099419 -0.0063820191 2.7171277318
C -0.5490297837 0.0080492020 2.3030312668
O -0.5165522000 0.0007206829 0.4144003682
O -1.0610310759 -0.0048679244 -1.6467279999
C 0.0972967706 -0.0004741341 -2.2798489027
O 1.2002253889 0.0060799886 -1.7763332036
H 0.4199727046 0.0050601882 0.2400057528
H -0.0821288511 -0.0037757252 -3.3520303879
H 1.3212563906 -0.9309796668 2.8109517278
H 1.3423787522 0.9059141762 2.8074554165
H -1.1055815048 0.9217982913 2.3900909440
H -1.1266765335 -0.8920230597 2.3944272861
