12
σ RC (Dewar Benzene) 1/2; verbatim CAS(5,6)/6-31G(d) coordinates from Supporting Information, DOI 10.1021/ja060182i
C  1.039067  0.000000  0.323576
C  0.670077  1.290880  -0.321337
C  0.670077  -1.290883  -0.321334
C  -0.670061  -1.290888  -0.321309
C  -0.670061  1.290884  -0.321314
C  -1.039088  0.000000  0.323574
H  -1.366199  -2.064085  -0.584331
H  1.366230  -2.064052  -0.584397
H  1.664224  0.000003  1.202117
H  -1.664297  0.000002  1.202076
H  -1.366197  2.064087  -0.584323
H  1.366229  2.064052  -0.584397
