10
VERBATIM ACS SI coordinates: ketene + formaldimine TS1, CASSCF(6,5)/aug-cc-pVDZ, DOI 10.1021/jo026188h
C       0.000000    0.000000    0.000000
C       0.000000    0.000000    1.467845
N       1.271993    0.000000    1.994167
C       2.291848   -0.660885    1.314747
O      -0.998519    0.034337    2.149367
H       0.745642    0.569094   -0.529315
H      -0.894379   -0.309526   -0.517023
H       3.304083   -0.363937    1.538636
H       2.115564   -1.643904    0.909323
H       1.350769    0.164302    2.976838
