21
VERBATIM official SI Table S22, 3(npi*)-TS2, CAS(10,9)/6-311G(d,p) optimized Cartesian coordinates in angstrom
O 0.748878 2.057277 1.855833
C 0.382263 0.794370 2.102865
C 0.362838 0.240104 3.408002
C -0.161914 -1.135661 3.209560
C -0.871860 -1.158188 2.067047
C -0.903119 0.244801 1.498221
C -1.968074 3.313719 3.043065
C -1.651626 2.534522 4.096198
C -1.629483 1.120506 3.734075
C -2.036966 1.023590 2.260576
C -2.245034 2.495330 1.804568
H 1.045439 0.512825 4.191048
H -0.044133 -1.937066 3.913835
H -1.585655 2.776040 0.988914
H -3.261366 2.650753 1.451405
H -2.961974 0.471307 2.142479
H -1.989825 0.389852 4.435968
H -1.424217 2.895427 5.083092
H -0.999067 0.312853 0.422271
H -1.448747 -1.976002 1.679351
H -2.009186 4.387739 3.054398
