17
VERBATIM ACS SI Cartesian coordinates; SOURCE UNITS UNSTATED; CH2-inversion transition state to anticlockwise-twisted biradical 24; CAS(8,8)/6-31G* E=-270.86371 Eh; DOI 10.1021/ja983480r
C -1.071252 -1.190592 -1.141513
C 0.045066 -0.577480 -1.719807
H 0.308793 1.555402 -1.551378
H 0.552678 -0.907318 -2.605445
H -0.611913 0.611726 2.431426
C -1.474034 -0.490669 0.003822
H 2.093006 -0.497179 2.075111
C -0.554368 0.677417 0.267792
H 1.460550 0.634627 -0.624175
H -2.301619 -0.748903 0.638114
H 0.746855 1.505737 1.806097
H 0.657814 -1.591689 1.735692
H -1.551538 -2.072764 -1.524069
C 1.047515 -0.599335 1.858042
C 0.167821 0.596936 1.670279
H -1.123942 1.603439 0.279112
C 0.423005 0.661134 -0.943197
