17
VERBATIM ACS SI Cartesian coordinates; SOURCE UNITS UNSTATED; closure transition state to bicyclo[3.2.0]hept-2-ene 13; CAS(8,8)/6-31G* E=-270.86353 Eh; DOI 10.1021/ja983480r
C -0.605024 -1.102153 -1.342234
C 0.237873 -0.146138 -1.884641
H 0.167136 1.962044 -1.397843
H 0.732054 -0.215721 -2.834879
H -0.614055 0.662863 2.421039
C -1.062325 -0.691086 -0.065852
H 1.648416 -0.890068 1.003561
C -0.534737 0.693157 0.258305
H 1.451765 1.098070 -0.605439
H -1.788632 -1.203867 0.534942
H 0.787064 1.514368 1.821323
H 1.098259 -1.088112 2.728531
H -0.865859 -2.030703 -1.816379
C 0.923852 -0.649928 1.761056
C 0.155548 0.639615 1.654448
H -1.340597 1.423313 0.283211
C 0.417420 1.013076 -0.931721
