17
VERBATIM ACS SI Cartesian coordinates; SOURCE UNITS UNSTATED; biradical closure transition state 34; CAS(6,6)/6-31G* E=-270.79855 Eh; DOI 10.1021/ja983480r
H 1.392196 -0.576701 -2.217449
C 1.638330 -0.975722 -1.248389
C 1.996346 -2.469481 -0.998012
C 2.871985 -0.585932 -0.451950
H 1.766331 -3.206156 -1.757027
H 1.292275 -3.853574 0.619864
C 3.491556 -1.941815 -0.870957
C 2.552408 -0.591763 1.050848
H 3.401763 0.317467 -0.732714
C 1.478920 -2.824818 0.366785
C 1.708874 -1.828191 1.482547
H 4.140188 -2.443399 -0.158116
H 2.191606 -2.324295 2.320661
H 2.021374 0.320341 1.303777
H 3.487428 -0.569618 1.603827
H 0.746913 -1.491844 1.862865
H 3.978320 -1.890376 -1.838493
