21
VERBATIM official SI Table S13, S0-TS2, CAS(10,9)/6-311G(d,p) optimized Cartesian coordinates in angstrom
C 0.526744 -0.610902 0.948293
C -0.776048 0.255251 1.020444
C 0.671314 -1.214262 -0.437178
C 1.881300 -0.756504 -1.029539
C 2.534337 0.108626 -0.202269
C 1.821555 0.234981 1.122364
C -1.999449 -0.605882 0.880810
C -0.787790 1.028674 -0.297894
C -2.363226 -0.681951 -0.438360
C -1.528409 0.160878 -1.227424
O -0.261743 2.083432 -0.523657
H -3.139949 -1.310460 -0.832236
H -2.425794 -1.178893 1.682078
H -0.766346 0.891070 1.896468
H -1.602989 0.335214 -2.282611
H 0.125261 -2.075162 -0.766185
H 2.207676 -1.032160 -2.015454
H 3.436311 0.640205 -0.440247
H 1.607619 1.270162 1.364007
H 2.431817 -0.162773 1.929504
H 0.467716 -1.377346 1.713077
