19
VERBATIM official Figshare CAS(8,8)/6-311G(d,p) input Cartesian coordinates; system 33 azirene-formation TS; angstrom; data DOI 10.6084/m9.figshare.682369.v1; article DOI 10.1021/jo401146k
C -0.01229600 -0.77517682 -0.44333005
O 2.28658242 -2.22512063 -0.07169913
N 0.44237727 -1.61159661 -1.22777655
C 1.24926527 -0.15571172 0.06704194
C 2.36268311 -1.21948131 0.64899854
O 3.02990171 -0.84810432 1.58013074
C 1.62544992 1.04083343 -0.32441400
S 2.16606589 2.44604522 -0.67116149
C -1.38305197 -0.33973363 -0.13646471
C -1.58334035 0.59244665 0.87752563
C -2.46237718 -0.87080757 -0.84569987
C -2.87528260 0.99548100 1.18502186
H -0.73456213 0.98852060 1.42291546
C -3.74664596 -0.45852285 -0.53336667
H -2.29184751 -1.59839271 -1.63054873
C -3.95279292 0.47340690 0.48030696
H -3.03892375 1.71703960 1.97603463
H -4.58975497 -0.86501520 -1.07859821
H -4.96014781 0.79169565 0.72204582
