22
VERBATIM S15 ground-state CASSCF(16,15)/6-31G(d) optimized phenalenone geometry (angstrom)
O 0.089057 -3.350957 0.000000
C 0.865441 1.406232 0.000000
C 2.271274 1.195375 0.000000
C 2.791838 -0.079625 0.000000
C 1.931532 -1.200109 0.000000
C 0.559896 -1.030186 0.000000
C 0.004465 0.284082 0.000000
C -0.342027 -2.214734 0.000000
C -1.415669 0.479212 0.000000
C -1.926556 1.760776 0.000000
C -1.064324 2.887739 0.000000
C 0.297527 2.716421 0.000000
C -1.793086 -1.953482 0.000000
C -2.284433 -0.697333 0.000000
H 2.926388 2.048439 0.000000
H 3.856217 -0.228381 0.000000
H 2.334561 -2.194654 0.000000
H -2.433769 -2.815495 0.000000
H -3.347735 -0.534001 0.000000
H -2.991793 1.910003 0.000000
H -1.486360 3.876119 0.000000
H 0.953336 3.568719 0.000000
