22
VERBATIM S15 singlet n-pi-star/triplet pi-pi-star crossing geometry; source duplicates the preceding CI block exactly (angstrom)
O 0.284054 -3.316971 0.000000
C 0.853134 1.391101 0.000000
C 2.262467 1.171335 0.000000
C 2.774668 -0.096224 0.000000
C 1.904283 -1.220072 0.000000
C 0.541837 -1.036405 0.000000
C -0.020362 0.286273 0.000000
C -0.413361 -2.110988 0.000000
C -1.439619 0.491566 0.000000
C -1.933876 1.767842 0.000000
C -1.053537 2.893295 0.000000
C 0.295889 2.709796 0.000000
C -1.780136 -1.965669 0.000000
C -2.294904 -0.690604 0.000000
H 2.921008 2.021652 0.000000
H 3.837261 -0.256313 0.000000
H 2.354536 -2.202134 0.000000
H -2.436581 -2.816034 0.000000
H -3.360419 -0.556803 0.000000
H -2.997437 1.931002 0.000000
H -1.467386 3.885610 0.000000
H 0.964262 3.552905 0.000000
