19
W1982051564 endo-cyclopropane DBO 4 RB3LYP/6-31G(d) geometry, verbatim official SI
C 0.103763 -0.217852 1.254468
C -0.633361 -1.498472 0.775338
H -1.596144 1.214785 -1.308223
C -0.633361 -1.498472 -0.775338
H -0.125508 -2.382537 1.173253
H -1.651077 -1.495391 1.180718
H 1.073811 2.184305 0.000000
C 0.103763 -0.217852 -1.254468
H -0.125508 -2.382537 -1.173253
N 1.452846 -0.251719 -0.625612
C -0.686585 0.994331 0.753385
H 0.248537 -0.209684 -2.337198
N 1.452846 -0.251719 0.625612
H 0.248537 -0.209684 2.337198
C -0.686585 0.994331 -0.753385
H -1.596144 1.214785 1.308223
H -0.519720 3.071447 0.000000
C -0.008559 2.112982 0.000000
H -1.651077 -1.495391 -1.180718
