17
VERBATIM ACS SI Cartesian coordinates; SOURCE UNITS UNSTATED; biradical leading to bicyclo[4.1.0]hept-2-ene, constrained 31; CAS(6,6)/6-31G* E=-270.86227 Eh; DOI 10.1021/ja983480r
H -0.055989 0.989180 2.258079
C 0.124649 0.492949 1.321570
C 0.654937 -0.827617 1.307198
C -0.380753 1.146775 0.036383
H 0.940969 -1.276891 2.243303
C 0.831125 -1.533675 0.133688
H -2.279292 -0.028214 -0.274680
H -0.183904 2.213566 0.085335
H 1.405780 0.943997 -1.122564
H 1.223315 -2.534609 0.161607
C 0.383429 0.578362 -1.169438
C -1.897078 0.958674 -0.073321
H 1.107227 -1.285365 -1.970773
H -0.048636 0.956041 -2.091268
H -2.529835 1.579172 0.539431
C 0.420352 -0.955888 -1.195774
H -0.554048 -1.353239 -1.477019
