23
VERBATIM official ACS SI Cartesian coordinates in angstroms; source block 5; butyrophenone S0 equilibrium; DOI 10.1021/jp037735l
C -1.596455 0.000000 1.411846
C -1.595986 0.000000 2.803729
C -0.387358 0.000000 3.505637
C 0.817869 0.000000 2.805982
C 0.818263 0.000000 1.409218
C -0.388007 0.000000 0.698078
H -2.520834 0.000000 0.867467
H -2.528810 0.000000 3.338432
H -0.386972 0.000000 4.580890
H 1.751716 0.000000 3.338856
H 1.758651 0.000000 0.891145
C -0.441986 0.000000 -0.803150
O -1.512759 0.000000 -1.366693
C 0.853956 0.000000 -1.596150
H 1.439586 0.868344 -1.301600
H 1.439586 -0.868344 -1.301600
C 0.642305 0.000000 -3.108722
H 0.054115 0.867094 -3.389219
H 0.054115 -0.867094 -3.389219
C 1.965131 0.000000 -3.873883
H 1.793306 0.000000 -4.945467
H 2.560611 -0.877195 -3.635827
H 2.560611 0.877195 -3.635827
