17
VERBATIM ACS SI Cartesian coordinates; SOURCE UNITS UNSTATED; transition state leading to tricyclo[3.2.1.0^3,7]heptane 26; CAS(8,8)/6-31G* E=-270.79924 Eh; DOI 10.1021/ja983480r
C 1.475999 0.376160 0.238148
H 1.886554 0.210300 1.228599
H 2.300084 0.634258 -0.429641
C 0.427630 1.464900 0.169935
C 0.729033 -0.843196 -0.327801
C -0.602988 0.957927 -0.804192
C -0.105518 -0.217264 -1.431783
C -1.316199 -0.056776 0.786233
C -0.365812 -1.248234 0.736529
H 0.191021 2.120950 0.984903
H 1.377457 -1.663644 -0.609231
H -1.359577 1.600750 -1.218693
H -0.669695 -0.794885 -2.141491
H -2.307364 -0.226996 0.400898
H -0.886472 -2.142533 0.409407
H -1.348915 0.500412 1.707008
H 0.074703 -1.456036 1.706554
