17
VERBATIM ACS SI Cartesian coordinates; SOURCE UNITS UNSTATED; gauche-in biradical, methylene twisted 120 deg clockwise 14; CAS(8,8)/6-31G* E=-270.86409 Eh; DOI 10.1021/ja983480r
C -1.031654 -1.200176 -1.171081
C 0.020885 -0.516652 -1.783666
H 0.297046 1.609382 -1.532575
H 0.494275 -0.792168 -2.706200
H -0.564785 0.753036 2.428595
C -1.401311 -0.563334 0.023955
H 1.332102 -1.221767 1.061095
C -0.547253 0.662695 0.263112
H 1.456039 0.648431 -0.661941
H -2.185869 -0.877235 0.686253
H 0.859820 1.462306 1.725193
H 1.337435 -0.866089 2.852973
H -1.490026 -2.091644 -1.558695
C 0.906237 -0.679780 1.885207
C 0.179274 0.611961 1.647448
H -1.165149 1.557597 0.261508
C 0.412662 0.690023 -0.964240
