20
Heptamethine cyanine C2-C3 S1 transition state; SI pp. 13-14; CASSCF(10,9)/6-31G* per main text; angstrom
N  4.683167  0.090873  0.512897
C  3.765612  0.232313 -0.472941
C  2.455116 -0.417849 -0.342425
C  1.285718  0.259598 -0.125811
C  0.006649 -0.391851 -0.091903
C -1.201233  0.291834  0.010738
C -2.450811 -0.341973  0.022085
C -3.643302  0.387824  0.127444
N -4.847434 -0.142311  0.129057
H  5.589364  0.463651  0.384700
H  4.622982 -0.670078  1.139813
H  3.928629  1.027104 -1.158392
H  2.436732 -1.497023 -0.428767
H  1.321308  1.328380 -0.015780
H -0.007618 -1.467736 -0.181040
H -1.170240  1.367219  0.083666
H -2.500691 -1.417579 -0.060817
H -3.610068  1.462145  0.211709
H -4.994774 -1.133339  0.054265
H -5.669202  0.428600  0.201960
