17
VERBATIM ACS SI Cartesian coordinates; SOURCE UNITS UNSTATED; gauche-out fragmentation transition state 11; CAS(8,8)/6-31G* E=-270.85341 Eh; DOI 10.1021/ja983480r
C 1.416143 0.501374 0.346015
H 1.387270 0.828560 1.379587
H 2.425341 0.139357 0.157424
C 1.068356 1.596874 -0.631029
C 0.405829 -0.612320 0.018212
C 0.207540 1.110958 -1.581263
C -0.130109 -0.257214 -1.273246
C -1.891919 -1.565671 1.296574
C -0.927220 -0.519932 1.349011
H 1.463397 2.593140 -0.581397
H 0.752228 -1.622641 0.158901
H -0.166508 1.659653 -2.425989
H -0.791052 -0.873467 -1.852623
H -2.709795 -1.528878 0.599303
H -1.303209 0.475328 1.165557
H -1.682002 -2.525086 1.734794
H -0.295599 -0.550045 2.224286
