12
VERBATIM ACS SI coordinates: keteniminium cation + formaldimine M Cis, CASSCF(8,7)/aug-cc-pVDZ, DOI 10.1021/jo026188h
C            0.000000    0.000000    0.000000
C            0.000000    0.000000    1.338768
N            1.058531    0.000000    2.241775
H            0.921533   -0.158997   -0.536784
H           -0.889562    0.202124   -0.574888
H            1.160590   -0.845029    2.772169
H            1.932201    0.266324    1.834548
N           -1.273435    0.203077    2.066674
C           -2.396244   -0.342821    1.795205
H           -1.193672    0.808806    2.869025
H           -2.469933   -1.032819    0.968907
H           -3.258860   -0.103837    2.398719
