22
VERBATIM S15 planar triplet n-pi-star/S0 singlet-triplet-crossing geometry (angstrom)
O 0.534350 -3.244668 0.000000
C 0.871264 1.386953 0.000000
C 2.232798 1.139187 0.000000
C 2.750891 -0.183803 0.000000
C 1.891720 -1.243423 0.000000
C 0.478168 -0.975564 0.000000
C -0.030523 0.257612 0.000000
C -0.411138 -2.075314 0.000000
C -1.486535 0.443534 0.000000
C -2.001558 1.843895 0.000000
C -1.099772 2.934449 0.000000
C 0.320701 2.722728 0.000000
C -1.711927 -2.016154 0.000000
C -2.282510 -0.633787 0.000000
H 2.918379 1.967925 0.000000
H 3.814145 -0.338410 0.000000
H 2.276549 -2.252528 0.000000
H -2.363614 -2.868409 0.000000
H -3.352622 -0.533503 0.000000
H -3.063266 2.002241 0.000000
H -1.480389 3.939167 0.000000
H 0.990674 3.562032 0.000000
