28
VERBATIM official Figshare CAS(8,8)/6-311G(d,p) input Cartesian coordinates; system 29 reactant; angstrom; data DOI 10.6084/m9.figshare.681986.v1; article DOI 10.1021/jo401146k
C -0.61859780 1.23805570 0.00643430
O 0.55615421 3.07062472 0.16374402
N -0.72071270 2.52139909 0.11388913
C 0.77261091 0.82016434 -0.04417937
C 1.39939679 -0.39885645 -0.02662464
C 1.50190124 2.09815699 -0.02555642
O 2.66894923 2.35465587 -0.11232625
S 0.65265818 -1.92665304 0.42290336
S 3.09113929 -0.46088553 -0.47224792
C -0.46844394 -1.50492398 1.79172637
C 3.59178385 -2.17807791 -0.18035314
H -1.50083266 -1.46666500 1.45418644
H -0.34018796 -2.29191798 2.53445143
H 4.65627728 -2.17691812 -0.41989354
H 3.08323395 -2.87948233 -0.83974767
H -0.17626913 -0.54867924 2.22376927
H 3.45804480 -2.46606968 0.86082004
C -1.86059706 0.46360668 -0.18105925
C -2.97721591 0.74025305 0.60801343
C -1.94035111 -0.51707285 -1.16840509
C -4.15138511 0.02284841 0.42882141
H -2.91162479 1.51660571 1.36082104
C -3.11580596 -1.23442680 -1.34322463
H -1.08353327 -0.71469724 -1.80139179
C -4.22003114 -0.97168862 -0.54072254
H -5.01420663 0.23926114 1.04801667
H -3.17107596 -1.99599458 -2.11236396
H -5.13601236 -1.53509519 -0.67694374
