23
VERBATIM official ACS SI Cartesian coordinates in angstroms; source block 20; singlet 1,4-biradical 1BR14-1; DOI 10.1021/jp037735l
C -1.455863 1.211043 0.062830
C -2.817071 1.049390 0.296854
C -3.392337 -0.219624 0.293281
C -2.577241 -1.332674 0.048577
C -1.237466 -1.186444 -0.184703
C -0.621303 0.092259 -0.184365
H -1.022534 2.191223 0.065614
H -3.427860 1.915519 0.481523
H -4.444489 -0.346112 0.473340
H -3.009389 -2.318168 0.043141
H -0.651678 -2.067014 -0.369216
C 0.769423 0.276628 -0.437300
O 1.220938 1.561334 -0.430743
H 2.124226 1.592597 -0.136381
C 1.806514 -0.780082 -0.648932
H 1.338731 -1.744105 -0.786244
H 2.351200 -0.569502 -1.567658
C 2.829874 -0.897444 0.514328
H 2.295993 -0.997892 1.453996
H 3.376865 -1.828263 0.368041
C 3.810981 0.232189 0.594456
H 4.176675 0.563961 1.549123
H 4.431691 0.445637 -0.259489
