21
VERBATIM official SI Table S3, 3(pipi*)-R, CAS(8,7)/6-311G(d,p) optimized Cartesian coordinates in angstrom
H 0.418686 -2.196491 0.366550
C 0.721045 -1.179244 0.160067
C -0.307584 -0.382259 -0.695165
H -0.300269 -0.702461 -1.730430
C 2.070663 -0.997367 -0.521603
H 2.547802 -1.729645 -1.146294
C 2.450919 0.274401 -0.322165
H 3.295859 0.776316 -0.756479
C 1.353296 0.953101 0.488095
H 1.630369 1.867780 0.994706
C 0.902483 -0.231290 1.360377
H 1.675074 -0.565468 2.042122
H -0.007816 -0.045523 1.920744
C 0.143755 1.106061 -0.489290
H 0.471495 1.571833 -1.410621
C -1.726941 -0.474101 -0.139534
C -1.073302 1.841740 0.046685
H -1.394964 2.724478 -0.486217
C -2.129500 0.810871 0.374159
O -2.374976 -1.501925 -0.076188
H -3.018573 0.973944 0.951051
