22
VERBATIM S15 nonplanar singlet pi-pi-star/S0 conical-intersection geometry (angstrom)
O -0.254942 -2.751409 1.872222
C 0.853521 1.396227 0.085021
C 2.154367 1.108423 -0.105979
C 2.587184 -0.277407 -0.368460
C 1.746321 -1.334293 -0.337084
C 0.337292 -1.120087 0.048144
C -0.094036 0.294544 0.074146
C -0.389373 -2.071455 0.917018
C -1.486267 0.471591 -0.031941
C -2.010378 1.871253 0.067316
C -1.124013 2.925360 0.212712
C 0.272480 2.752824 0.204071
C -1.168135 -1.877324 -0.300703
C -2.107842 -0.709376 -0.295228
H 2.880053 1.903407 -0.124213
H 3.624654 -0.453438 -0.588424
H 2.111320 -2.330716 -0.509331
H -1.315277 -2.697163 -0.984303
H -3.159693 -0.839721 -0.454027
H -3.068015 2.050750 0.047269
H -1.521234 3.922497 0.299733
H 0.927794 3.599676 0.272163
