23
VERBATIM official ACS SI Cartesian coordinates in angstroms; source block 22; singlet 1,4-biradical 1BR14-3; DOI 10.1021/jp037735l
C -1.449000 1.166640 0.341017
C -2.741033 0.685873 0.521393
C -3.074449 -0.611760 0.136810
C -2.090262 -1.426086 -0.435862
C -0.815861 -0.964270 -0.620240
C -0.447133 0.351713 -0.237576
H -1.200361 2.164985 0.641789
H -3.485986 1.323291 0.963979
H -4.073116 -0.983949 0.276449
H -2.337750 -2.429468 -0.735283
H -0.088614 -1.616939 -1.064114
C 0.873383 0.857218 -0.446110
O 1.132833 2.074761 0.125429
C 2.074967 0.060589 -0.841879
H 2.746125 0.715541 -1.396550
H 1.807752 -0.733873 -1.526040
C 2.887906 -0.526087 0.357701
H 3.868845 -0.800969 -0.019622
H 3.039082 0.271395 1.078854
C 2.270688 -1.711605 1.022869
H 1.879343 2.478306 -0.294447
H 2.419464 -2.691848 0.606406
H 1.427315 -1.587909 1.676412
