22
W1982051564 endo-cyclobutane DBO 7 RB3LYP/6-31G(d) geometry, verbatim official SI
C 0.515972 -1.258430 0.104092
H -0.671302 1.252339 -1.703137
H 2.680201 -1.170258 -0.061640
C -2.090979 -0.779142 -0.025606
H 2.680199 1.170262 -0.061640
C -0.694570 -0.778601 -0.715197
N 0.483762 -0.625810 1.453622
C -0.694571 0.778599 -0.715197
H -2.108710 1.237488 0.967164
H 1.840968 1.181252 -1.612579
H -2.882889 -1.231863 -0.629715
C 1.810050 -0.775518 -0.595069
C 1.810049 0.775522 -0.595069
H 1.840970 -1.181248 -1.612579
C 0.515969 1.258430 0.104092
N 0.483761 0.625810 1.453622
H 0.512578 2.341230 0.255232
H 0.512583 -2.341230 0.255232
H -0.671300 -1.252341 -1.703137
C -2.090980 0.779138 -0.025606
H -2.882891 1.231857 -0.629715
H -2.108708 -1.237492 0.967164
