21
VERBATIM official SI Table S15, 3(pipi*)-INT, CAS(10,9)/6-311G(d,p) optimized Cartesian coordinates in angstrom; source Table S15 labels one expected C atom as H (C9H11O as printed), preserved without correction
H 0.691747 -1.725294 -0.634495
C 0.782282 -0.671508 -0.385951
C -0.555410 -0.023784 -0.788665
H -0.683138 -0.169066 -1.861394
C 1.969960 -0.076215 -1.112575
H 2.045606 -0.027251 -2.182785
C 2.942973 0.336263 -0.210414
H 3.884547 0.774316 -0.487540
C 2.537537 0.099473 1.097914
H 3.103325 0.328799 1.980390
C 1.160884 -0.521099 1.117844
H 1.160962 -1.483191 1.621700
H 0.456423 0.109576 1.654188
H -0.733558 1.437653 -0.453098
H -0.055168 2.209934 -0.757696
C -1.766700 -0.662659 -0.098055
C -1.905689 1.635350 0.261658
H -2.260276 2.593316 0.593619
C -2.563230 0.421085 0.494840
O -2.004732 -1.841718 -0.055214
H -3.483192 0.269229 1.023590
