17
VERBATIM ACS SI Cartesian coordinates; SOURCE UNITS UNSTATED; norbornene-to-gauche-out transition state 9; CAS(8,8)/6-31G* E=-270.85668 Eh; DOI 10.1021/ja983480r
C 1.465480 -0.385429 0.092055
H 1.951966 0.498002 -0.315549
H 2.159240 -0.812885 0.810817
C 1.116999 -1.357038 -1.008848
C 0.097226 -0.021658 0.746367
C -0.270126 -1.468538 -1.136145
C -0.915279 -0.695053 -0.161187
C -1.382757 2.073640 0.297532
C -0.135719 1.540461 0.944100
H 1.845094 -1.848384 -1.624857
H 0.042518 -0.485778 1.728398
H -0.770916 -2.074790 -1.868795
H -1.974910 -0.657198 0.000169
H -2.338250 1.937435 0.771466
H -0.162727 1.756849 2.007881
H -1.394222 2.279614 -0.757167
H 0.720820 2.074338 0.545079
