22
VERBATIM S15 bright singlet pi-pi-star minimum MS-CASPT2(12,12)/6-31G(d) optimized phenalenone geometry (angstrom)
O 0.166339 -3.367944 0.000000
C 0.870331 1.409692 0.000000
C 2.272115 1.191821 0.000000
C 2.794092 -0.106319 0.000000
C 1.945478 -1.218214 0.000000
C 0.534959 -1.030840 0.000000
C -0.011397 0.264162 0.000000
C -0.331023 -2.191921 0.000000
C -1.440431 0.465467 0.000000
C -1.962578 1.805384 0.000000
C -1.108085 2.887340 0.000000
C 0.300616 2.687314 0.000000
C -1.754509 -1.946190 0.000000
C -2.270387 -0.660467 0.000000
H 2.940521 2.051015 0.000000
H 3.871729 -0.247664 0.000000
H 2.320335 -2.236960 0.000000
H -2.407555 -2.814908 0.000000
H -3.350400 -0.514890 0.000000
H -3.040634 1.951771 0.000000
H -1.501150 3.900012 0.000000
H 0.957415 3.556500 0.000000
