17
VERBATIM ACS SI Cartesian coordinates; SOURCE UNITS UNSTATED; transition state between gauche-in and gauche-out biradicals on S1 47; CAS(8,8)/6-31G* E=-270.74204 Eh; DOI 10.1021/ja983480r
C 1.421865 -0.317835 -0.010446
H 1.719677 0.509887 -0.655888
H 2.207452 -0.438506 0.729263
C 1.191198 -1.554146 -0.841584
C 0.047731 -0.007454 0.634727
C -0.240899 -1.622875 -1.164658
C -0.946718 -0.577256 -0.350376
C -1.336001 2.200842 0.419543
C -0.145814 1.523298 1.030778
H 1.954217 -1.980865 -1.466245
H -0.025764 -0.592556 1.552272
H -0.716862 -2.398993 -1.729467
H -2.002831 -0.606664 -0.159162
H -2.316926 2.030485 0.826337
H -0.212836 1.590502 2.112109
H -1.295294 2.532669 -0.602143
H 0.752240 2.063055 0.746256
