30
VERBATIM official ACS SI Gaussian 09 final wB97XD/6-311G(d,p) system 38 reactant geometry used for the reported CAS(8,8) single point; angstrom; DOI 10.1021/jo401146k
C -1.975775 0.831144 -0.005445
O -2.225210 2.980135 0.300453
N -2.837319 1.727705 0.335491
C -0.695894 1.444218 -0.300668
C -0.909889 2.883864 -0.085564
O -0.187448 3.827875 -0.182775
C 0.474425 0.903509 -0.608220
C -2.331029 -0.596050 -0.030432
C -1.660208 -1.486832 -0.868467
C -3.360541 -1.066127 0.788022
C -2.009921 -2.830624 -0.883539
H -0.876919 -1.133666 -1.529551
C -3.708160 -2.407624 0.766974
H -3.877749 -0.368820 1.435592
C -3.032247 -3.293606 -0.065670
H -1.485945 -3.514617 -1.540865
H -4.506866 -2.765165 1.406384
H -3.303677 -4.342945 -0.077189
N 1.512742 0.446107 -0.977970
C 2.660910 -0.057437 -0.333787
C 2.746440 -0.111879 1.056486
C 3.706879 -0.501722 -1.133370
C 3.895088 -0.618468 1.642808
H 1.920768 0.241213 1.663948
C 4.853225 -1.006475 -0.535072
H 3.609512 -0.443063 -2.210227
C 4.947870 -1.065560 0.849772
H 3.970023 -0.663298 2.722688
H 5.673253 -1.352796 -1.152446
H 5.843856 -1.459602 1.314626
