23
VERBATIM official ACS SI Cartesian coordinates in angstroms; source block 25; S0/S1 disproportionation intersection; DOI 10.1021/jp037735l
C -1.443342 -1.204614 -0.085852
C -2.824662 -1.133494 -0.081740
C -3.467322 0.095119 0.004703
C -2.711356 1.254030 0.089689
C -1.326709 1.189619 0.086309
C -0.668451 -0.040810 -0.004462
H -0.951742 -2.153170 -0.151995
H -3.400860 -2.036562 -0.146272
H -4.538962 0.146628 0.007264
H -3.196346 2.208716 0.161525
H -0.766241 2.100012 0.162155
C 0.786481 -0.126989 -0.018040
O 1.300501 -1.373871 0.021632
H 2.395160 -1.317211 0.183459
C 1.720026 1.052069 0.069875
H 1.315761 1.875016 -0.506801
H 1.778007 1.399390 1.102067
C 3.136588 0.732294 -0.433913
H 3.106728 0.516018 -1.495950
H 3.765271 1.609851 -0.302266
C 3.745019 -0.478567 0.311926
H 4.522607 -1.027098 -0.191953
H 3.888960 -0.362554 1.374740
