23
VERBATIM official ACS SI Cartesian coordinates in angstroms; source block 21; singlet 1,4-biradical 1BR14-2; DOI 10.1021/jp037735l
C -1.697067 1.092635 0.221355
C -2.961678 0.547130 0.420621
C -3.188832 -0.811060 0.210733
C -2.125107 -1.623636 -0.205065
C -0.878917 -1.099508 -0.405208
C -0.618017 0.281326 -0.199881
H -1.531120 2.138803 0.386439
H -3.767546 1.183642 0.741043
H -4.165293 -1.233103 0.365482
H -2.290401 -2.674360 -0.367688
H -0.087271 -1.752140 -0.723333
C 0.674420 0.845165 -0.435369
O 0.830678 2.145250 -0.037781
C 1.938212 0.069585 -0.669758
H 1.754562 -0.762371 -1.339696
H 2.648620 0.713001 -1.185688
C 2.594744 -0.449915 0.631367
H 1.901772 -1.138336 1.112836
H 2.724513 0.380267 1.318742
C 3.911206 -1.117143 0.381527
H 1.586277 2.525918 -0.462460
H 4.707262 -1.042088 1.098178
H 3.979427 -1.908718 -0.343536
