17
VERBATIM ACS SI Cartesian coordinates; SOURCE UNITS UNSTATED; biradical with H atoms flipped down, constrained 35; CAS(6,6)/6-31G* E=-270.81481 Eh; DOI 10.1021/ja983480r
H 1.779055 -0.427938 -1.427818
C 0.701985 -0.444694 -1.331972
C -0.267202 0.804114 -1.094792
C -0.097255 -1.178149 -0.261038
H -0.513595 1.460208 -1.918490
H 1.012585 2.288983 0.000642
C -1.308418 -0.295473 -0.642992
C 0.410081 -0.819563 1.146892
H -0.199352 -2.252705 -0.376364
C 0.263617 1.526881 0.141359
C 0.284761 0.708536 1.417721
H -2.016631 -0.029535 0.134135
H -0.641896 0.887982 1.958981
H 1.450581 -1.121750 1.235522
H -0.142491 -1.375864 1.900568
H 1.080863 1.038327 2.077067
H -1.838974 -0.692717 -1.499787
