9
W1985891822-d 2,5-didehydropyridine singlet; verbatim SI Gaussian 94 archive CASSCF(6,6)/3-21G geometry
C  0.0000000000  1.3148938037  0.0000000000
C -0.1001333553 -1.3263643042  0.0000000000
N -1.1507593249  0.7785321915  0.0000000000
C  1.1464894286 -0.7415254569  0.0000000000
C  1.2185745137  0.6654007778  0.0000000000
C -1.2505792796 -0.6252053262  0.0000000000
H  2.0476338856 -1.3192396304  0.0000000000
H  2.1582405809  1.1727355070  0.0000000000
H -2.2366670365 -1.0264181822  0.0000000000
