19
W1982051564 exo-cyclopropane DBO 3 RB3LYP/6-31G(d) geometry, verbatim official SI
C -0.069913 -0.295623 1.253686
C -0.774039 0.963800 0.756890
C -0.043706 2.048224 0.000000
C -0.774039 0.963800 -0.756890
H -1.681591 1.235593 1.289512
H 1.040382 2.088959 0.000000
H -0.512241 3.028501 0.000000
C -0.069913 -0.295623 -1.253686
H -1.681591 1.235593 -1.289512
N -0.774039 -1.478786 -0.622532
C 1.395709 -0.386113 0.775727
H -0.151649 -0.420709 -2.334744
N -0.774039 -1.478786 0.622532
H -0.151649 -0.420709 2.334744
C 1.395709 -0.386113 -0.775727
H 1.972033 0.448277 1.188020
H 1.835985 -1.307441 1.168962
H 1.835985 -1.307441 -1.168962
H 1.972033 0.448277 -1.188020
