17
VERBATIM ACS SI Cartesian coordinates; SOURCE UNITS UNSTATED; constrained transition state forming anticlockwise-twisted biradical 21; CAS(8,8)/6-31G* E=-270.86236 Eh; DOI 10.1021/ja983480r
C -0.533193 0.286672 0.481004
H -0.691650 0.388400 1.552282
H 0.540569 0.198010 0.340038
C -1.103137 1.465991 -0.270021
C -1.286385 -0.949227 -0.095203
C -2.126287 1.047352 -1.127274
C -2.290150 -0.342427 -1.052408
C -3.074770 -1.205147 1.740389
C -1.949937 -1.864278 0.990321
H -0.779982 2.479039 -0.127880
H -0.585095 -1.573437 -0.645391
H -2.705148 1.701532 -1.753436
H -2.999269 -0.921825 -1.613432
H -4.033081 -1.684523 1.811590
H -2.316241 -2.763248 0.502120
H -3.053788 -0.148442 1.932051
H -1.171993 -2.191545 1.680890
