17
VERBATIM ACS SI Cartesian coordinates; SOURCE UNITS UNSTATED; gauche-out S1 addition transition state 42; CAS(8,8)/6-31G* E=-270.73307 Eh; DOI 10.1021/ja983480r
C 1.425573 0.572056 0.363848
H 1.375704 0.864738 1.409190
H 2.464811 0.301375 0.169687
C 0.968500 1.668420 -0.570961
C 0.488491 -0.596497 0.027912
C 0.100538 1.077529 -1.598417
C -0.104881 -0.317114 -1.250256
C -1.933223 -1.547224 1.201873
C -0.901605 -0.556829 1.427634
H 1.520041 2.579082 -0.711714
H 0.849130 -1.594097 0.218254
H -0.292264 1.585337 -2.455605
H -0.705313 -1.009376 -1.807950
H -2.760596 -1.336675 0.550066
H -1.223444 0.470300 1.361021
H -1.768230 -2.577139 1.460833
H -0.274543 -0.733896 2.288703
