16
Benzyne plus ethylene carbene intermediate 2c; SI p. S26; CASSCF(6,6)/6-31G(d); angstrom
C 0.226621462 0.956747795 0.002780622
C -1.200033856 0.649260322 0.002556117
C 1.277187691 -0.067737134 0.002067195
C 0.937913974 -1.357834831 -0.001134418
C -0.466811812 -1.706336588 -0.001580333
C -1.449266181 -0.779407987 0.001288348
H 2.311536771 0.233920003 0.003310073
H 1.676260755 -2.138907298 -0.003108143
H -0.720211682 -2.754106877 -0.004073477
H -2.472929018 -1.114949422 0.001776599
C 0.570881503 2.325897461 0.725894787
C 0.571021148 2.323145477 -0.726479414
H -0.254644808 2.763312686 -1.249900443
H 1.510136694 2.332111393 -1.249372669
H 1.509732561 2.33806227 1.249152689
H -0.255343203 2.768207731 1.246821468
