17
VERBATIM ACS SI Cartesian coordinates; SOURCE UNITS UNSTATED; S1(pi-pi*)/S0 conical intersection 49; CAS(6,6)/6-31G* E=-270.75074/-270.75081 Eh; DOI 10.1021/ja983480r
H 0.906914 1.748619 2.111855
C 0.360548 1.850580 1.195184
C -1.013781 2.326540 1.236541
C 0.923486 2.656485 0.050670
H -1.560229 2.361699 2.170325
C -1.781825 2.412896 -0.012146
C 0.200364 3.936503 0.442900
C 0.413974 2.075343 -1.274806
H 2.005329 2.733289 0.046876
H -2.743723 2.883362 -0.006437
C -1.137193 2.110582 -1.340750
H -0.256826 4.584854 -0.295600
H -1.464841 2.843800 -2.071062
H 0.767832 1.051754 -1.346429
H 0.833940 2.612727 -2.118769
H -1.502438 1.152168 -1.705478
H 0.576271 4.443230 1.322707
