23
VERBATIM official ACS SI Cartesian coordinates in angstroms; source block 19; triplet 1,4-biradical 3BR14-3; DOI 10.1021/jp037735l
C -1.447969 1.163441 0.315585
C -2.764710 0.751259 0.497935
C -3.157288 -0.540634 0.158219
C -2.202273 -1.424881 -0.371346
C -0.908936 -1.034674 -0.554477
C -0.477549 0.280819 -0.220310
H -1.156880 2.160646 0.579483
H -3.482049 1.441312 0.905984
H -4.173713 -0.860248 0.298923
H -2.494712 -2.426473 -0.634178
H -0.208252 -1.742513 -0.955006
C 0.860727 0.717348 -0.422139
O 1.161635 1.965867 0.049501
C 2.029388 -0.084628 -0.916522
H 2.560110 0.503399 -1.667951
H 1.691825 -0.976670 -1.426737
C 3.034215 -0.471663 0.194060
H 3.893309 -0.941161 -0.278532
H 3.397184 0.433324 0.672259
C 2.463332 -1.391219 1.232801
H 1.916812 2.313861 -0.403712
H 2.322778 -2.431639 0.998847
H 1.866886 -0.991792 2.031778
