20
Heptamethine cyanine trans-S0 minimum/Franck-Condon geometry; SI p. 13; CASSCF(10,9)/6-31G* per main text; angstrom
N  0.000000  4.857316  0.050880
C  0.000000  3.618351 -0.406413
C  0.000000  2.475119  0.368861
C  0.000000  1.212740 -0.227836
C  0.000000  0.000000  0.451036
C  0.000000 -1.212740 -0.227836
C  0.000000 -2.475119  0.368861
C  0.000000 -3.618351 -0.406413
N  0.000000 -4.857316  0.050880
H  0.000000  5.638459 -0.566697
H  0.000000  5.055607  1.028580
H  0.000000  3.533567 -1.478216
H  0.000000  2.560042  1.441657
H  0.000000  1.176031 -1.305831
H  0.000000  0.000000  1.527132
H  0.000000 -1.176031 -1.305831
H  0.000000 -2.560042  1.441657
H  0.000000 -3.533567 -1.478216
H  0.000000 -5.055607  1.028580
H  0.000000 -5.638459 -0.566697
