17
diradical-to-carbene TS7-5, CASSCF(6,6)/6-31G*; verbatim official SI Cartesian block; E = -270.766768 NIMAG = 1
C 0.395521 -0.118790 -0.280462
C -0.331327 -1.240192 0.078329
C -1.791730 -0.846986 -0.024291
C -1.782699 0.663286 0.308583
C -0.434988 1.153811 -0.251709
C 1.853657 -0.120726 -0.644592
C 2.221484 0.033334 0.777573
H -1.801492 0.793374 1.386328
H -2.634429 1.196869 -0.098314
H -2.138716 -1.014894 -1.044113
H -2.438472 -1.419944 0.630631
H -0.546084 1.508459 -1.276314
H -0.003291 1.968581 0.319597
H 2.184662 -1.051141 -1.079667
H 2.134630 0.712822 -1.274205
H 2.179790 0.995474 1.249822
H 2.283899 -0.832011 1.405646
