9
W1985891822-g nitrile ring-opening product; verbatim SI Gaussian 94 archive CASSCF(6,6)/3-21G geometry
C -1.2204351048 -0.8455998838  0.0000000000
C  1.2905313400  0.6557849954  0.0000000000
N -1.2916032844 -1.9946151645  0.0000000000
C  0.0000000000  1.2583093387  0.0000000000
C -1.1476834886  0.5761083634  0.0000000000
C  2.3817444342  0.1591500452  0.0000000000
H -0.0341286102  2.3301345655  0.0000000000
H -2.0811404593  1.1009188391  0.0000000000
H  3.3315489754 -0.2912644057  0.0000000000
