17
cyclopropylcarbene 5, CASSCF(6,6)/6-31G*; SI prints NIMAG=1; verbatim official SI Cartesian block; E = -270.814320 NIMAG = 1
C 0.517403 -0.028082 -0.205250
C -0.229143 -1.314537 -0.166340
C -1.665635 -0.853236 -0.071585
C -1.704548 0.638625 0.311067
C -0.405531 1.181478 -0.296233
C 1.975721 -0.007867 -0.556614
C 1.655350 -0.076440 0.885112
H -2.028304 -0.991015 -1.095679
H -2.277122 -1.498095 0.550331
H -2.592882 1.149624 -0.044215
H -1.680541 0.740730 1.392699
H -0.556296 1.453105 -1.338985
H -0.024483 2.059933 0.214051
H 2.379495 -0.886396 -1.025857
H 2.358106 0.922042 -0.941650
H 1.809461 -1.002064 1.405612
H 1.750855 0.812484 1.482746
