16
Pentamethine cyanine C2 conrotatory-double-torsion S1 transition state; SI p. 12; CASSCF(8,7)/6-31G*; angstrom
N  0.000000  3.648903 -0.274686
C -0.235912  2.476094  0.298770
C  0.230754  1.244844 -0.197719
C  0.000000  0.000000  0.492326
C -0.230754 -1.244844 -0.197719
C  0.235912 -2.476094  0.298770
N  0.000000 -3.648903 -0.274686
H -0.384500  4.490033  0.092442
H  0.549447  3.728354 -1.102174
H -0.805741  2.508877  1.207233
H  0.745160  1.233644 -1.142591
H  0.000000  0.000000  1.569215
H -0.745160 -1.233644 -1.142591
H  0.805741 -2.508877  1.207233
H  0.384500 -4.490033  0.092442
H -0.549447 -3.728354 -1.102174
