19
VERBATIM official Figshare CAS(8,8)/6-311G(d,p) input Cartesian coordinates; system 33 thioketene reactant; angstrom; data DOI 10.6084/m9.figshare.682348.v1; article DOI 10.1021/jo401146k
C -0.12659204 0.86857697 0.08886393
O -1.79148241 2.28381636 0.14791558
N -0.40965182 2.12338805 0.15142958
C -1.34340727 0.07445155 0.03751022
C -1.54254091 -1.21719444 -0.11955535
C -2.43796670 1.07448930 0.09173008
O -3.62169281 0.96166854 0.08461783
S -1.85406531 -2.71013629 -0.31000592
C 1.26460217 0.39516552 0.05647157
C 1.61107092 -0.83428745 0.61608837
C 2.25317376 1.19303971 -0.52225428
C 2.93071914 -1.26428809 0.59266915
H 0.85651490 -1.44788328 1.09557206
C 3.56981907 0.75952647 -0.54222764
H 1.97679169 2.14668055 -0.95498284
C 3.91081062 -0.46961865 0.01200978
H 3.19332718 -2.21770870 1.03566498
H 4.33260229 1.38142583 -0.99586008
H 4.94064086 -0.80709465 -0.00840879
