17
Cyclopentyne plus ethylene biradical rotation TS; SI p. S7; CASSCF(6,6)/6-31G(d); angstrom
C -0.32172534 -0.274733573 0.20606761
C -1.827294909 -0.450351617 0.420510624
C -2.660899243 0.227556446 -0.6283452
C 0.581551608 -1.222055759 -0.046187305
C 2.007778149 -0.76370988 -0.130136971
C 1.813551397 0.773730386 -0.218362582
C 0.398706803 1.060101253 0.340680328
H 2.562647148 -1.053890404 0.758150366
H 2.540226821 -1.161428304 -0.986709842
H 2.588667195 1.319992458 0.306673987
H 1.853551915 1.074876997 -1.259650039
H 0.432878545 1.359288344 1.386725269
H -0.093874342 1.863850666 -0.19770054
H -2.05585562 -1.513314653 0.448470983
H -2.083878381 -0.061426092 1.406836281
H -3.732300977 0.183852912 -0.574868048
H -2.219515769 0.842703818 -1.38777592
