10
VERBATIM ACS SI coordinates: ketene + formaldimine M Cis (M gauche in main text), CASSCF(8,7)/aug-cc-pVDZ, DOI 10.1021/jo026188h
C             0.000000    0.000000    0.000000
C             0.000000    0.000000    1.359137
O             0.778906    0.000000    2.294980
H             0.945897    0.018020   -0.515802
H            -0.905459   -0.105139   -0.572711
N            -1.500316   -0.020925    1.961260
C            -2.544495    0.580056    1.557470
H            -1.512163   -0.485635    2.853069
H            -2.506555    1.131454    0.631148
H            -3.458233    0.539674    2.133520
