16
Pentamethine cyanine C3-C4 S1/S0 conical intersection; SI p. 11; SA-CASSCF(8,7)/6-31G*; angstrom
N -1.224549  0.042695 -3.380234
C -1.484011 -0.145791 -1.958565
C -0.497303 -0.191721 -1.023990
C -0.681822 -0.239229  0.395784
C  0.440013 -0.429444  1.298121
C  1.083375  0.711384  1.990034
N  2.044688  0.544708  2.785049
H -1.966746 -0.392723 -3.890997
H -0.409189 -0.479265 -3.636236
H -2.518410 -0.137305 -1.675295
H  0.520344 -0.161512 -1.384661
H -1.653571 -0.406754  0.827376
H  0.869491 -1.392906  1.539078
H  0.737765  1.714598  1.817339
H  2.491616  1.321229  3.256322
H  2.416630 -0.376284  2.984794
