17
VERBATIM ACS SI Cartesian coordinates; SOURCE UNITS UNSTATED; norbornene-to-anti transition state 6; CAS(8,8)/6-31G* E=-270.85645 Eh; DOI 10.1021/ja983480r
C -1.260596 -0.735544 -0.016902
H -1.856537 -0.023757 -0.571275
H -0.929398 -1.489378 -0.729887
C -2.015901 -1.406103 1.107561
C -0.021271 -0.111385 0.679063
C -1.182154 -1.527143 2.217841
C 0.038687 -0.865047 1.978704
C -1.255229 2.228343 0.401354
C -0.089242 1.493825 0.965593
H -2.992009 -1.838820 1.003217
H 0.867207 -0.269639 0.079160
H -1.431716 -2.048767 3.123685
H 0.846675 -0.774350 2.680656
H -2.183897 2.260741 0.942529
H -0.065259 1.636344 2.039297
H -1.317315 2.405511 -0.657981
H 0.829083 1.918610 0.572879
