21
VERBATIM official SI Table S12, S0-INT, CAS(10,9)/6-311G(d,p) optimized Cartesian coordinates in angstrom
H 0.643899 -1.798107 -0.623092
C 0.784065 -0.749379 -0.382755
C -0.529073 -0.041350 -0.781449
H -0.651515 -0.158251 -1.857800
C 1.979895 -0.183457 -1.117596
H 2.083027 -0.204428 -2.186348
C 2.860348 0.419595 -0.228363
H 3.760936 0.932108 -0.513944
C 2.419256 0.267474 1.082575
H 2.925921 0.623262 1.959068
C 1.171593 -0.582730 1.115182
H 1.381302 -1.550660 1.564092
H 0.380299 -0.132417 1.706425
C -0.656276 1.414880 -0.408774
H 0.052295 2.169895 -0.685522
C -1.767606 -0.653919 -0.114546
C -1.824069 1.635230 0.309262
H -2.143275 2.596046 0.667831
C -2.525017 0.441142 0.508886
O -2.050917 -1.823662 -0.109169
H -3.447621 0.307220 1.037901
