11
Cyclopentyne 1a; SI p. S4; CASSCF(4,4)/6-31G(d) optimized geometry; angstrom
C -0.985217328 -0.805471198 0.107942239
C -1.363012932 0.703994231 -0.108421209
C 0.950978365 0.532491447 0.084077837
C 0.567339871 -0.913265438 -0.106504873
C -0.007020799 1.335111701 0.083143887
H -1.549905448 -1.480228075 -0.528114607
H -1.21161797 -1.074491462 1.134365528
H -2.118065428 1.039471153 0.591280291
H -1.737589061 0.892536846 -1.108519644
H 0.819744514 -1.250028395 -1.105974114
H 1.029055512 -1.597189716 0.594420032
