17
cyclopropylcarbene 5, CASSCF(4,4)/6-31G*; verbatim official SI Cartesian block; E = -270.793580 NIMAG = 0
C 0.513352 -0.039284 -0.165720
C -0.227654 -1.305857 -0.113866
C -1.667596 -0.856205 -0.071816
C -1.720104 0.639442 0.293652
C -0.407065 1.173131 -0.291308
C 1.959404 -0.031346 -0.583351
C 1.689198 -0.041337 0.869206
H -1.991908 -1.003480 -1.107709
H -2.298200 -1.498897 0.532802
H -2.600463 1.144835 -0.088326
H -1.721255 0.753799 1.374307
H -0.536624 1.434455 -1.339502
H -0.035507 2.055992 0.218259
H 2.344045 -0.926746 -1.036224
H 2.318641 0.884111 -1.021510
H 1.865422 -0.945284 1.421067
H 1.818638 0.869949 1.426051
