12
VERBATIM ACS SI coordinates: keteniminium cation + formaldimine TS1, CASSCF(8,7)/aug-cc-pVDZ, DOI 10.1021/jo026188h
C            0.000000    0.000000    0.000000
C            0.000000    0.000000    1.425936
N            1.273573    0.000000    1.883903
C            2.131523   -0.569022    0.971452
N           -1.063815   -0.046271    2.225982
H            0.621899    0.730039   -0.490372
H           -0.814791   -0.435824   -0.559461
H            1.556566    0.372523    2.772838
H            3.134213   -0.175782    0.904320
H            1.915078   -1.556611    0.613525
H           -0.993055   -0.292064    3.189224
H           -1.970892    0.155361    1.866338
