21
VERBATIM official SI Table S7, 3(pipi*)-P, CAS(8,7)/6-311G(d,p) optimized Cartesian coordinates in angstrom
C 0.432535 -0.661425 0.951471
C -0.720687 0.372036 1.101852
C 0.346322 -1.071722 -0.577866
C 1.700944 -0.704257 -1.151910
C 2.340065 0.278889 -0.230566
C 1.857618 -0.079246 1.159323
C -2.023876 -0.382247 0.888727
C -0.657617 1.049231 -0.268315
C -2.098482 -0.728332 -0.408688
C -0.847643 -0.216571 -1.105253
O -0.515164 2.187723 -0.579350
H -2.864756 -1.313710 -0.880636
H -2.717998 -0.634243 1.668039
H -0.663354 1.014467 1.968515
H -0.893025 -0.093722 -2.176805
H 0.136298 -2.124877 -0.714698
H 2.299562 -1.486866 -1.591244
H 2.399801 1.316294 -0.516569
H 1.866783 0.763764 1.841705
H 2.497038 -0.848554 1.587667
H 0.259765 -1.503387 1.609571
