23
VERBATIM official ACS SI Cartesian coordinates in angstroms; source block 10; butyrophenone S1/T2 crossing; DOI 10.1021/jp037735l
C 0.740258 2.028657 0.000000
C 0.096128 3.203356 0.000000
C -1.342567 3.266051 0.000000
C -2.090319 2.031664 0.000000
C -1.472445 0.843247 0.000000
C 0.000000 0.750251 0.000000
H 1.809044 1.982934 0.000000
H 0.652088 4.121240 0.000000
H -1.849810 4.208948 0.000000
H -3.162591 2.079914 0.000000
H -2.046860 -0.061131 0.000000
C 0.671765 -0.465805 0.000000
O 2.033575 -0.442810 0.000000
C -0.014538 -1.815804 0.000000
C 0.948914 -3.007930 0.000000
C 0.200944 -4.343476 0.000000
H -0.663369 -1.886082 0.869484
H -0.663369 -1.886082 -0.869484
H 1.597561 -2.950032 0.866642
H 1.597561 -2.950032 -0.866642
H 0.895093 -5.176144 0.000000
H -0.431396 -4.441158 -0.876854
H -0.431396 -4.441158 0.876854
