23
VERBATIM official ACS SI Cartesian coordinates in angstroms; source block 11; butyrophenone T1/T2 crossing; DOI 10.1021/jp037735l
C 0.740123 2.028705 0.000000
C 0.095784 3.203481 0.000000
C -1.342698 3.266030 0.000000
C -2.090260 2.031865 0.000000
C -1.472163 0.843380 0.000000
C 0.000000 0.750574 0.000000
H 1.808897 1.983086 0.000000
H 0.651730 4.121379 0.000000
H -1.849961 4.208929 0.000000
H -3.162541 2.079927 0.000000
H -2.046491 -0.061049 0.000000
C 0.671562 -0.465900 0.000000
O 2.033867 -0.443134 0.000000
C -0.014546 -1.815925 0.000000
C 0.948981 -3.007995 0.000000
C 0.200984 -4.343540 0.000000
H -0.663383 -1.886246 0.869490
H -0.663383 -1.886246 -0.869490
H 1.597598 -2.950045 0.866646
H 1.597598 -2.950045 -0.866646
H 0.895113 -5.176229 0.000000
H -0.431354 -4.441219 -0.876852
H -0.431354 -4.441219 0.876852
