17
Cyclopentyne plus ethylene biradical-to-carbene TS 1bc; SI p. S10; CASSCF(6,6)/6-31G(d); angstrom
C -0.606657203 -0.184170555 0.238706025
C -2.106182379 -0.313280618 0.548391498
C -2.380954982 0.222017904 -0.790097426
C 0.149883456 -1.159548555 -0.376447326
C 1.598777281 -0.797191962 -0.116920772
C 1.571968899 0.746880451 -0.026599409
C 0.195997692 1.056068413 0.593780769
H 1.915121302 -1.233339208 0.830699944
H 2.277192133 -1.163923682 -0.878885896
H 2.399148189 1.15704906 0.542083705
H 1.625496518 1.165421751 -1.02700729
H 0.265522795 1.119998186 1.679311077
H -0.228508445 1.992112924 0.247438966
H -2.420679394 -1.333752166 0.698572194
H -2.416428911 0.314837501 1.371575115
H -2.428107585 -0.43635328 -1.633222767
H -2.381271365 1.278915834 -0.970472406
