17
VERBATIM ACS SI Cartesian coordinates; SOURCE UNITS UNSTATED; metastable biradical, H atoms flipped down, constrained 28; CAS(8,8)/6-31G* E=-270.85456 Eh; DOI 10.1021/ja983480r
C 1.451616 0.324669 0.259823
H 1.813971 0.202546 1.278892
H 2.319584 0.506896 -0.365919
C 0.412840 1.455683 0.122134
C 0.661129 -0.885958 -0.286525
C -0.885576 0.809847 -0.349516
C -0.222923 -0.206134 -1.335319
C -1.433503 -0.148789 0.763917
C -0.407623 -1.312572 0.784342
H 0.716422 2.420068 -0.251047
H 1.281748 -1.704062 -0.629060
H -1.614547 1.497833 -0.753629
H 0.165733 0.101861 -2.293476
H -2.422421 -0.501435 0.490673
H -0.871296 -2.249010 0.493882
H -1.510064 0.362562 1.716912
H 0.044849 -1.457911 1.759298
