10
W1985891822-k protonated azaenediyne Bergman-cyclization TS; verbatim SI Gaussian 94 archive CASSCF(6,6)/3-21G geometry
C  1.1741237990  0.6392595408  0.0000000000
C -1.2069730044 -0.6912951408  0.0000000000
N -0.0000263643  1.3206200707  0.0000000000
C -0.2757305408 -1.5519830699  0.0000000000
C  1.4703318240 -0.5838513994  0.0000000000
C -1.1860189023  0.6882440182  0.0000000000
H -0.0776704254 -2.5978177005  0.0000000000
H  2.2763167762 -1.2743130302  0.0000000000
H -2.0659139331  1.2968211909  0.0000000000
H  0.0130530792  2.3287253516  0.0000000000
