43
fac-(BQA)PtMe2I S1 minimum; SI p. S9; CASSCF(14,12); source atomic numbers mapped to symbols; angstrom
C -0.613360 -3.147568 0.709270
C 0.652733 -3.185750 -0.022614
C -1.223580 -4.362772 1.042355
C 1.166332 -4.408093 -0.445163
C -0.702029 -5.591539 0.576937
H -2.110483 -4.365370 1.641925
C 0.445791 -5.627615 -0.170314
C 2.417165 -4.408929 -1.084720
C 2.529083 -2.054552 -0.770854
H -1.220481 -6.498831 0.815563
H 0.846560 -6.556357 -0.529908
C 3.099286 -3.238190 -1.243484
H 2.831273 -5.336021 -1.429703
H 3.034044 -1.115827 -0.856270
H 4.059824 -3.206928 -1.712885
N -1.052220 -1.921394 1.059050
N 1.345406 -2.037614 -0.188010
C -0.967649 -0.640538 3.051559
C 0.959825 0.607870 3.328565
C -1.442134 -0.287812 4.309206
C -1.734079 -1.559265 2.233094
C 0.577168 0.965057 4.628081
H 1.865179 0.972982 2.891755
C -0.626302 0.538335 5.105339
C -2.731660 -0.762464 4.737438
C -2.958107 -1.991558 2.657162
H 1.220774 1.589964 5.210347
H -0.962607 0.825985 6.082032
C -3.469582 -1.567416 3.923133
H -3.101599 -0.456192 5.696215
H -3.552659 -2.634004 2.041437
H -4.439930 -1.904284 4.226797
N 0.206813 -0.160214 2.570097
I 3.034526 1.614567 0.228932
C -0.059213 0.103808 -1.802513
H -1.123127 0.075622 -2.002861
H 0.346701 1.046363 -2.142608
H 0.428105 -0.705066 -2.332221
C -0.926574 1.615598 0.397831
H -0.517614 2.402139 -0.221074
H -0.957735 1.962638 1.423543
H -1.932730 1.384223 0.066422
Pt 0.288034 -0.065421 0.237984
