28
VERBATIM official ACS SI Gaussian 09 wB97XD/6-311G(d,p) azirene-formation TS geometry used for the reported CAS(8,8) single point; angstrom; NImag=1; DOI 10.1021/jo401146k
C -0.786631 0.929776 0.639886
O 1.008994 2.965537 0.761165
N -0.558048 1.550411 1.669080
C 0.587018 0.857581 -0.044464
C 1.269587 -0.303583 -0.117571
C 1.218169 2.261470 -0.241320
O 1.839564 2.399433 -1.286858
S 0.701675 -1.695582 0.847341
S 2.696813 -0.402526 -1.137372
C 1.470996 -1.239409 2.434040
C 3.286268 -2.093353 -0.855200
H 1.088825 -0.276190 2.772657
H 1.190349 -2.018021 3.143822
H 4.172459 -2.166361 -1.488237
H 2.560895 -2.840874 -1.170032
H 2.556029 -1.203893 2.341355
H 3.578014 -2.261116 0.180301
C -1.998850 0.299314 0.085520
C -3.105332 0.070286 0.902440
C -2.027147 -0.031795 -1.265141
C -4.243372 -0.501777 0.357683
H -3.066069 0.333662 1.952614
C -3.174835 -0.597707 -1.802760
H -1.160338 0.160782 -1.887088
C -4.278432 -0.835696 -0.992974
H -5.105726 -0.687676 0.986599
H -3.205535 -0.852113 -2.855270
H -5.171468 -1.281741 -1.415080
