21
VERBATIM official SI Table S10, 3(pipi*)/3(npi*)-CI, CAS(8,7)/6-311G(d,p) optimized Cartesian coordinates in angstrom
C 0.7272805457 -1.1512306799 0.3318888593
C -0.3052684399 -0.4901263428 -0.6290131263
C 2.0668399337 -1.0752707469 -0.3910566955
C 2.4474287691 0.2119202307 -0.3918402968
C 1.3649911453 1.0048864017 0.3305502166
C 0.9267915703 -0.0370055448 1.3750788439
C 0.1295613074 1.0166978512 -0.6251242153
C -1.7348626764 -0.4641044290 -0.1268911290
C -1.0805060864 1.7657277996 -0.1251465202
C -2.1681949591 0.8051217326 0.1478192507
O -2.4594672611 -1.5449218358 -0.0113616923
H -3.1495824769 1.0520238542 0.5043602470
H -1.1485369012 2.8292741232 -0.0184687337
H 0.0231289033 0.2322985444 1.9101699718
H 1.7085881964 -0.2693539311 2.0882547674
H 0.4354087070 -2.1279419660 0.6946749838
H 2.5337195599 -1.8921075027 -0.9098833302
H 3.2837491533 0.6415896796 -0.9119770740
H -0.2695644865 -0.9472474549 -1.6117158086
H 0.4176085990 1.3691875885 -1.6108655099
H 1.6541938946 1.9820336266 0.6953709908
