17
1,2-C-shift TS5-6, CASSCF(4,4)/6-31G*; verbatim official SI Cartesian block; E = -270.774461 NIMAG = 1
C 0.491906 0.263090 -0.469715
C 0.046000 -1.051759 -0.565625
C -1.429718 -0.979769 -0.184981
C -1.714008 0.419368 0.418178
C -0.557596 1.294130 -0.098396
C 1.950766 0.383741 -0.244138
C 1.422351 -0.602505 0.761749
H -1.985239 -1.121907 -1.110843
H -1.731925 -1.788544 0.471678
H -2.689658 0.810303 0.150445
H -1.677804 0.372182 1.502892
H -0.830843 1.849982 -0.993000
H -0.202608 2.019402 0.627158
H 2.594878 -0.039878 -0.995298
H 2.301064 1.332806 0.128661
H 1.827075 -1.592335 0.796811
H 1.136861 -0.199786 1.719069
