21
VERBATIM official SI Table S11, S0-TS1, CAS(10,9)/6-311G(d,p) optimized Cartesian coordinates in angstrom
C 0.743006 -1.031049 0.230711
C -0.397986 -0.461089 -0.667184
C 2.056045 -0.962040 -0.511068
C 2.671844 0.230930 -0.223380
C 1.937936 0.919058 0.777208
C 0.987841 -0.064470 1.405678
C -0.258252 1.006784 -0.963506
C -1.759690 -0.529360 0.036577
C -1.402099 1.697848 -0.496963
C -2.292294 0.844096 0.114381
O -2.278362 -1.531294 0.451259
H -3.221402 1.097409 0.586041
H -1.546400 2.756623 -0.607621
H 0.084191 0.381970 1.803795
H 1.481000 -0.590161 2.222456
H 0.464147 -2.030176 0.540900
H 2.348026 -1.653820 -1.279202
H 3.549400 0.612586 -0.712424
H -0.451135 -1.053839 -1.576317
H 0.461307 1.419035 -1.639118
H 2.226179 1.852413 1.222605
