21
VERBATIM official SI Table S9, 1(npi*)/3(pipi*)-SC, CAS(8,7)/6-311G(d,p) optimized Cartesian coordinates in angstrom
C 0.7280662908 -1.1546628643 0.3327884968
C -0.3044615187 -0.4944347765 -0.6303533945
C 2.0667975291 -1.0746360600 -0.3918640366
C 2.4433197342 0.2138207683 -0.3922829313
C 1.3592922399 1.0035462598 0.3320427716
C 0.9254363990 -0.0404974348 1.3761224773
C 0.1262283026 1.0147000450 -0.6250174425
C -1.7287203907 -0.4434083581 -0.1317759801
C -1.0929179595 1.7534782729 -0.1258743404
C -2.1551019056 0.8245479205 0.1365254210
O -2.4543583230 -1.5620037348 0.0049997084
H -3.1342040818 1.0789827961 0.4960273403
H -1.1558960703 2.8174602305 -0.0127762276
H 0.0221496511 0.2248625431 1.9123189298
H 1.7099331261 -0.2715685962 2.0867644997
H 0.4398821278 -2.1321493438 0.6963810748
H 2.5358540825 -1.8897290201 -0.9114962397
H 3.2784445279 0.6460081264 -0.9122413707
H 0.2672319113 -0.9515779570 -1.6133505796
H 0.4139173106 1.3679249043 -1.6101551382
H 1.6468758371 1.9807882777 0.6980389612
