23
W1982051564 endo-cyclopropane-exo-cyclobutane DBO 5 RB3LYP/6-31G(d) geometry, verbatim official SI
C -0.338386 -0.365534 1.263312
C -0.614711 1.083052 0.780164
H 1.886836 -0.492698 -1.311376
C -0.614711 1.083052 -0.780164
H -1.542178 1.440883 1.236486
C 0.538769 2.131530 0.778070
C 0.538769 2.131530 -0.778070
C -0.338386 -0.365534 -1.263312
H -1.542178 1.440883 -1.236486
N -1.425269 -1.174500 -0.625443
C 1.023099 -0.844568 0.753760
H -0.443669 -0.476904 -2.345372
N -1.425269 -1.174500 0.625443
H -0.443669 -0.476904 2.345372
C 1.023099 -0.844568 -0.753760
H 1.886836 -0.492698 1.311376
H 2.139427 -2.599982 0.000000
C 1.152298 -2.146628 0.000000
H 0.255386 3.087526 -1.228265
H 1.473896 1.805228 1.241234
H 0.255386 3.087526 1.228265
H 1.473896 1.805228 -1.241234
H 0.334757 -2.859093 0.000000
