16
Pentamethine cyanine trans-S0 minimum/Franck-Condon geometry; SI p. 10; CASSCF(8,7)/6-31G*; angstrom
N  0.000000  3.624088 -0.114701
C  0.000000  2.403912  0.372727
C  0.000000  1.237753 -0.375736
C  0.000000  0.000000  0.257572
C  0.000000 -1.237753 -0.375736
C  0.000000 -2.403912  0.372727
N  0.000000 -3.624088 -0.114701
H  0.000000  4.422735  0.481858
H  0.000000  3.796956 -1.098259
H  0.000000  2.346579  1.446489
H  0.000000  1.295259 -1.450052
H  0.000000  0.000000  1.336422
H  0.000000 -1.295259 -1.450052
H  0.000000 -2.346579  1.446489
H  0.000000 -4.422735  0.481858
H  0.000000 -3.796956 -1.098259
