21
VERBATIM official SI Table S19, 1(npi*)-TS2, CAS(10,9)/6-311G(d,p) optimized Cartesian coordinates in angstrom
O 0.713602 2.084117 1.885016
C 0.380306 0.791131 2.106179
C 0.353039 0.236647 3.409493
C -0.165886 -1.142125 3.209682
C -0.873672 -1.163200 2.065194
C -0.898850 0.240389 1.495213
C -1.967389 3.313854 3.040587
C -1.637030 2.537145 4.090698
C -1.611994 1.122356 3.728819
C -2.029803 1.023526 2.257587
C -2.244208 2.495263 1.802782
H 1.031228 0.512027 4.195323
H -0.048502 -1.946257 3.910981
H -1.589606 2.780482 0.986118
H -3.262900 2.646224 1.454082
H -2.955724 0.471351 2.148715
H -1.984340 0.399543 4.431462
H -1.403772 2.898934 5.075695
H -0.992021 0.307992 0.418683
H -1.448504 -1.982249 1.676880
H -2.016800 4.386947 3.053581
