22
VERBATIM S15 singlet n-pi-star minimum CASSCF(16,15)/6-31G(d) optimized phenalenone geometry (angstrom)
O 0.135034 -3.390901 0.000000
C 0.858540 1.403220 0.000000
C 2.259977 1.186510 0.000000
C 2.783502 -0.104646 0.000000
C 1.942758 -1.214201 0.000000
C 0.533836 -1.040968 0.000000
C -0.017013 0.274466 0.000000
C -0.368861 -2.133937 0.000000
C -1.431052 0.469034 0.000000
C -1.944098 1.794315 0.000000
C -1.085345 2.887946 0.000000
C 0.297600 2.705131 0.000000
C -1.745609 -1.956315 0.000000
C -2.274209 -0.665654 0.000000
H 2.920024 2.035201 0.000000
H 3.848923 -0.247346 0.000000
H 2.358390 -2.204221 0.000000
H -2.390872 -2.815061 0.000000
H -3.340457 -0.531420 0.000000
H -3.009034 1.942493 0.000000
H -1.490233 3.883850 0.000000
H 0.953985 3.556667 0.000000
