23
VERBATIM official ACS SI Gaussian 09 final wB97XD/6-311G(d,p) azirene-formation TS geometry used for the reported CAS(8,8) single point; angstrom; NImag=1; DOI 10.1021/jo401146k
C -2.625885 0.865195 0.079313
O -2.409551 -1.604041 -1.039702
N -3.127711 0.606023 -0.993071
C -1.281366 0.073452 0.047180
C -0.167215 0.792717 -0.143640
C -1.573224 -1.457757 -0.139720
O -0.935788 -2.210852 0.584762
C -2.975583 1.769495 1.216293
H -3.038830 1.159065 2.119252
H -2.171968 2.496069 1.346257
H -3.920862 2.276175 1.031595
H -0.334260 1.834267 -0.418889
C 1.246249 0.429443 -0.053408
C 1.708929 -0.778550 0.484912
C 2.176414 1.368373 -0.522237
C 3.070774 -1.034593 0.529442
H 0.994337 -1.502595 0.856485
C 3.534834 1.102034 -0.478233
H 1.827019 2.309936 -0.933940
C 3.984723 -0.103392 0.048639
H 3.420406 -1.972546 0.944617
H 4.241676 1.833042 -0.852800
H 5.047273 -0.314934 0.087187
