17
VERBATIM ACS SI Cartesian coordinates; SOURCE UNITS UNSTATED; second-order saddle point on S1 38, CAS(8,8); CAS(8,8)/6-31G* E=-270.64979 Eh; DOI 10.1021/ja983480r
H 1.059583 1.413217 1.969880
C 0.536725 0.777730 1.287941
C 0.534711 -0.777115 1.288950
C -0.289637 1.144212 0.134217
H 1.070198 -1.413397 1.960391
C -0.292841 -1.143169 0.136723
H -1.943461 0.001242 -0.785689
H -0.647375 2.166548 0.139750
H 1.461042 1.196471 -1.253276
H -0.652441 -2.164867 0.142362
C 0.464809 0.774124 -1.232766
C -1.351609 0.001712 0.124405
H 1.458769 -1.200812 -1.250836
H -0.094597 1.182765 -2.070158
H -1.998020 0.003615 0.990438
C 0.463420 -0.776375 -1.231377
H -0.096735 -1.185900 -2.067835
