23
VERBATIM official ACS SI Cartesian coordinates in angstroms; source block 6; butyrophenone T1 equilibrium; DOI 10.1021/jp037735l
C -1.576803 0.000000 1.419352
C -1.581612 0.000000 2.806170
C -0.378610 0.000000 3.526000
C 0.836827 0.000000 2.829767
C 0.859187 0.000000 1.441765
C -0.350942 0.000000 0.693417
H -2.509344 0.000000 0.885714
H -2.520006 0.000000 3.331556
H -0.388852 0.000000 4.600646
H 1.765300 0.000000 3.372641
H 1.804408 0.000000 0.931665
C -0.336105 0.000000 -0.720468
O -1.523636 0.000000 -1.370376
C 0.881298 0.000000 -1.614037
H 1.491183 0.869958 -1.379852
H 1.491183 -0.869958 -1.379852
C 0.569455 0.000000 -3.115652
H -0.029436 0.870498 -3.365066
H -0.029436 -0.870498 -3.365066
C 1.844399 0.000000 -3.957389
H 1.609323 0.000000 -5.016646
H 2.451097 -0.877547 -3.753144
H 2.451097 0.877547 -3.753144
