16
Benzyne plus ethylene biradical-to-carbene TS 2bc; SI p. S23; CASSCF(6,6)/6-31G(d); angstrom
C 0.561375669 -0.072357958 -0.224477302
C -0.10169939 -1.284108761 -0.051110706
C -0.112150196 1.197256367 -0.110731173
C -1.448123184 1.199883258 0.062248539
C -2.168714158 -0.039049095 0.101222352
C -1.530693656 -1.226075242 -0.054984682
H 0.433366181 2.117770788 -0.235734005
H -1.991534299 2.125794418 0.126240773
H -3.233988727 -0.009136622 0.257011848
H -2.100817403 -2.139621127 -0.059046916
C 2.084532253 -0.08465176 -0.59412749
C 2.263061881 -0.032584184 0.842888614
H 2.285951915 -0.935589413 1.417142374
H 2.331703371 0.903799617 1.360313835
H 2.382157189 0.790365063 -1.150243811
H 2.380363554 -0.997340349 -1.07939625
