17
bicyclo[3.2.0]hept-1(5)-ene 6, CASSCF(4,4)/6-31G*; verbatim official SI Cartesian block; E = -270.849408 NIMAG = 0
C -0.115991 1.953204 0.000000
H -1.118733 2.365619 0.000000
H 0.570797 2.791816 0.000000
C 0.066056 1.056749 1.273278
C 0.066056 1.056749 -1.273278
C -0.007258 -0.307242 0.654691
C -0.007258 -0.307242 -0.654691
C -0.007258 -1.817345 0.804512
C -0.007258 -1.817345 -0.804512
H -0.703280 1.253512 2.013882
H -0.703280 1.253512 -2.013882
H 1.023541 1.230789 1.758948
H 1.023541 1.230789 -1.758948
H -0.887272 -2.259754 1.259972
H -0.887272 -2.259754 -1.259972
H 0.879710 -2.255847 1.250512
H 0.879710 -2.255847 -1.250512
