19
VERBATIM official Figshare CAS(8,8)/6-311G(d,p) input Cartesian coordinates; system 33 phenyl-migration TS; angstrom; data DOI 10.6084/m9.figshare.682349.v1; article DOI 10.1021/jo401146k
C 0.17872946 -0.79064232 -0.00000093
O 2.14270146 -2.32798285 0.00000028
N -0.11978198 -1.98512719 -0.00000159
C 1.33706250 -0.02865623 -0.00000023
C 1.48786546 1.26122720 -0.00000011
C 2.69013299 -1.23780726 0.00000029
O 3.76571267 -0.72194951 0.00000057
S 1.84462389 2.76980006 0.00000008
C -1.33931143 -0.51760813 -0.00000041
C -1.98469853 -0.30340677 1.22107852
C -1.98469924 -0.30340560 -1.22107872
C -3.27622288 0.19320483 1.21262973
H -1.46754356 -0.52088122 2.14728525
C -3.27622358 0.19320598 -1.21262875
H -1.46754485 -0.52087926 -2.14728598
C -3.91531417 0.44156663 0.00000079
H -3.79089491 0.37558776 2.14770563
H -3.79089620 0.37558979 -2.14770416
H -4.92986530 0.82306122 0.00000123
