12
VERBATIM ACS SI coordinates: keteniminium cation + formaldimine TS Trans, CASSCF(8,7)/aug-cc-pVDZ, DOI 10.1021/jo026188h
C    -0.01171  -0.05319   0.00915
C    -0.02566   0.04525   1.31577
N     0.44987   0.04231   2.49902
H     0.94322   0.0756   -0.48247
H    -0.90347  -0.21261  -0.56757
H     0.72344  -0.81656   2.94052
H     0.438     0.87634   3.05722
N    -2.36743  -0.12867   1.65248
C    -2.91368  -0.47217   2.75126
H    -3.05263   0.09479   0.94652
H    -2.29006  -0.73781   3.59828
H    -3.9878   -0.51743   2.89369
