17
VERBATIM ACS SI Cartesian coordinates; SOURCE UNITS UNSTATED; anti biradical, methylene twisted 120 deg clockwise 15; CAS(8,8)/6-31G* E=-270.86491 Eh; DOI 10.1021/ja983480r
C -0.606799 0.433849 0.007066
H -1.264317 0.851095 0.765637
H 0.397290 0.468762 0.420965
C -0.704660 1.204483 -1.287644
C -1.026380 -1.019130 -0.366091
C -1.163610 0.372918 -2.314847
C -1.370341 -0.926832 -1.835534
C -1.854483 -1.734723 1.945611
C -2.209888 -1.570626 0.498205
H -0.477639 2.248807 -1.380653
H -0.186212 -1.697164 -0.226243
H -1.332027 0.688085 -3.328463
H -1.715578 -1.761778 -2.416292
H -2.632890 -1.780906 2.685559
H -3.062219 -0.903700 0.395316
H -0.912247 -2.181334 2.211722
H -2.519165 -2.529657 0.078703
