10
VERBATIM ACS SI coordinates: parent beta-lactam product, CASSCF(8,7)/aug-cc-pVDZ, DOI 10.1021/jo026188h
C            -0.003144   -0.006692    0.000827
C            -0.003198   -0.007564    1.528514
N             1.376928   -0.137601    1.574208
C             1.555134   -0.260434    0.132204
O            -0.838356    0.062311    2.380289
H            -0.280314    0.943771   -0.447094
H            -0.571265   -0.817855   -0.446346
H             2.195506    0.505374   -0.299400
H             1.875552   -1.248136   -0.194438
H             1.966818   -0.378639    2.340593
