17
Cyclopentyne plus ethylene carbene-to-product TS 1cp; SI pp. S14-S15; CASSCF(6,6)/6-31G(d); angstrom
C 0.472234884 0.248517144 -0.502415109
C 0.006256409 -1.061079093 -0.544625066
C -1.45431666 -0.956141876 -0.116130782
C -1.69490648 0.46102688 0.463855648
C -0.544256497 1.305619946 -0.113786025
C 1.969016451 0.334155514 -0.302540768
C 1.440005349 -0.614879154 0.728144189
H -2.043281132 -1.109448892 -1.019298687
H -1.747304321 -1.744723106 0.568668739
H -2.673482912 0.861446458 0.222134008
H -1.620740866 0.437624925 1.547462281
H -0.843047468 1.848453946 -1.008120272
H -0.151194733 2.039188681 0.58322374
H 2.578861496 -0.115027571 -1.067247027
H 2.345192539 1.284216658 0.04114876
H 1.810907237 -1.61725606 0.77508246
H 1.179889417 -0.187791206 1.681933476
