17
VERBATIM ACS SI Cartesian coordinates; SOURCE UNITS UNSTATED; transition state between gauche-in and anti biradicals on S1 46; CAS(8,8)/6-31G* E=-270.74071 Eh; DOI 10.1021/ja983480r
C -1.223985 -0.741562 -0.041296
H -1.754564 -0.031304 -0.664623
H -0.896733 -1.547767 -0.698233
C -2.078509 -1.301951 1.067174
C 0.013988 -0.127642 0.665923
C -1.229885 -1.529903 2.245933
C 0.101172 -0.905557 1.950706
C -1.310985 2.169143 0.503758
C -0.064492 1.468153 0.940867
H -2.987813 -1.842293 0.879937
H 0.900600 -0.282878 0.060759
H -1.578818 -1.822218 3.216177
H 0.864932 -0.742918 2.687549
H -2.220939 2.044939 1.062720
H 0.075499 1.626168 2.005124
H -1.417038 2.499404 -0.513958
H 0.788698 1.921627 0.446974
