17
VERBATIM ACS SI Cartesian coordinates; SOURCE UNITS UNSTATED; norbornene 1, CAS(8,8); CAS(8,8)/6-31G* E=-270.94952 Eh; DOI 10.1021/ja983480r
H 1.130305 1.332818 1.897490
C 0.539962 0.680307 1.280780
C 0.540072 -0.680276 1.280774
C -0.331595 1.126137 0.118811
H 1.130683 -1.332698 1.897321
C -0.331582 -1.126147 0.118871
H -2.001687 -0.000105 -0.783952
H -0.698050 2.143859 0.159014
H 1.469153 1.199186 -1.191022
H -0.698069 -2.143859 0.159063
C 0.471551 0.776336 -1.204953
C -1.378508 -0.000016 0.106082
H 1.468940 -1.199314 -1.191168
H -0.044671 1.173434 -2.072890
H -2.010430 0.000051 0.986895
C 0.471383 -0.776360 -1.205030
H -0.044918 -1.173352 -2.072967
