17
concerted TS1-5, CASSCF(4,4)/6-31G*; verbatim official SI Cartesian block; E = -270.720288 NIMAG = 1
C 0.236245 -0.125512 -0.000605
C 2.220715 -0.075999 -0.640154
C 2.187931 0.018991 0.702057
C -0.329789 -1.285866 0.047159
C -1.808581 -0.878832 -0.063865
C -1.893863 0.668917 0.145121
C -0.461455 1.193365 -0.157456
H -2.159593 -1.157043 -1.054237
H -2.435002 -1.409864 0.644720
H -2.653620 1.149279 -0.463608
H -2.131751 0.880339 1.182863
H -0.374246 1.591523 -1.164941
H -0.144936 1.967357 0.533529
H 2.304112 -1.026715 -1.126740
H 2.249534 0.797617 -1.264403
H 2.245300 -0.853944 1.320524
H 2.192980 0.971062 1.198755
