21
VERBATIM official SI Table S20, 3(npi*)-TS1, CAS(10,9)/6-311G(d,p) optimized Cartesian coordinates in angstrom
O 0.004316 0.025307 -0.005714
C 0.010110 0.019070 1.335068
C 1.079777 0.005920 2.164280
C 0.595241 0.020285 3.524248
C -0.809017 0.170966 3.536029
C -1.301254 0.124954 2.085270
C -1.541719 2.208666 3.850546
C -2.966701 1.873531 3.873780
C -3.326654 1.452808 2.638458
C -2.087898 1.435814 1.763933
C -1.258109 2.557230 2.409469
H 2.106910 -0.034355 1.861600
H 1.216633 -0.069117 4.393504
H -0.209329 2.538752 2.144469
H -1.664515 3.533609 2.156395
H -2.277152 1.546998 0.703884
H -4.277642 1.043377 2.353006
H -3.583664 1.858682 4.753465
H -1.919265 -0.747293 1.892757
H -1.405226 -0.228796 4.331483
H -1.037672 2.677690 4.676841
