17
VERBATIM ACS SI Cartesian coordinates; SOURCE UNITS UNSTATED; gauche-out biradical, methylene twisted 120 deg anticlockwise 19; CAS(8,8)/6-31G* E=-270.86475 Eh; DOI 10.1021/ja983480r
C 1.323828 0.613099 0.410958
H 1.107862 1.174241 1.318266
H 2.310717 0.179126 0.546740
C 1.259725 1.506098 -0.804254
C 0.243368 -0.478507 0.156907
C 0.225434 1.094383 -1.652144
C -0.407482 -0.043782 -1.137525
C -1.741245 -1.751540 1.156210
C -0.762788 -0.631023 1.346615
H 1.893923 2.357991 -0.955277
H 0.722936 -1.446182 0.018664
H -0.045148 1.585105 -2.569290
H -1.231059 -0.561715 -1.590516
H -1.388788 -2.707231 0.808592
H -1.292731 0.308278 1.482644
H -2.663406 -1.754061 1.708756
H -0.184902 -0.794460 2.258207
