22
VERBATIM S15 singlet pi-pi-star r3 CASSCF optimized phenalenone geometry (angstrom)
O 0.094783 -3.363466 0.000000
C 0.854254 1.405225 0.000000
C 2.284567 1.201292 0.000000
C 2.813753 -0.078595 0.000000
C 1.972702 -1.225815 0.000000
C 0.523910 -1.045151 0.000000
C -0.010938 0.230633 0.000000
C -0.347785 -2.204397 0.000000
C -1.436417 0.457254 0.000000
C -1.940129 1.802648 0.000000
C -1.092684 2.886062 0.000000
C 0.282312 2.683059 0.000000
C -1.769713 -1.950579 0.000000
C -2.290117 -0.653687 0.000000
H 2.932242 2.059021 0.000000
H 3.880574 -0.209053 0.000000
H 2.375969 -2.216637 0.000000
H -2.420599 -2.804588 0.000000
H -3.355551 -0.507039 0.000000
H -3.005415 1.947634 0.000000
H -1.488187 3.884342 0.000000
H 0.938253 3.535997 0.000000
