16
VERBATIM 9H CI32(1) CASSCF optimized geometry from SI Table SI2 (atomic units)
N  -1.529639301 -0.555627528 -3.021381694
C   0.980989101  0.300075430 -2.909482198
N   2.718623645 -1.097358490 -1.206822064
C   1.827339480 -0.481487921  0.900034084
C  -0.708644152  0.709515194  1.169737459
C  -2.659197185 -0.177747131 -0.681661425
N  -1.150323261  1.273032367  3.670476423
C   0.822530875  0.422672821  4.878400316
N   2.588416519 -0.815435037  3.390532627
N   2.082493364  1.078473122 -5.157523399
O  -4.841378619 -0.560437592 -0.211257427
H   1.083875810  0.596017329  6.882001472
H   4.349237326 -1.216103222  3.897974131
H   3.896938466  1.523946862 -4.991903957
H   1.048435264  2.357324532 -6.075463397
H  -2.079913826 -2.019218252 -4.072306101
