17
VERBATIM ACS SI Cartesian coordinates; SOURCE UNITS UNSTATED; anti biradical, methylene twisted 120 deg anticlockwise 18; CAS(8,8)/6-31G* E=-270.86437 Eh; DOI 10.1021/ja983480r
C -0.595127 0.440819 0.000204
H -1.240918 0.864709 0.766141
H 0.416097 0.479389 0.396445
C -0.714158 1.206326 -1.295490
C -1.018920 -1.015200 -0.360248
C -1.168649 0.365080 -2.317522
C -1.360529 -0.933465 -1.831477
C -1.859773 -1.752590 1.946773
C -2.211153 -1.551476 0.502213
H -0.495694 2.251943 -1.393955
H -0.183783 -1.695536 -0.210809
H -1.342285 0.673871 -3.332185
H -1.696988 -1.775334 -2.407301
H -1.238854 -1.037202 2.455802
H -3.045775 -0.855566 0.402162
H -2.498739 -2.355752 2.566434
H -2.551250 -2.494468 0.080504
