17
Cyclopentyne plus ethylene cycloadduct 1p; SI p. S16; CASSCF(6,6)/6-31G(d); angstrom
C -0.016925158 0.296429965 0.663423244
C -0.016924364 0.296432384 -0.663397922
C 0.084637104 -1.072852094 -1.27254334
C -0.11941047 -1.963785634 6.9527E-06
C 0.08479809 -1.07285736 1.272533713
C -0.012288191 1.848156708 0.78320615
C -0.012089646 1.848154894 -0.783205435
H -0.662502809 -1.284658798 -2.030939563
H 1.057203158 -1.239458196 -1.729503541
H -1.133936413 -2.347085742 5.69421E-05
H 0.543111847 -2.821838743 -3.64547E-05
H -0.662268954 -1.284677725 2.030995514
H 1.057410887 -1.239445769 1.729416103
H -0.890322435 2.287525549 1.243201081
H 0.876293645 2.277398519 1.232717268
H -0.890000978 2.287570945 -1.243381172
H 0.876611686 2.277347097 -1.232549542
