16
Benzyne plus ethylene carbene-to-product TS 2cp; SI p. S27; CASSCF(6,6)/6-31G(d); angstrom
C 0.269824495 0.966387009 0.673867688
C -1.11353045 0.6803185 0.690950711
C 1.301860588 0.023522667 0.267201085
C 0.928948432 -1.211826421 -0.090516164
C -0.47425604 -1.549557311 -0.15874868
C -1.420802156 -0.642137167 0.140062954
H 2.33755448 0.315817528 0.286000076
H 1.660201 -1.955737231 -0.35368442
H -0.743502844 -2.544572548 -0.471192139
H -2.457276719 -0.921448053 0.047265957
C 0.551735664 2.461992795 0.774965026
C -0.291925971 2.275906095 -0.426530278
H -1.278977414 2.681290892 -0.475602464
H 0.196749904 2.105717623 -1.367847361
H 1.578993439 2.748021973 0.611883086
H 0.082387593 2.970616649 1.598734925
