12
VERBATIM ACS SI coordinates: keteniminium cation + formaldimine TS Cis/Trans, CASSCF(8,7)/aug-cc-pVDZ, DOI 10.1021/jo026188h
C           -0.538041    0.088205    0.115389
C           -0.927994    1.365542    0.082678
H           -0.242156    2.172454    0.285369
H           -1.950650    1.613694   -0.154466
N            0.890429   -0.198511    0.455330
N           -1.204904   -1.075945   -0.258038
H           -1.298287   -1.759241    0.471227
H           -2.101222   -0.892405   -0.665131
C            1.850367   -0.058875   -0.372674
H            1.641097    0.292584   -1.372121
H            2.859751   -0.291087   -0.064604
H            1.088530   -0.545356    1.380289
