23
VERBATIM official ACS SI Cartesian coordinates in angstroms; source block 24; singlet Norrish-II cleavage transition state; DOI 10.1021/jp037735l
C 1.693836 1.078361 -0.223041
C 2.940257 0.517428 -0.424169
C 3.146545 -0.849689 -0.200391
C 2.097244 -1.626634 0.219871
C 0.834178 -1.064749 0.425771
C 0.610815 0.285133 0.215178
H 1.542094 2.125195 -0.395716
H 3.755327 1.136316 -0.754676
H 4.117598 -1.283576 -0.358839
H 2.237193 -2.679135 0.392076
H 0.035786 -1.705275 0.750438
C -0.697264 0.902521 0.452242
O -0.796460 2.159524 -0.062550
C -1.860176 0.217644 0.828183
H -2.676666 0.837394 1.160290
H -1.726944 -0.644722 1.452322
C -2.645586 -0.555101 -0.760850
H -2.747831 0.348598 -1.338992
H -1.817336 -1.163445 -1.082999
C -3.821255 -1.223529 -0.413529
H -1.602687 2.579032 0.270867
H -4.744361 -0.687379 -0.281157
H -3.792054 -2.227506 -0.028811
