17
diradical-to-carbene TS7-5, CASSCF(4,4)/6-31G*; verbatim official SI Cartesian block; E = -270.756856 NIMAG = 1
C 0.401598 -0.115927 -0.273908
C -0.326668 -1.241197 0.078511
C -1.786580 -0.847516 -0.029243
C -1.779743 0.661582 0.306702
C -0.432553 1.154455 -0.252008
C 1.857096 -0.119825 -0.645797
C 2.194657 0.032579 0.782037
H -1.799387 0.789506 1.384700
H -2.631983 1.194659 -0.099808
H -2.127951 -1.012969 -1.051358
H -2.435447 -1.423325 0.620931
H -0.543473 1.505935 -1.277621
H -0.005182 1.972132 0.318237
H 2.190369 -1.050065 -1.079208
H 2.140484 0.715423 -1.271627
H 2.170869 0.996701 1.250550
H 2.274852 -0.832910 1.407433
