17
VERBATIM ACS SI Cartesian coordinates; SOURCE UNITS UNSTATED; norbornene 1, CAS(6,6); CAS(6,6)/6-31G* E=-270.93272 Eh; DOI 10.1021/ja983480r
H 1.120319 1.333288 1.898313
C 0.539285 0.678195 1.275509
C 0.545624 -0.682108 1.274270
C -0.324933 1.123984 0.105331
H 1.131366 -1.332389 1.897629
C -0.313806 -1.134550 0.105423
H -2.012373 0.009709 -0.785160
H -0.684917 2.144167 0.148258
H 1.461764 1.196668 -1.182027
H -0.680701 -2.152011 0.149254
C 0.462551 0.776683 -1.188874
C -1.386477 0.011564 0.102812
H 1.465944 -1.197214 -1.189186
H -0.048580 1.167356 -2.063121
H -2.009689 0.008973 0.989355
C 0.465114 -0.780988 -1.190733
H -0.047952 -1.171326 -2.063935
