10
W1985891822-l protonated nitrile ring-opening product; verbatim SI Gaussian 94 archive CASSCF(6,6)/3-21G geometry
C -1.1636763684 -0.7962913805  0.0000000000
C  1.2891473498  0.7378533846  0.0000000000
N -1.1880474633 -1.9398029872  0.0000000000
C  0.0000000000  1.3057256527  0.0000000000
C -1.1590061471  0.6074358403  0.0000000000
C  2.4166336570  0.3252136126  0.0000000000
H -0.0612433966  2.3777888083  0.0000000000
H -2.1145185638  1.0890498787  0.0000000000
H  3.4093994506 -0.0313254807  0.0000000000
H -1.2158961945 -2.9365149529  0.0000000000
