10
VERBATIM ACS SI coordinates: ketene + formaldimine M Trans, CASSCF(8,7)/aug-cc-pVDZ, DOI 10.1021/jo026188h
C             0.000000    0.000000    0.000000
C             0.000000    0.000000    1.369207
O             0.837843    0.000000    2.264515
H             0.934833   -0.000986   -0.535100
H            -0.919621   -0.000567   -0.564110
N            -1.437981    0.001980    1.897176
C            -1.676928    0.010907    3.152881
H            -2.192639   -0.002183    1.238100
H            -0.822935    0.016433    3.811352
H            -2.695055    0.012457    3.509011
