10
VERBATIM ACS SI coordinates: ketene + formaldimine TS1, CASSCF(8,7)/aug-cc-pVDZ, DOI 10.1021/jo026188h
C             0.000000    0.000000    0.000000
C             0.000000    0.000000    1.468647
N             1.297074    0.000000    1.979595
C             2.306603   -0.606218    1.245569
O            -0.987742    0.037707    2.165821
H             0.702227    0.625765   -0.525056
H            -0.880890   -0.344889   -0.518690
H             3.317387   -0.281542    1.434608
H             2.140524   -1.575923    0.809670
H             1.401639    0.181643    2.956391
