17
VERBATIM ACS SI Cartesian coordinates; SOURCE UNITS UNSTATED; methylene-torsion transition state for C7 inversion 30; CAS(6,6)/6-31G* E=-270.85507 Eh; DOI 10.1021/ja983480r
H 0.061465 0.878908 2.292681
C 0.180864 0.390426 1.341702
C 0.802707 -0.859739 1.269378
C -0.382895 1.063920 0.109272
H 1.180997 -1.307233 2.173014
C 0.938498 -1.553084 0.057214
H -2.415670 1.471067 -0.729734
H -0.179406 2.132555 0.192319
H 1.362685 0.951266 -1.137633
H 1.381217 -2.532291 0.043223
C 0.348091 0.562182 -1.152298
C -1.879080 0.894060 0.003559
H 1.034790 -1.269722 -2.060513
H -0.132988 0.960670 -2.040985
H -2.447629 0.504754 0.827535
C 0.408830 -0.967713 -1.225060
H -0.583404 -1.367481 -1.429943
