41
VERBATIM SOURCE COORDINATES: Table S3, MP2/cc-pVDZ ground-state geometry, DOI 10.1021/jp212295s
C     1.41302   -0.00000   -0.00000
C     2.85506   -0.00001    0.00000
C     0.77291   -0.03235    1.27495
C    -0.56797   -0.50142    1.44359
C    -1.17084   -0.51793    2.68839
C    -0.48067   -0.04576    3.85709
C     0.88256    0.37350    3.69409
C     1.48778    0.36091    2.45269
H    -1.09528   -0.94112    0.59237
H    -2.17230   -0.93983    2.77618
H     1.46144    0.71210    4.55476
H     2.52482    0.69538    2.36274
N    -1.07637   -0.03157    5.06677
C    -2.46759   -0.45702    5.21230
H    -2.78502   -0.27017    6.24524
H    -3.12029    0.11751    4.53647
H    -2.58111   -1.53354    4.99702
C    -0.32778    0.37113    6.25978
H    -0.98670    0.29220    7.13197
H     0.54221   -0.28566    6.41740
H     0.01673    1.41489    6.17341
C     0.77291    0.03235   -1.27495
C    -0.56797    0.50141   -1.44359
C    -1.17085    0.51792   -2.68839
C    -0.48067    0.04576   -3.85709
C     0.88256   -0.37349   -3.69410
C     1.48779   -0.36089   -2.45269
H    -1.09528    0.94110   -0.59237
H    -2.17230    0.93982   -2.77617
H     1.46144   -0.71208   -4.55476
H     2.52482   -0.69536   -2.36274
N    -1.07637    0.03157   -5.06677
C    -2.46759    0.45702   -5.21230
H    -2.58111    1.53354   -4.99702
H    -2.78502    0.27017   -6.24524
H    -3.12029   -0.11750   -4.53647
C    -0.32778   -0.37112   -6.25978
H     0.54220    0.28567   -6.41741
H    -0.98670   -0.29220   -7.13197
H     0.01673   -1.41489   -6.17341
N     4.04442   -0.00001   -0.00000
