17
Cyclopentyne plus ethylene concerted TS 1ac; SI p. S11; RMP2-FC/6-31G(d) geometry used for CAS single points; angstrom
C -0.175771829 0.001830361 0.050953642
C -0.039243096 -0.63958643 2.389392202
C 0.01122083 0.707067761 2.353893342
C -1.368010008 0.019833672 -0.38485774
C -0.847691786 -0.083995742 -1.878207297
C 0.710121503 0.145078366 -1.944622603
C 1.19369114 -0.129712816 -0.491281653
H -1.112156928 -1.084944136 -2.233313853
H -1.376142122 0.64350895 -2.500486078
H 1.21038827 -0.479392502 -2.691975362
H 0.911527863 1.191740163 -2.189886919
H 1.608822597 -1.13468443 -0.357420688
H 1.915541724 0.603857123 -0.123700611
H -0.986748221 -1.165323445 2.374856398
H 0.862299639 -1.242235575 2.449504772
H -0.89432912 1.300942132 2.313217609
H 0.954895776 1.243440683 2.387585378
