50
VERBATIM SOURCE COORDINATES: Table S8, MP2/cc-pVDZ ground-state geometry, DOI 10.1021/jp212295s
C    -0.00021   -0.80096   -0.00001
C    -0.01198   -0.10335    1.25119
C    -0.59977    1.19420    1.38286
C    -0.61816    1.86069    2.59815
C    -0.01276    1.28991    3.76606
C     0.57586   -0.01163    3.63470
C     0.55454   -0.68992    2.42696
N    -0.00739    1.94821    4.94999
C     0.55444    1.31702    6.14244
C    -0.58576    3.28596    5.05249
C     0.01157   -0.10331   -1.25117
C     0.59915    1.19438   -1.38265
C     0.61757    1.86101   -2.59784
C     0.01278    1.29008   -3.76600
C    -0.57560   -0.01161   -3.63485
C    -0.55442   -0.68999   -2.42716
N     0.00765    1.94838   -4.94990
C    -0.55355    1.31704   -6.14259
C     0.58565    3.28632   -5.05217
C    -0.00011   -2.26972   -0.00004
C    -0.81683   -2.98664    0.91149
C    -0.82395   -4.38830    0.89706
C     0.00003   -5.09166   -0.00023
C     0.82406   -4.38811   -0.89732
C     0.81682   -2.98645   -0.91153
H    -1.11977    1.63191    0.52509
H    -1.13055    2.82256    2.65947
H     1.06356   -0.48285    4.48999
H     1.04211   -1.66673    2.35289
H     0.04549    0.36436    6.36533
H     1.63218    1.12336    6.02075
H     0.41710    1.99215    6.99623
H    -1.67188    3.26942    4.86575
H    -0.11267    3.97651    4.33481
H    -0.41252    3.66837    6.06610
H     1.11875    1.63217   -0.52468
H     1.12979    2.82299   -2.65898
H    -1.06295   -0.48289   -4.49030
H    -1.04171   -1.66695   -2.35333
H    -1.63129    1.12312   -6.02132
H    -0.41603    1.99220   -6.99632
H    -0.04427    0.36451   -6.36525
H     0.41266    3.66868   -6.06584
H     1.67171    3.27010   -4.86503
H     0.11208    3.97671   -4.33465
H     1.47302   -2.43362   -1.59093
H     1.47510   -4.93565   -1.58529
H    -0.00001   -6.18653   -0.00038
H    -1.47489   -4.93600    1.58501
H    -1.47295   -2.43399    1.59111
