16
Benzocyclobutene product 2p; SI p. S29; CASSCF(6,6)/6-31G(d); angstrom
C 0 0.685829316 0.445335057
C 0 -0.685829316 0.445335057
C 0 1.429924457 -0.740188202
C 0 0.706262252 -1.908081486
C 0 -0.706262252 -1.908081486
C 0 -1.429924457 -0.740188202
H 0 2.505492136 -0.753306863
H 0 1.219710648 -2.853689062
H 0 -1.219710648 -2.853689062
H 0 -2.505492136 -0.753306863
C 0 -0.7819752 1.994696792
C 0 0.7819752 1.994696792
H 0.88325553 1.236704425 2.428211482
H -0.88325553 1.236704425 2.428211482
H -0.88325553 -1.236704425 2.428211482
H 0.88325553 -1.236704425 2.428211482
