22
VERBATIM S15 planar triplet pi-pi-star/S0 singlet-triplet-crossing geometry (angstrom)
O 0.229035 -3.456189 0.000000
C 0.890236 1.389180 0.000000
C 2.238884 1.180647 0.000000
C 2.786424 -0.151720 0.000000
C 1.960409 -1.217533 0.000000
C 0.510122 -0.990241 0.000000
C -0.000006 0.220112 0.000000
C -0.388141 -2.121257 0.000000
C -1.477368 0.414030 0.000000
C -2.028268 1.861787 0.000000
C -1.110266 2.965922 0.000000
C 0.323514 2.734267 0.000000
C -1.690493 -2.022848 0.000000
C -2.283648 -0.623385 0.000000
H 2.907939 2.023061 0.000000
H 3.853402 -0.283846 0.000000
H 2.328354 -2.222752 0.000000
H -2.323911 -2.888982 0.000000
H -3.353279 -0.518606 0.000000
H -3.091518 1.999282 0.000000
H -1.482984 3.973046 0.000000
H 0.997346 3.570185 0.000000
