10
W1985891822-a p-benzyne singlet; verbatim SI Gaussian 94 archive CASSCF(6,6)/3-21G geometry
C  0.0000000000  0.0000000000  1.3424680767
C  0.0000000000  0.0000000000 -1.3424680767
C  0.0000000000  1.2112708940  0.7100253893
C  0.0000000000 -1.2112708940 -0.7100253893
C  0.0000000000 -1.2112708940  0.7100253893
C  0.0000000000  1.2112708940 -0.7100253893
H  0.0000000000  2.1394434172  1.2430844704
H  0.0000000000 -2.1394434172 -1.2430844704
H  0.0000000000 -2.1394434172  1.2430844704
H  0.0000000000  2.1394434172 -1.2430844704
