41
VERBATIM SOURCE COORDINATES: Table S7, MP2/cc-pVDZ ground-state geometry, DOI 10.1021/jp212295s
C    -0.91637   -0.02573    1.28127
C     0.40814    0.47857    1.42823
C     1.01811    0.52522    2.67105
C     0.34429    0.05864    3.84769
C    -0.99725   -0.42358    3.69456
C    -1.60861   -0.45135    2.45424
N     0.94407    0.08493    5.05940
C     2.31535    0.56830    5.19161
C     0.21516   -0.33358    6.25616
C    -1.56699   -0.05336    0.01549
O    -2.90053   -0.09043    0.05847
C    -0.90688   -0.02784   -1.26225
C    -1.55008    0.55573   -2.39069
C    -0.94519    0.56877   -3.63984
C     0.33435   -0.03765   -3.84573
C     0.96144   -0.64844   -2.71249
C     0.36372   -0.63355   -1.45931
N     0.92427   -0.03763   -5.06687
C     0.24023    0.54936   -6.21590
C     2.24035   -0.64038   -5.24437
H     0.92805    0.89826    0.56259
H     2.01672    0.95548    2.74456
H    -1.55370   -0.78402    4.56103
H    -2.62642   -0.83598    2.36398
H     2.39189    1.63819    4.93047
H     2.99682   -0.00761    4.54491
H     2.63439    0.43960    6.23310
H     0.86787   -0.20926    7.12806
H    -0.08069   -1.39427    6.19038
H    -0.68625    0.28203    6.40589
H    -2.50454    1.07958   -2.27012
H    -1.45799    1.06767   -4.46383
H     1.91644   -1.16216   -2.82461
H     0.84594   -1.15883   -0.62976
H    -0.72879    0.05628   -6.39559
H     0.86532    0.41365   -7.10647
H     0.06979    1.63053   -6.07221
H     2.21879   -1.72533   -5.03990
H     2.55923   -0.48958   -6.28312
H     2.98320   -0.16818   -4.58049
H    -3.22876   -0.30863   -0.83276
