21
VERBATIM official SI Table S6, 1(npi*)-P, CAS(8,7)/6-311G(d,p) optimized Cartesian coordinates in angstrom
O 0.014658 -0.019605 -0.021253
C 0.005575 -0.008447 1.328335
C 1.342691 0.005609 2.060219
C 1.738837 -1.459421 1.876248
C 0.610539 -2.185665 1.877633
C -0.561894 -1.220879 2.058090
C 0.830320 0.144003 3.523597
C 0.384051 1.528175 3.921904
C -0.932751 1.604089 4.133462
C -0.498279 -0.694665 3.517902
C -1.632515 0.284818 3.911386
H 2.068927 0.745500 1.752775
H 2.748347 -1.825272 1.852608
H -2.385845 0.366871 3.131350
H -2.148566 -0.045553 4.809215
H -0.454801 -1.525279 4.210795
H 1.572168 -0.243931 4.213879
H 1.071146 2.351228 4.014620
H -1.531586 -1.580854 1.742591
H 0.525803 -3.256107 1.853831
H -1.459692 2.497518 4.419142
