10
W1985891822-j protonated azaenediyne precursor; verbatim SI Gaussian 94 archive CASSCF(6,6)/3-21G geometry
C  1.2477530317  0.6735298088  0.0000000000
C -1.1739084461 -0.8541955878  0.0000000000
N  0.0000000000  1.2118863888  0.0000000000
C -1.3029909534 -2.0497181415  0.0000000000
C  2.3680297799  0.2653105125  0.0000000000
C -1.1159780127  0.5318407053  0.0000000000
H -1.4083359345 -3.1012064169  0.0000000000
H  3.3560983814 -0.1010901974  0.0000000000
H -2.0271889939  1.0981657571  0.0000000000
H -0.0580058492  2.2203223514  0.0000000000
