9
W1985891822-f azaenediyne Bergman-cyclization TS; verbatim SI Gaussian 94 archive CASSCF(6,6)/3-21G geometry
C  0.0000000000  1.3194912777  0.0000000000
C -0.0715923770 -1.3637696768  0.0000000000
N -1.1856813368  0.7254518041  0.0000000000
C  1.1420113405 -1.0040817290  0.0000000000
C  1.2181159982  0.9709523752  0.0000000000
C -1.2567636976 -0.5935797917  0.0000000000
H  2.1339230799 -1.3792604283  0.0000000000
H  2.2044756204  1.3587351561  0.0000000000
H -2.2292569273 -1.0317120886  0.0000000000
