21
VERBATIM official SI Table S21, 3(npi*)-INT, CAS(10,9)/6-311G(d,p) optimized Cartesian coordinates in angstrom
O -0.013066 0.471953 -0.072316
C 0.095827 0.129283 1.221524
C 1.199077 -0.194934 1.907620
C 0.779108 -0.498457 3.293832
C -0.551927 -0.345448 3.409734
C -1.151578 0.059997 2.079609
C -2.187868 3.099525 3.749232
C -3.296506 2.268837 3.864148
C -3.240415 1.237516 2.935025
C -1.995753 1.353667 2.081035
C -1.271779 2.606989 2.654435
H 2.199223 -0.234626 1.528533
H 1.453751 -0.796565 4.073438
H -0.288269 2.359919 3.043658
H -1.123490 3.361987 1.887458
H -2.287669 1.540898 1.050851
H -3.980221 0.470250 2.803273
H -4.091523 2.406493 4.574228
H -1.778874 -0.750168 1.706252
H -1.134913 -0.495080 4.296333
H -1.985964 3.962064 4.354871
