16
VERBATIM 7H-keto-amino guanine Min(2) CASSCF optimized geometry from SI Table SI3 (atomic units)
N  -1.309816615 -0.997570998 -2.957926312
C   1.053163534  0.213756719 -2.900037934
N   2.781231890 -0.955092446 -1.122751612
C   1.823952782 -0.306849113  1.027142908
C  -0.733368578  0.724399490  1.095276264
C  -2.587813826 -0.224575910 -0.757395765
N  -1.203863598  1.045871714  3.657937227
C   0.903547903  0.155216192  4.908499496
N   2.715353479 -0.659464309  3.489978796
N   2.103137598  1.102716699 -5.114420954
O  -4.848429417 -0.297230035 -0.483468534
H  -2.896237562  1.293774312  4.431756236
H   0.998889290  0.203880468  6.933808500
H   3.921135836  1.568688341 -4.921605667
H   1.100506931  2.453216966 -5.970720799
H  -2.316259785 -1.056388916 -4.550311724
