23
VERBATIM official ACS SI Cartesian coordinates in angstroms; source block 7; butyrophenone S1 equilibrium; DOI 10.1021/jp037735l
C -1.579127 0.000000 1.416153
C -1.584415 0.000000 2.801841
C -0.381383 0.000000 3.523955
C 0.837844 0.000000 2.828380
C 0.863975 0.000000 1.443214
C -0.349028 0.000000 0.687980
H -2.510993 0.000000 0.881741
H -2.523194 0.000000 3.326540
H -0.392552 0.000000 4.598495
H 1.764460 0.000000 3.374377
H 1.809896 0.000000 0.934606
C -0.333375 0.000000 -0.715048
O -1.526820 0.000000 -1.373203
C 0.882817 0.000000 -1.610595
H 1.493399 0.869545 -1.376196
H 1.493399 -0.869545 -1.376196
C 0.569833 0.000000 -3.111819
H -0.029315 0.870655 -3.360721
H -0.029315 -0.870655 -3.360721
C 1.844273 0.000000 -3.954441
H 1.608563 0.000000 -5.013489
H 2.450868 -0.877763 -3.750267
H 2.450868 0.877763 -3.750267
