23
VERBATIM official ACS SI Cartesian coordinates in angstroms; source block 17; triplet 1,4-biradical 3BR14-1; DOI 10.1021/jp037735l
C -1.484848 1.208894 0.094910
C -2.834312 0.967541 0.329142
C -3.339023 -0.331038 0.300257
C -2.464940 -1.393615 0.031937
C -1.136740 -1.169473 -0.202862
C -0.593229 0.142252 -0.182663
H -1.105339 2.210867 0.118870
H -3.491106 1.794497 0.534197
H -4.381648 -0.518689 0.481941
H -2.842211 -2.401128 0.011462
H -0.499827 -2.012008 -0.397391
C 0.786699 0.397336 -0.418293
O 1.174136 1.707961 -0.403144
H 2.054675 1.781511 -0.061088
C 1.837439 -0.610253 -0.795610
H 1.374826 -1.500801 -1.200755
H 2.433987 -0.187315 -1.601881
C 2.770657 -1.020128 0.361815
H 2.174489 -1.393877 1.188178
H 3.388731 -1.853501 0.024262
C 3.660778 0.093260 0.838093
H 3.984999 0.121405 1.862434
H 4.300445 0.586683 0.124574
