12
VERBATIM ACS SI coordinates: keteniminium cation + formaldimine beta-lactam product, CASSCF(8,7)/aug-cc-pVDZ, DOI 10.1021/jo026188h
C            0.498185   -0.087187   -0.004606
C           -0.313766    1.179921    0.069955
N           -0.552387   -0.894763    0.063362
N            1.782684   -0.331643   -0.100574
C           -1.553830    0.189864    0.150352
H           -0.265814    1.795378   -0.822963
H           -0.133876    1.773686    0.960765
H           -0.618725   -1.894018    0.058224
H            2.432113    0.424038   -0.143320
H            2.148048   -1.260067   -0.140425
H           -2.093559    0.188619    1.089965
H           -2.226413    0.209331   -0.699005
