10
W1985891822-m protonated pyridinium-to-nitrile ring-opening TS; verbatim SI Gaussian 94 archive CASSCF(6,6)/3-21G geometry
C  0.0000591791  1.3217121123  0.0000000000
C  0.0131506872 -1.3627889199  0.0000000000
N -1.1328725874  0.8642140982  0.0000000000
C  1.2400478429 -0.6744762323  0.0000000000
C  1.2537477158  0.7066891875  0.0000000000
C -1.1949673131 -0.9967500103  0.0000000000
H  2.1712947050 -1.2044754518  0.0000000000
H  2.1610329285  1.2680806173  0.0000000000
H -2.2073175858 -1.3176401008  0.0000000000
H -2.0671306075  1.2382194239  0.0000000000
