17
VERBATIM ACS SI Cartesian coordinates; SOURCE UNITS UNSTATED; gauche-in biradical 12; CAS(8,8)/6-31G* E=-270.86340 Eh; DOI 10.1021/ja983480r
C -0.558542 0.298142 0.490075
H -0.747126 0.401371 1.555819
H 0.519105 0.218070 0.375749
C -1.120615 1.472417 -0.274182
C -1.290385 -0.942722 -0.100242
C -2.111792 1.042451 -1.164530
C -2.258892 -0.348195 -1.097912
C -3.034668 -1.209169 1.807193
C -1.972887 -1.868197 0.978775
H -0.816530 2.489281 -0.118308
H -0.575048 -1.572789 -0.625274
H -2.675430 1.690216 -1.810953
H -2.942479 -0.935312 -1.682666
H -3.972102 -0.938497 1.356835
H -2.400768 -2.718956 0.452647
H -2.780914 -0.710402 2.724334
H -1.192484 -2.261493 1.624663
