21
VERBATIM official SI Table S1, S0-R, CAS(8,7)/6-311G(d,p) optimized Cartesian coordinates in angstrom
C 0.735863 -1.166510 0.317783
C -0.301308 -0.508210 -0.636039
C 2.078240 -1.062977 -0.397574
C 2.440369 0.229385 -0.383022
C 1.339656 0.999715 0.338819
C 0.916025 -0.059040 1.373078
C 0.118435 0.990584 -0.632115
C -1.735062 -0.515770 -0.114157
C -1.115798 1.715718 -0.142608
C -2.140106 0.892516 0.124207
O -2.405596 -1.492812 0.074699
H -3.114117 1.165587 0.484798
H -1.142276 2.785495 -0.030454
H 0.009294 0.188519 1.913157
H 1.701857 -0.284443 2.083534
H 0.450371 -2.148784 0.667343
H 2.561528 -1.868771 -0.918339
H 3.275329 0.677126 -0.889595
H -0.286531 -0.962858 -1.619560
H 0.405251 1.358154 -1.611557
H 1.611882 1.978827 0.712424
