10
W1985891822-c parent enediyne Bergman-cyclization TS; verbatim SI Gaussian 94 archive CASSCF(6,6)/3-21G geometry
C  0.0000000000  1.3704804336  0.0079463461
C  0.0000000000 -1.3704804336  0.0079463461
C  0.0000000000  0.9760000000  1.2083093410
C  0.0000000000 -0.6860902399 -1.2260008249
C  0.0000000000  0.6860902399 -1.2260008249
C  0.0000000000 -0.9760000000  1.2083093410
H  0.0000000000  1.3103546170  2.2143229018
H  0.0000000000 -1.2151609388 -2.1558520754
H  0.0000000000  1.2151609388 -2.1558520754
H  0.0000000000 -1.3103546170  2.2143229018
