21
VERBATIM official SI Table S24, 1(npi*)/3(npi*)-SC, CAS(10,9)/6-311G(d,p) optimized Cartesian coordinates in angstrom
O 0.2007206528 0.7833928056 0.0122168773
C 0.1832354540 0.2547613443 1.2507496831
C 1.2392200153 -0.1621859026 1.9646902951
C 0.7240514100 -0.6458839067 3.2665116476
C -0.6119218363 -0.5109078527 3.2937342138
C -1.1265630744 0.0564356365 1.9928756885
C -2.2463182704 3.2491069312 3.5649614708
C -3.2771367767 2.3639838705 3.8980280901
C -3.1512791364 1.1724273534 3.2088266307
C -2.0297528842 1.2969850433 2.1718057367
C -1.2923748405 2.5907109051 2.6008404396
H 2.2668572976 -0.1466452940 1.6584652269
H 1.3452242001 -1.0299162625 4.0527819553
H -0.3478024524 2.3669968724 3.0926142212
H -1.0567613020 3.2114404575 1.7399594366
H -2.5197319067 1.4873961190 1.2239388981
H -3.8492117362 0.3560239508 3.2374487833
H -4.0525935069 2.5756209885 4.6116494018
H -1.6993802341 -0.7122471211 1.4751241308
H -1.2771335959 -0.7481891259 4.1038922776
H -2.0741774653 4.2047931775 4.0216538696
