10
VERBATIM ACS SI coordinates: ketene + formaldimine TS Cis (TS gauche in main text), CASSCF(8,7)/aug-cc-pVDZ, DOI 10.1021/jo026188h
C             0.000000    0.000000    0.000000
C             0.000000    0.000000    1.352171
O             0.694433    0.000000    2.330773
H             0.951074    0.040809   -0.505597
H            -0.902849   -0.099168   -0.574415
N            -1.647423   -0.054738    1.916405
C            -2.677561    0.554945    1.494884
H            -1.699639   -0.523252    2.804949
H            -2.618304    1.104718    0.567040
H            -3.608896    0.535432    2.046413
