17
diradical 7, CASSCF(4,4)/6-31G*; verbatim official SI Cartesian block; E = -270.790484 NIMAG = 0
C 0.319668 -0.276362 -0.205590
C -0.595809 -1.200833 0.082847
C -2.015398 -0.719961 0.159532
C -1.797661 0.815589 0.209488
C -0.380390 1.065653 -0.361654
C 1.801874 -0.470715 -0.436063
C 2.679159 0.265213 0.539601
H -1.829165 1.143495 1.242874
H -2.565987 1.360597 -0.326740
H -2.577152 -1.023430 -0.719882
H -2.550878 -1.088735 1.027107
H -0.414350 1.348506 -1.412477
H 0.130674 1.867298 0.163026
H 2.024043 -1.531823 -0.392083
H 2.041150 -0.142346 -1.445724
H 2.886000 1.310156 0.395605
H 2.786997 -0.115227 1.539323
