21
VERBATIM official SI Table S5, S0-P, CAS(8,7)/6-311G(d,p) optimized Cartesian coordinates in angstrom
C 0.439066 -0.616333 0.944387
C -0.751289 0.370450 1.106905
C 0.356826 -1.020531 -0.575962
C 1.688886 -0.588800 -1.136183
C 2.479060 -0.028653 -0.216034
C 1.837563 0.019994 1.149894
C -2.031547 -0.420349 0.888426
C -0.701079 1.058136 -0.259769
C -2.098914 -0.758686 -0.411507
C -0.863281 -0.207349 -1.104369
O -0.572231 2.199878 -0.562949
H -2.851225 -1.359706 -0.886307
H -2.719823 -0.694752 1.665413
H -0.713911 1.009162 1.977439
H -0.914005 -0.077058 -2.175613
H 0.189625 -2.082363 -0.719432
H 1.945802 -0.715461 -2.173249
H 3.464280 0.359055 -0.405876
H 1.769489 1.041512 1.516277
H 2.420967 -0.534206 1.880229
H 0.306981 -1.471443 1.593910
