17
Cyclopentyne plus ethylene capture TS 1ab; SI pp. S4-S5; CASSCF(6,6)/6-31G(d); angstrom
C -0.154768151 -0.239346745 0.15009996
C -2.225202721 -0.443005381 0.44813246
C -2.887751093 0.282438538 -0.525156971
C 0.657556305 -1.18932386 -0.096840018
C 2.107138699 -0.775403305 -0.1129077
C 1.958743991 0.779102776 -0.182299283
C 0.514988831 1.098764855 0.323012655
H 2.609193116 -1.09478561 0.795129505
H 2.672130923 -1.170134567 -0.948962369
H 2.729225796 1.30229561 0.375166981
H 2.045692795 1.093272145 -1.217332888
H 0.509554629 1.402119873 1.366560036
H 0.04974576 1.896545903 -0.245696924
H -2.22265265 -1.515226556 0.384954508
H -2.181667029 -0.051202643 1.449391446
H -3.10345628 -0.147400372 -1.486148278
H -3.043863919 1.34097434 -0.421562122
