20
Heptamethine cyanine C3-C4 S1 transition state; SI p. 14; CASSCF(10,9)/6-31G* per main text; angstrom
N  4.734108 -0.368272 -0.398062
C  3.551108  0.201872 -0.347782
C  2.528245 -0.184437  0.547318
C  1.226991  0.500350  0.586666
C  0.065424 -0.137308  0.234213
C -1.226193  0.453112  0.261024
C -2.394521 -0.238763 -0.097956
C -3.651824  0.323123 -0.030533
N -4.791195 -0.290135 -0.401345
H  5.435787 -0.061648 -1.056367
H  4.991962 -1.132807  0.211087
H  3.379454  1.009600 -1.044056
H  2.707696 -1.023741  1.213508
H  1.193658  1.519370  0.916957
H  0.112419 -1.167184 -0.078395
H -1.316479  1.468068  0.590938
H -2.310675 -1.252457 -0.446628
H -3.773187  1.325679  0.317400
H -4.795745 -1.231812 -0.702586
H -5.667131  0.147191 -0.274948
