17
VERBATIM ACS SI Cartesian coordinates; SOURCE UNITS UNSTATED; transition state from gauche-in biradical to conical intersection 45; CAS(8,8)/6-31G* E=-270.74722 Eh; DOI 10.1021/ja983480r
C 1.083230 0.482415 0.423974
H 0.808463 0.263754 1.453683
H 1.816760 1.284003 0.471052
C -0.122292 0.885925 -0.381086
C 1.669334 -0.777033 -0.275424
C -0.423118 -0.106332 -1.421030
C 0.748004 -1.046899 -1.432458
C 0.562748 -2.500339 1.326693
C 1.832377 -2.017814 0.693969
H -0.800504 1.656948 -0.069624
H 2.670079 -0.560934 -0.644348
H -1.025074 0.100488 -2.285933
H 0.842054 -1.897776 -2.079785
H -0.207975 -2.936073 0.717707
H 2.280283 -2.821617 0.113658
H 0.272505 -2.160949 2.303485
H 2.550998 -1.749226 1.463242
