17
Cyclopentyne plus ethylene carbene intermediate 1c; SI p. S13; CASSCF(6,6)/6-31G(d); angstrom
C -0.611355146 -0.097643106 0.157394438
C -2.089378247 -0.285432025 0.542409446
C -1.803448905 0.168486314 -0.829760712
C 0.180700152 -1.258376152 -0.26185162
C 1.601177349 -0.763897885 -0.135006766
C 1.593723938 0.772973193 -0.022250717
C 0.252418069 1.053865049 0.666809272
H 1.926446618 -1.211399381 0.810252266
H 2.261250553 -1.163949906 -0.897055007
H 2.447323529 1.168530982 0.517407739
H 1.603165943 1.213958196 -1.015444623
H 0.360686894 0.989236501 1.747431323
H -0.150419079 2.035570111 0.440636619
H -2.426362159 -1.295151146 0.688215457
H -2.482326633 0.431466392 1.242612909
H -1.931104962 -0.523015579 -1.640980332
H -1.966623614 1.202031943 -1.079099102
