20
Heptamethine cyanine C2v S1 minimum; SI p. 13; CASSCF(10,9)/6-31G* per main text; angstrom
N  0.000000  4.898952 -0.242277
C  0.000000  3.717180  0.368593
C  0.000000  2.484703 -0.301262
C  0.000000  1.248874  0.378858
C  0.000000  0.000000 -0.286151
C  0.000000 -1.248874  0.378858
C  0.000000 -2.484703 -0.301262
C  0.000000 -3.717180  0.368593
N  0.000000 -4.898952 -0.242277
H  0.000000  5.749637  0.276009
H  0.000000  4.977387 -1.236753
H  0.000000  3.752164  1.441659
H  0.000000  2.489595 -1.377987
H  0.000000  1.256212  1.455771
H  0.000000  0.000000 -1.362892
H  0.000000 -1.256212  1.455771
H  0.000000 -2.489595 -1.377987
H  0.000000 -3.752164  1.441659
H  0.000000 -4.977387 -1.236753
H  0.000000 -5.749637  0.276009
