30
VERBATIM official ACS SI Gaussian 09 final wB97XD/6-311G(d,p) system 38 azirene-formation TS geometry used for the reported CAS(8,8) single point; angstrom; NImag=1; DOI 10.1021/jo401146k
C -1.702923 0.913861 0.563618
O -0.501441 3.395466 0.323428
N -1.566405 1.676474 1.515864
C -0.455444 1.138380 -0.257478
C 0.044149 2.632323 -0.479791
O 0.899083 2.738128 -1.346520
C 0.442300 0.174026 -0.413835
C -2.724692 -0.110540 0.263505
C -2.777224 -0.663322 -1.012077
C -3.635023 -0.498051 1.248008
C -3.749089 -1.610523 -1.304783
H -2.069512 -0.345462 -1.768880
C -4.597192 -1.447954 0.947504
H -3.581043 -0.059202 2.237281
C -4.654566 -2.003726 -0.327405
H -3.797919 -2.040118 -2.297999
H -5.304946 -1.755698 1.707771
H -5.410082 -2.745604 -0.558584
N 1.260959 -0.661826 -0.677299
C 2.589218 -0.814581 -0.234058
C 3.363113 0.312750 0.042907
C 3.113827 -2.098634 -0.132039
C 4.675020 0.136228 0.453827
H 2.940188 1.301588 -0.102583
C 4.422318 -2.258173 0.299870
H 2.492092 -2.949903 -0.380169
C 5.202000 -1.144265 0.591868
H 5.288527 1.003883 0.664506
H 4.837471 -3.254044 0.398209
H 6.227478 -1.273545 0.917370
