17
diradical-formation TS1-7, CASSCF(4,4)/6-31G*; verbatim official SI Cartesian block; E = -270.730420 NIMAG = 1
C 0.134978 -0.252204 -0.169950
C -0.672704 -1.180960 0.087177
C -2.120394 -0.774326 0.138187
C -1.968113 0.782101 0.180312
C -0.518879 1.094698 -0.317850
C 2.256135 -0.464596 -0.443635
C 2.897182 0.289321 0.517284
H -2.068908 1.117780 1.206834
H -2.731386 1.292313 -0.398164
H -2.651154 -1.110620 -0.747271
H -2.656554 -1.156502 0.998933
H -0.505632 1.422133 -1.354139
H -0.043890 1.873247 0.269354
H 2.235157 -1.533779 -0.345266
H 2.211416 -0.100242 -1.454829
H 3.062141 1.342939 0.381772
H 3.099575 -0.111468 1.493621
