40
VERBATIM SOURCE COORDINATES: Table S2, MP2/cc-pVDZ ground-state geometry, DOI 10.1021/jp212295s
C     1.52725    0.00002    0.00000
H     2.62639    0.00004    0.00000
C     0.92958   -0.04732    1.28148
C    -0.43209   -0.40627    1.53280
C    -0.94844   -0.40827    2.81614
C    -0.14364   -0.03587    3.94687
C     1.23740    0.26291    3.70405
C     1.75029    0.23526    2.42094
H    -1.05870   -0.76450    0.71244
H    -1.97807   -0.73454    2.96311
H     1.90187    0.50925    4.53329
H     2.80695    0.47177    2.26378
N    -0.65968   -0.00325    5.19465
C    -2.06694   -0.32302    5.42242
H    -2.29868   -0.15214    6.48080
H    -2.71662    0.32632    4.81433
H    -2.28339   -1.37796    5.18042
C     0.19457    0.30657    6.34127
H    -0.41599    0.28767    7.25150
H     1.00179   -0.43652    6.44571
H     0.63926    1.31032    6.23993
C     0.92958    0.04734   -1.28148
C    -0.43209    0.40628   -1.53280
C    -0.94844    0.40827   -2.81615
C    -0.14364    0.03586   -3.94686
C     1.23739   -0.26292   -3.70404
C     1.75028   -0.23527   -2.42093
H    -1.05870    0.76452   -0.71245
H    -1.97808    0.73452   -2.96311
H     1.90186   -0.50930   -4.53328
H     2.80694   -0.47177   -2.26377
N    -0.65968    0.00325   -5.19465
C    -2.06693    0.32303   -5.42243
H    -2.28338    1.37796   -5.18042
H    -2.29866    0.15216   -6.48081
H    -2.71662   -0.32632   -4.81435
C     0.19458   -0.30658   -6.34126
H     1.00180    0.43650   -6.44571
H    -0.41598   -0.28767   -7.25150
H     0.63926   -1.31033   -6.23993
