17
VERBATIM ACS SI Cartesian coordinates; SOURCE UNITS UNSTATED; gauche-in biradical on S1 44; CAS(8,8)/6-31G* E=-270.74815 Eh; DOI 10.1021/ja983480r
C -0.684001 0.363700 0.536930
H -1.145242 0.634365 1.486491
H 0.363792 0.164747 0.741475
C -0.886992 1.469240 -0.467849
C -1.402158 -0.864473 -0.074867
C -2.061972 1.147291 -1.289879
C -2.457551 -0.267146 -0.972619
C -2.964970 -1.390861 1.930494
C -1.936621 -1.910759 0.972026
H -0.535203 2.471396 -0.308151
H -0.684538 -1.400147 -0.699168
H -2.395728 1.708862 -2.139535
H -3.086158 -0.862307 -1.609231
H -3.944973 -1.131361 1.574189
H -2.353396 -2.744478 0.411092
H -2.671691 -0.981022 2.879209
H -1.084155 -2.300831 1.521416
