21
VERBATIM official SI Table S18, 1(npi*)-INT, CAS(10,9)/6-311G(d,p) optimized Cartesian coordinates in angstrom
O -0.024043 0.469189 -0.068500
C 0.092418 0.127635 1.222895
C 1.197459 -0.194020 1.907948
C 0.780760 -0.495678 3.295526
C -0.550211 -0.343393 3.414939
C -1.153252 0.059590 2.085564
C -2.185993 3.095512 3.751247
C -3.295525 2.267499 3.862225
C -3.241287 1.239512 2.927063
C -1.994457 1.353959 2.078384
C -1.271649 2.607492 2.652619
H 2.196503 -0.233292 1.526306
H 1.457233 -0.792952 4.073846
H -0.286356 2.361594 3.038007
H -1.127463 3.365161 1.887581
H -2.278900 1.537476 1.044877
H -3.982393 0.474114 2.791983
H -4.090561 2.403496 4.572616
H -1.781151 -0.751788 1.715617
H -1.129855 -0.493903 4.303443
H -1.984107 3.956897 4.358583
