22
VERBATIM S15 nonplanar triplet pi-pi-star/S0 singlet-triplet-crossing geometry (angstrom)
O -0.219351 -2.819672 1.850813
C 0.795336 1.380926 0.150121
C 2.206240 1.067633 -0.098149
C 2.583129 -0.191289 -0.394277
C 1.683551 -1.301222 -0.351618
C 0.318910 -1.087546 0.110453
C -0.103204 0.333018 0.188309
C -0.382596 -2.067913 0.933959
C -1.497910 0.514632 0.067869
C -2.014020 1.837336 0.108971
C -1.108476 2.906825 0.202247
C 0.268756 2.694751 0.192014
C -1.166647 -1.858146 -0.265851
C -2.126993 -0.731715 -0.250138
H 2.922431 1.869064 -0.112489
H 3.609577 -0.391731 -0.645547
H 2.049041 -2.297412 -0.511067
H -1.288850 -2.667578 -0.967743
H -3.115581 -0.826802 -0.654021
H -3.070154 2.021115 0.029988
H -1.485396 3.913191 0.230672
H 0.937987 3.536694 0.185603
