15
W1982051564 DBH RB3LYP/6-31G(d) geometry, verbatim official SI
C 0.196102 0.271114 1.098796
C 0.196102 -1.253740 0.778720
H 2.113506 0.417405 0.000000
C 0.196102 -1.253740 -0.778720
H 1.091594 -1.728738 1.191382
H -0.679094 -1.747635 1.208962
H -0.679094 -1.747635 -1.208962
C 0.196102 0.271114 -1.098796
H 1.091594 -1.728738 -1.191382
N -1.154279 0.733806 -0.625467
H 0.368486 0.544916 -2.139314
H 1.154405 1.931884 0.000000
N -1.154279 0.733806 0.625467
C 1.103930 0.838642 0.000000
H 0.368486 0.544916 2.139314
