21
VERBATIM official SI Table S4, 3(npi*)-R, CAS(8,7)/6-311G(d,p) optimized Cartesian coordinates in angstrom
C 0.728689 -1.158937 0.332443
C -0.304174 -0.501597 -0.634610
C 2.067493 -1.074267 -0.391538
C 2.439352 0.215495 -0.391467
C 1.351975 1.001347 0.332150
C 0.920392 -0.044108 1.375654
C 0.120678 1.011221 -0.625833
C -1.728720 -0.438925 -0.144636
C -1.102918 1.744206 -0.124141
C -2.144097 0.847537 0.134657
O -2.429093 -1.565658 0.017480
H -3.119138 1.108708 0.501241
H -1.159043 2.808923 -0.008551
H 0.015486 0.217876 1.909945
H 1.705329 -0.272668 2.086642
H 0.444209 -2.137107 0.696999
H 2.539691 -1.887392 -0.911458
H 3.273517 0.650239 -0.910903
H -0.260455 -0.957715 -1.618015
H 0.407556 1.365235 -1.610579
H 1.636578 1.979038 0.699344
