17
VERBATIM ACS SI Cartesian coordinates; SOURCE UNITS UNSTATED; CH2-inversion transition state between twisted biradicals 25; CAS(8,8)/6-31G* E=-270.86386 Eh; DOI 10.1021/ja983480r
C -0.501615 0.272092 0.458630
H -0.549794 0.320764 1.542707
H 0.553743 0.238881 0.198675
C -1.181736 1.453952 -0.190775
C -1.254087 -0.971824 -0.101360
C -2.157216 1.017927 -1.091893
C -2.234965 -0.382739 -1.089757
C -3.029088 -1.117587 1.755795
C -1.956233 -1.840486 0.998209
H -0.918273 2.476037 0.001326
H -0.554240 -1.628548 -0.611957
H -2.764450 1.665879 -1.697368
H -2.902238 -0.975100 -1.687260
H -3.273672 -0.094639 1.548759
H -2.376987 -2.719787 0.510647
H -3.479100 -1.574706 2.617224
H -1.197063 -2.218216 1.683514
