20
Heptamethine cyanine C4-C5-twisted S1 minimum; SI p. 15; CASSCF(10,9)/6-31G* per main text; angstrom
N  4.498122  0.150758  0.986827
C  3.573358  0.376767 -0.000093
C  2.283967 -0.122015  0.006702
C  1.318851  0.233916 -0.927279
C -0.029050 -0.338247 -0.970410
C -1.109785  0.205349 -0.276815
C -2.389670 -0.346013 -0.306914
C -3.448494  0.227541  0.443181
N -4.666043 -0.239679  0.475955
H  5.445494  0.219548  0.724786
H  4.319680 -0.591533  1.610005
H  3.866644  1.091033 -0.730323
H  2.042533 -0.842319  0.765648
H  1.576102  0.953559 -1.671558
H -0.186184 -1.229628 -1.572939
H -0.923459  1.087795  0.317449
H -2.580654 -1.230209 -0.902510
H -3.264663  1.110605  1.042374
H -4.945106 -1.061238 -0.044834
H -5.383745  0.203806  1.031201
