23
VERBATIM official ACS SI Gaussian 09 final wB97XD/6-311G(d,p) reactant geometry used for the reported CAS(8,8) single point; angstrom; DOI 10.1021/jo401146k
C -2.539484 0.788010 -0.000007
O -2.937597 -1.355764 0.000116
N -3.497445 -0.065177 0.000012
C -1.232816 0.145158 0.000025
C -0.059115 0.812270 0.000025
C -1.576419 -1.296871 0.000113
O -0.912653 -2.294837 0.000201
C -2.825457 2.249581 -0.000239
H -2.395186 2.727286 0.884029
H -2.397562 2.726431 -0.886135
H -3.903026 2.409480 0.001109
H -0.172320 1.896015 0.000031
C 1.335991 0.398025 0.000011
C 2.295377 1.424203 0.000239
C 1.775952 -0.934169 -0.000302
C 3.649210 1.136241 0.000216
H 1.968498 2.459186 0.000471
C 3.133447 -1.215592 -0.000290
H 1.052048 -1.737479 -0.000537
C 4.070891 -0.188870 -0.000033
H 4.374677 1.941104 0.000352
H 3.461533 -2.248400 -0.000452
H 5.129981 -0.420493 -0.000039
