17
VERBATIM ACS SI Cartesian coordinates; SOURCE UNITS UNSTATED; second-order saddle point on S1 38, CAS(6,6); CAS(6,6)/6-31G* E=-270.63283 Eh; DOI 10.1021/ja983480r
H 1.064560 1.410198 1.955543
C 0.527019 0.772874 1.286819
C 0.536201 -0.780622 1.284132
C -0.285353 1.141429 0.117164
H 1.077005 -1.414708 1.953685
C -0.272319 -1.154519 0.122913
H -1.955283 0.003688 -0.791538
H -0.634966 2.167022 0.132491
H 1.453152 1.195242 -1.238422
H -0.630718 -2.176763 0.132493
C 0.455011 0.776695 -1.211693
C -1.365957 0.020836 0.119753
H 1.456046 -1.195985 -1.245512
H -0.094966 1.174629 -2.061232
H -2.005189 0.020855 0.990337
C 0.457260 -0.779238 -1.210449
H -0.098964 -1.181631 -2.053366
