17
Cyclopentyne plus ethylene triplet biradical 1b; SI p. S7; UB3LYP/6-311G(d,p) geometry used for reported CAS(6,6) check; angstrom
C 0.337481151 -0.193137717 -0.276830114
C 1.824123201 -0.223526661 -0.509331629
C 2.623171441 0.262836259 0.657064788
C -0.523263379 -1.194602219 -0.233010047
C -1.967192004 -0.865543542 -0.043266722
C -1.856103178 0.64028559 0.36826804
C -0.446133284 1.10925815 -0.089968412
H -2.529202714 -1.000348145 -0.974989776
H -2.460894545 -1.470350425 0.721643124
H -2.660676843 1.243837443 -0.056693368
H -1.926956288 0.713577297 1.455834443
H -0.486428591 1.654813311 -1.042024881
H 0.02657454 1.775103828 0.638239276
H 2.111762729 -1.256242156 -0.763807545
H 2.066422175 0.378169298 -1.395629183
H 2.322219135 0.007700594 1.666030994
H 3.58467671 0.740319795 0.513841488
