17
VERBATIM ACS SI Cartesian coordinates; SOURCE UNITS UNSTATED; gauche-out biradical, methylene twisted 120 deg clockwise 16; CAS(8,8)/6-31G* E=-270.86448 Eh; DOI 10.1021/ja983480r
C 1.364734 0.574092 0.395983
H 1.264648 1.023749 1.380403
H 2.374168 0.172457 0.342428
C 1.124826 1.570242 -0.712147
C 0.306007 -0.542164 0.158503
C 0.175926 1.072061 -1.609590
C -0.304903 -0.171154 -1.174066
C -1.806803 -1.644621 1.133934
C -0.752658 -0.596515 1.321512
H 1.649375 2.501311 -0.805419
H 0.780097 -1.517980 0.109644
H -0.139102 1.571399 -2.507671
H -1.029829 -0.771477 -1.689318
H -2.261680 -2.102857 1.993094
H -1.205255 0.392290 1.404720
H -2.367998 -1.686043 0.218074
H -0.225157 -0.775785 2.254673
