43
fac-like (BQA)PtMe2I S0/S1 minimum-energy conical intersection; SI p. S10; CAS(14,12); source atomic numbers mapped to symbols; angstrom
C -0.809345 -3.035520 0.552958
C 0.596999 -3.189614 0.188793
C -1.731618 -3.929187 0.106603
C 1.030052 -4.368765 -0.411423
C -1.269016 -5.131374 -0.564325
H -2.779860 -3.808158 0.277619
C 0.056997 -5.371675 -0.759366
C 2.402370 -4.486788 -0.710493
C 2.721456 -2.257045 0.035756
H -1.996814 -5.856593 -0.869935
H 0.393709 -6.279645 -1.222703
C 3.249655 -3.442381 -0.478766
H 2.765736 -5.394284 -1.152849
H 3.317875 -1.375078 0.150871
H 4.289837 -3.495656 -0.725166
N -1.005613 -1.816418 1.243362
N 1.444463 -2.147202 0.372371
C -0.805653 -0.580921 3.227773
C 0.758536 1.155954 3.192431
C -1.206773 -0.246422 4.507677
C -1.432536 -1.707612 2.539154
C 0.420775 1.537324 4.490510
H 1.499297 1.678203 2.619464
C -0.560458 0.845430 5.137112
C -2.279768 -0.990643 5.123848
C -2.480820 -2.386570 3.120285
H 0.917188 2.371461 4.943102
H -0.854232 1.132545 6.128625
C -2.901844 -2.006463 4.443506
H -2.588938 -0.719018 6.121257
H -2.970612 -3.205315 2.622041
H -3.706755 -2.546810 4.909827
N 0.168178 0.139799 2.592646
I 2.953221 1.684602 -0.034942
C 0.039032 -0.337856 -1.774666
H -0.872353 -0.899287 -1.900159
H -0.039688 0.594481 -2.311170
H 0.868636 -0.900073 -2.176035
C -1.068881 1.477476 0.056144
H -0.845795 2.119108 -0.782089
H -1.091300 2.069760 0.956604
H -2.030045 1.014759 -0.092322
Pt 0.363870 -0.000958 0.242938
