17
VERBATIM ACS SI Cartesian coordinates; SOURCE UNITS UNSTATED; gauche-out biradical intermediate 10; CAS(8,8)/6-31G* E=-270.86502 Eh; DOI 10.1021/ja983480r
C 1.340493 0.594216 0.416814
H 1.176816 1.116445 1.356502
H 2.337741 0.165066 0.474049
C 1.209504 1.523492 -0.765187
C 0.265128 -0.506893 0.177705
C 0.235088 1.048448 -1.647025
C -0.334921 -0.135467 -1.156817
C -1.813758 -1.655627 1.196404
C -0.799823 -0.566287 1.347008
H 1.783819 2.421186 -0.887750
H 0.731978 -1.487068 0.127315
H -0.041060 1.525914 -2.569467
H -1.106728 -0.702387 -1.641595
H -2.672610 -1.514404 0.565670
H -1.290925 0.401163 1.403885
H -1.537857 -2.673122 1.409667
H -0.254193 -0.704686 2.276939
