12
VERBATIM ACS SI coordinates: keteniminium cation + formaldimine M Trans, CASSCF(8,7)/aug-cc-pVDZ, DOI 10.1021/jo026188h
C           -0.015423    0.018467   -0.003265
C           -0.002087   -0.001929    1.336913
N            1.076552    0.019279    2.227712
H            0.912462    0.027913   -0.551988
H           -0.933883    0.032515   -0.571661
H            1.579611   -0.847041    2.263631
H            1.711198    0.774805    2.056486
N           -1.312154   -0.019174    2.013318
C           -1.496273    0.020029    3.279352
H           -2.115818   -0.067013    1.410580
H           -0.638932    0.073001    3.929942
H           -2.505991    0.000592    3.659036
