17
VERBATIM ACS SI Cartesian coordinates; SOURCE UNITS UNSTATED; bicyclo/tricyclo interconversion transition state 32; CAS(6,6)/6-31G* E=-270.78599 Eh; DOI 10.1021/ja983480r
H 0.609206 -0.671818 -2.267416
C 0.620358 -0.322240 -1.246226
C -0.194751 0.969013 -0.973982
C -0.053398 -1.220417 -0.224131
H -0.540765 1.581642 -1.789753
C -0.042435 1.527331 0.309823
C -1.309501 -0.555767 -0.706684
C 0.288740 -0.833401 1.219519
H 0.022957 -2.283737 -0.406845
H -0.623208 2.376737 0.619989
C 0.679696 0.664105 1.311423
H -2.061818 -0.201976 -0.024535
H 0.556952 1.028737 2.325579
H 1.113853 -1.439589 1.582403
H -0.565163 -1.050117 1.856967
H 1.744048 0.724662 1.077011
H -1.721794 -0.946845 -1.621728
