16
Benzyne plus ethylene biradical minimum 2b; SI p. S19; CASSCF(6,6)/6-31G(d); angstrom
C 0.135525347 1.078157673 1.469888404
C -1.121533604 0.585424038 1.652002445
C 1.187934027 0.293607296 2.002729061
C 0.92279085 -0.877179776 2.65924084
C -0.400039907 -1.32955669 2.822273659
C -1.442337982 -0.593068257 2.319327707
H 2.205499938 0.629658144 1.894203994
H 1.732431064 -1.460231704 3.060896378
H -0.588520666 -2.252397834 3.341859488
H -2.4622403 -0.91295846 2.430187247
C 0.418299601 2.410096284 0.71135324
C 0.930008451 2.194898862 -0.680286469
H 0.236790381 1.926997979 -1.457256807
H 1.951532088 1.892210776 -0.827263741
H 1.139857175 2.978401575 1.290245231
H -0.498787764 2.986349094 0.686276923
