17
VERBATIM ACS SI Cartesian coordinates; SOURCE UNITS UNSTATED; anti fragmentation transition state 8; CAS(8,8)/6-31G* E=-270.85562 Eh; DOI 10.1021/ja983480r
C -0.445662 0.397282 -0.016848
H -0.845103 0.685269 0.947987
H 0.632397 0.544510 0.029465
C -1.023485 1.194314 -1.164162
C -0.753770 -1.056163 -0.404826
C -1.329919 0.356477 -2.202475
C -1.056070 -1.010567 -1.814124
C -2.108223 -1.786197 1.874910
C -2.324948 -1.562349 0.482706
H -1.122724 2.262741 -1.160991
H -0.058348 -1.805680 -0.066396
H -1.705532 0.659614 -3.162404
H -1.206900 -1.871501 -2.437678
H -1.996613 -0.958451 2.552973
H -2.949147 -0.714053 0.243423
H -1.726503 -2.731251 2.219795
H -2.620614 -2.441850 -0.068336
