16
Benzyne plus ethylene triplet biradical 2b; SI p. S20; UB3LYP/6-311G(d,p) geometry used for reported CAS(6,6) check; angstrom
C 0.573556362 0.180764241 -0.003342149
C -0.464724078 1.0449991 0.281967754
C 0.297194458 -1.176998906 0.23128678
C -0.943065798 -1.58544166 0.721835505
C -1.94511038 -0.654820768 0.989846639
C -1.704435486 0.70863231 0.763946985
H 1.069326689 -1.914342662 0.030216848
H -1.126143154 -2.639237606 0.899250291
H -2.90693179 -0.97742088 1.373969311
H -2.467209409 1.452413538 0.967105141
C 1.814242469 0.932761464 -2.036806391
C 1.908577916 0.653351711 -0.569343478
H 1.518015158 1.911808625 -2.392352893
H 1.815350068 0.114302525 -2.746810713
H 2.220783926 1.553156484 -0.031718256
H 2.659395728 -0.120164981 -0.376009592
