17
VERBATIM ACS SI Cartesian coordinates; SOURCE UNITS UNSTATED; third-order saddle point for C1-C6 cleavage 39; CAS(8,8)/6-31G* E=-270.64122 Eh; DOI 10.1021/ja983480r
C -1.347239 0.002520 0.129238
H -1.938582 0.093038 -0.774701
H -1.996854 -0.024136 0.994169
C -0.295237 1.126947 0.265581
C -0.332279 -1.162882 0.116237
C 0.578450 0.754848 1.320038
C 0.611235 -0.764370 1.192259
C 0.581092 0.586963 -1.304834
C 0.333017 -0.926019 -1.301235
H -0.563078 2.159711 0.103857
H -0.751988 -2.160186 0.208756
H 0.919374 1.356957 2.140682
H 1.249234 -1.423879 1.743521
H 1.601494 0.911411 -1.198557
H 1.263779 -1.472962 -1.391992
H 0.057061 1.160715 -2.055744
H -0.327501 -1.228214 -2.113676
