16
Pentamethine cyanine C2v S1 minimum; SI p. 10; CASSCF(8,7)/6-31G*; angstrom
N  0.000000  3.661982 -0.263078
C  0.000000  2.498508  0.389435
C  0.000000  1.243678 -0.266551
C  0.000000  0.000000  0.423268
C  0.000000 -1.243678 -0.266551
C  0.000000 -2.498508  0.389435
N  0.000000 -3.661982 -0.263078
H  0.000000  4.529859  0.227137
H  0.000000  3.708973 -1.259814
H  0.000000  2.561722  1.460396
H  0.000000  1.238563 -1.342824
H  0.000000  0.000000  1.499084
H  0.000000 -1.238563 -1.342824
H  0.000000 -2.561722  1.460396
H  0.000000 -4.529859  0.227137
H  0.000000 -3.708973 -1.259814
