43
VERBATIM SOURCE COORDINATES: Table S4, MP2/cc-pVDZ ground-state geometry, DOI 10.1021/jp212295s
C     1.71719    0.02078    0.00142
C     3.22271    0.03977    0.02541
C     1.01215    0.01018    1.24339
C    -0.30764   -0.53445    1.35024
C    -0.98218   -0.58125    2.55856
C    -0.39336   -0.06174    3.75767
C     0.94260    0.45016    3.66292
C     1.62095    0.46302    2.45741
H    -0.75838   -1.01012    0.47430
H    -1.96118   -1.06001    2.59028
H     1.44232    0.84666    4.54846
H     2.62894    0.88215    2.43884
N    -1.05664   -0.07609    4.93573
C    -2.42142   -0.58963    5.00419
H    -2.80900   -0.42356    6.01674
H    -3.07266   -0.05988    4.29055
H    -2.45716   -1.67161    4.78663
C    -0.40076    0.37641    6.16207
H    -1.09688    0.25398    6.99994
H     0.50278   -0.21863    6.37074
H    -0.12187    1.44152    6.09351
C     1.02447    0.02765   -1.24702
C    -0.27222    0.62173   -1.37652
C    -0.94197    0.65192   -2.58790
C    -0.38057    0.04966   -3.76181
C     0.92464   -0.53091   -3.64075
C     1.60829   -0.51250   -2.43813
H    -0.70000    1.15177   -0.52031
H    -1.89658    1.17597   -2.64229
H     1.39809   -1.00216   -4.50385
H     2.58597   -0.99724   -2.39294
N    -1.04154    0.04955   -4.94118
C    -2.37435    0.63787   -5.03702
H    -2.34849    1.72665   -4.85554
H    -2.76451    0.46127   -6.04675
H    -3.05984    0.17085   -4.31171
C    -0.41406   -0.49979   -6.14264
H     0.52382    0.02893   -6.37628
H    -1.10128   -0.37547   -6.98755
H    -0.19990   -1.57536   -6.02264
H     3.65420    0.04660   -0.98338
H     3.56399    0.96699    0.51909
H     3.62801   -0.80687    0.60330
