16
Benzyne plus ethylene concerted TS 2ac; SI p. S24; RB3LYP/6-311G(d,p) geometry used for CAS single points; angstrom
C 0.402589581 0.082837967 0
C -0.110176734 1.294021867 0
C -0.161527004 -1.187884976 0
C -1.554037485 -1.157821293 0
C -2.225482402 0.077835396 0
C -1.524568848 1.285917201 0
H 0.39421581 -2.119150606 0
H -2.113404627 -2.086703925 0
H -3.312321369 0.082731705 0
H -2.08906621 2.216451344 0
C 2.373968425 -0.029545962 0.68052529
C 2.373968425 -0.029545962 -0.68052529
H 2.407962664 0.895556339 -1.238071224
H 2.428123662 -0.949663308 -1.249150834
H 2.428123662 -0.949663308 1.249150834
H 2.407962664 0.895556339 1.238071224
