23
VERBATIM official ACS SI Cartesian coordinates in angstroms; source block 9; butyrophenone S2 equilibrium; DOI 10.1021/jp037735l
C -1.619936 0.000000 1.402162
C -1.617964 0.000000 2.836180
C -0.390069 0.000000 3.560289
C 0.839596 0.000000 2.839859
C 0.850792 0.000000 1.406384
C -0.384880 0.000000 0.657765
H -2.545276 0.000000 0.863549
H -2.553820 0.000000 3.361769
H -0.389803 0.000000 4.633144
H 1.773678 0.000000 3.368908
H 1.794241 0.000000 0.898080
C -0.439236 0.000000 -0.812213
O -1.516876 0.000000 -1.379689
C 0.856130 0.000000 -1.608995
H 1.444287 0.868449 -1.318646
H 1.444287 -0.868449 -1.318646
C 0.640036 0.000000 -3.120909
H 0.050695 0.866943 -3.399388
H 0.050695 -0.866943 -3.399388
C 1.960183 0.000000 -3.890662
H 1.784951 0.000000 -4.961762
H 2.556582 -0.877191 -3.654636
H 2.556582 0.877191 -3.654636
