16
VERBATIM 9H-keto-amino guanine MP2 ground-state minimum from SI Table SI1 (atomic units)
N  -1.479436243 -0.006044059 -2.800231536
C   1.085597064  0.020019143 -3.219528350
N   2.789591539  0.040941379 -1.411427448
C   1.689550951  0.002385711  0.932133551
C  -0.874151341  0.016526903  1.594421546
C  -2.744098568  0.009728327 -0.407830507
N  -1.195598557  0.004390709  4.186392854
C   1.154780750 -0.012656910  5.082273559
N   2.958253405 -0.012338394  3.199766878
N   1.842245645 -0.119018732 -5.736874974
O  -5.066002643 -0.005892880 -0.325680605
H   1.659455411 -0.025734014  7.061751690
H   4.857537171 -0.025954265  3.410620195
H   3.723816717  0.195742757 -5.898878258
H   0.824819472  0.965837944 -6.942129173
H  -2.666601030 -0.165954645 -4.298757776
