16
Benzyne plus ethylene biradical rotation TS; SI p. S20; CASSCF(6,6)/6-31G(d); angstrom
C 0.086105486 1.081943773 1.457175241
C -1.167478951 0.616702424 1.735585787
C 1.158678667 0.272029611 1.912057717
C 0.917898897 -0.895525153 2.581167137
C -0.399693819 -1.324130607 2.836361732
C -1.459501707 -0.565700591 2.413683739
H 2.171924439 0.586781989 1.728582952
H 1.742335951 -1.496517026 2.921594698
H -0.567888007 -2.245719881 3.365014673
H -2.475028096 -0.866262777 2.595851793
C 0.331283055 2.399610719 0.694661931
C 0.936098378 2.194222314 -0.66339784
H 1.106214987 3.035351279 -1.308392223
H 1.23568351 1.222625074 -1.003217312
H 0.977552037 3.03416408 1.300316095
H -0.613171827 2.93090377 0.607475878
