43
fac-(BQA)PtMe2I S0 minimum; SI p. S8; CASSCF(14,12); source atomic numbers mapped to symbols; angstrom
C -0.756373 -2.826393 0.379302
C 0.640931 -3.013469 0.087063
C -1.587542 -3.911068 0.275546
C 1.147176 -4.271210 -0.234305
C -1.075405 -5.197359 -0.064933
H -2.636274 -3.797376 0.442773
C 0.253538 -5.386479 -0.306447
C 2.530925 -4.374106 -0.478450
C 2.735997 -2.032142 -0.100543
H -1.757691 -6.020877 -0.132265
H 0.643456 -6.351299 -0.562995
C 3.323118 -3.267740 -0.402871
H 2.947847 -5.330198 -0.727441
H 3.314897 -1.134253 -0.067796
H 4.375843 -3.318902 -0.584890
N -1.159246 -1.529547 0.788530
N 1.448757 -1.921332 0.130921
C -0.810918 -0.542512 2.991742
C 1.077482 0.788355 3.210704
C -1.137615 -0.384611 4.335795
C -1.627854 -1.350055 2.115259
C 0.829976 0.971013 4.574809
H 1.911848 1.250387 2.728464
C -0.276496 0.394740 5.128420
C -2.324698 -1.009853 4.846027
C -2.765481 -1.909141 2.630156
H 1.499602 1.569092 5.156083
H -0.503059 0.532815 6.167432
C -3.110503 -1.739654 4.006631
H -2.579350 -0.878639 5.878777
H -3.413908 -2.477054 1.999395
H -4.008115 -2.198209 4.370331
N 0.281263 0.060243 2.459288
I 2.204406 1.757484 -0.322418
C -0.234997 -0.333557 -1.763305
H -1.193620 -0.829902 -1.850509
H -0.270055 0.627918 -2.253380
H 0.538839 -0.936577 -2.223469
C -1.247551 1.390008 0.260824
H -1.128574 2.033199 -0.598270
H -1.140730 1.981451 1.162394
H -2.222432 0.918663 0.238797
Pt 0.191751 -0.094284 0.245692
