21
VERBATIM official SI Table S14, 3(pipi*)-TS1, CAS(10,9)/6-311G(d,p) optimized Cartesian coordinates in angstrom
C 0.731508 -1.141142 0.256794
C -0.346008 -0.474163 -0.648110
C 2.068207 -1.016010 -0.450038
C 2.503459 0.255130 -0.296733
C 1.513401 0.977699 0.526486
C 0.919046 -0.119185 1.390144
C -0.011779 1.023722 -0.768875
C -1.729301 -0.497478 0.006138
C -1.142641 1.779088 -0.363896
C -2.178253 0.849858 0.206456
O -2.322162 -1.513995 0.328902
H -3.117383 1.121744 0.645026
H -1.281912 2.830664 -0.510241
H 0.003294 0.157143 1.897907
H 1.634271 -0.473698 2.126933
H 0.447453 -2.141736 0.553400
H 2.498787 -1.771163 -1.081097
H 3.344286 0.706080 -0.790959
H -0.399530 -0.967302 -1.612820
H 0.547694 1.367114 -1.620037
H 1.720868 1.959085 0.919445
