17
VERBATIM ACS SI Cartesian coordinates; SOURCE UNITS UNSTATED; bicyclo[4.1.0]hept-2-ene 3a; CAS(6,6)/6-31G* E=-270.91745 Eh; DOI 10.1021/ja983480r
H 0.404153 -0.677494 -2.264657
C 0.062472 -0.322571 -1.307629
C 0.392520 1.120193 -0.987009
C 0.050245 -1.287584 -0.160248
H 0.572994 1.786409 -1.813509
C 0.431437 1.575398 0.274267
C -1.258918 -0.914464 -0.779041
C 0.489125 -0.783021 1.202456
H 0.395887 -2.284527 -0.381328
H 0.634603 2.616152 0.461680
C 0.143259 0.690763 1.464624
H -1.921061 -0.249599 -0.252973
H -0.905881 0.783079 1.737990
H 1.568254 -0.900890 1.264594
H 0.061972 -1.402190 1.986684
H 0.703573 1.037706 2.327965
H -1.758586 -1.650990 -1.384271
