17
VERBATIM ACS SI Cartesian coordinates; SOURCE UNITS UNSTATED; anti biradical on S1 41; CAS(8,8)/6-31G* E=-270.74949 Eh; DOI 10.1021/ja983480r
C -0.760105 0.480677 -0.003103
H -1.599100 0.971896 0.492653
H 0.072943 0.509524 0.691917
C -0.454816 1.167284 -1.309150
C -1.154505 -0.966298 -0.394002
C -1.114625 0.436892 -2.401513
C -1.636653 -0.844382 -1.817882
C -1.722617 -1.786538 1.975122
C -2.208447 -1.627111 0.566598
H -0.171336 2.201053 -1.372119
H -0.259343 -1.589686 -0.372875
H -0.933886 0.605387 -3.445190
H -1.944041 -1.687708 -2.407546
H -0.997328 -2.547443 2.203815
H -3.111319 -1.023245 0.547538
H -1.787475 -0.964831 2.665262
H -2.468857 -2.600289 0.157736
