17
VERBATIM ACS SI Cartesian coordinates; SOURCE UNITS UNSTATED; anti biradical intermediate 7; CAS(8,8)/6-31G* E=-270.86520 Eh; DOI 10.1021/ja983480r
C -0.554186 0.429797 -0.003480
H -1.137317 0.832267 0.819896
H 0.486440 0.471769 0.309035
C -0.774041 1.215141 -1.274678
C -0.980222 -1.024907 -0.360420
C -1.193550 0.366913 -2.301343
C -1.300358 -0.951545 -1.832043
C -1.926875 -1.727251 1.937304
C -2.221180 -1.538641 0.483276
H -0.613681 2.272450 -1.359381
H -0.165348 -1.719846 -0.177932
H -1.401673 0.679377 -3.308375
H -1.609253 -1.799901 -2.413753
H -1.338240 -2.571401 2.251621
H -3.033998 -0.830615 0.349185
H -1.943808 -0.886245 2.606951
H -2.544219 -2.482179 0.051397
