17
1,2-C-shift TS5-6, CASSCF(6,6)/6-31G*; verbatim official SI Cartesian block; E = -270.800398 NIMAG = 1
C 0.500075 0.250008 -0.471517
C 0.029938 -1.085621 -0.555145
C -1.445890 -0.966042 -0.180790
C -1.702072 0.438131 0.418818
C -0.539774 1.293823 -0.114249
C 1.959894 0.361326 -0.253519
C 1.408435 -0.580349 0.778712
H -1.995608 -1.093237 -1.112758
H -1.775997 -1.767023 0.472056
H -2.675267 0.842528 0.162167
H -1.652977 0.393745 1.503259
H -0.811651 1.834893 -1.018126
H -0.178517 2.029523 0.597546
H 2.597323 -0.098016 -0.988902
H 2.322184 1.316859 0.089220
H 1.783438 -1.579835 0.839415
H 1.123428 -0.147100 1.722263
