16
Pentamethine cyanine C2-C3 S1/S0 conical intersection; SI p. 11; SA-CASSCF(8,7)/6-31G*; angstrom
N  0.156084  0.578253  0.234453
C  0.082957 -0.257369  1.373688
C  1.291269 -0.322952  2.206528
C  1.685048  0.721569  3.048870
C  2.825433  0.690770  3.829707
C  3.175644  1.805282  4.651186
N  4.219270  1.840031  5.400175
H -0.706070  0.582003 -0.271566
H  0.881613  0.300233 -0.396310
H -0.863614 -0.221454  1.885129
H  1.921662 -1.196663  2.157625
H  1.066934  1.603179  3.072679
H  3.472589 -0.168653  3.833641
H  2.551209  2.680026  4.665298
H  4.435918  2.641110  5.965170
H  4.861851  1.068648  5.451026
