17
Cyclopentyne plus ethylene direct cyclization TS 1bp; SI pp. S8-S9; CASSCF(6,6)/6-31G(d); angstrom
C -0.3214776368 -0.250585848 0.2045314831
C -1.8446670448 -0.4130509643 0.4427882855
C -2.6989990978 0.2962767175 -0.5656531901
C 0.3886927735 -0.6031303148 -0.8667680856
C 1.8731389874 -0.4102992467 -0.7641404504
C 1.9628539354 0.4880239529 0.498140745
C 0.6332409121 0.2831223611 1.2631976115
H 2.380185238 -1.3613585315 -0.6239086317
H 2.3097690925 0.0612548692 -1.6373700056
H 2.8332279266 0.265010795 1.1044708557
H 2.0404630365 1.5247257936 0.1887918883
H 0.7405536669 -0.4391461297 2.070547983
H 0.2778759131 1.2056383572 1.7136519315
H -2.0805093126 -1.4731719686 0.4426633379
H -2.0700088721 -0.0428272147 1.4380313674
H -2.7847420787 -0.1111237915 -1.5569999444
H -2.853486639 1.3564704832 -0.4712350811
