17
VERBATIM ACS SI Cartesian coordinates; SOURCE UNITS UNSTATED; tricyclo[3.2.1.0^3,7]heptane 4a, CAS(8,8); CAS(8,8)/6-31G* E=-270.90406 Eh; DOI 10.1021/ja983480r
C 1.419720 0.367352 0.402141
H 1.412564 0.428458 1.487546
H 2.442290 0.464471 0.055152
C 0.487395 1.289762 -0.373722
C 0.710743 -0.852666 -0.247944
C -0.933926 0.806385 -0.293925
C 0.028644 0.103937 -1.246712
C -1.339495 -0.141521 0.870907
C -0.435502 -1.377055 0.671311
H 0.715608 2.299488 -0.668824
H 1.358009 -1.627937 -0.636156
H -1.675219 1.467090 -0.710158
H -0.086577 0.001044 -2.309987
H -2.392134 -0.394638 0.805422
H -0.975736 -2.169200 0.160447
H -1.179481 0.331515 1.834362
H -0.056961 -1.780390 1.605526
