28
VERBATIM official Figshare CAS(8,8)/6-311G(d,p) input Cartesian coordinates; system 29 phenyl-migration TS; angstrom; data DOI 10.6084/m9.figshare.682037.v1; article DOI 10.1021/jo401146k
C 0.48333871 1.36400611 -0.00021584
O -1.12877997 3.29485145 0.18574839
N 1.15248178 2.38131008 0.07731878
C -0.86281866 0.93926853 -0.02484403
C -1.31399695 -0.33611480 -0.14750326
C -1.77391658 2.24532815 0.13498198
O -2.97161859 1.97080158 0.18907797
S -3.03686552 -0.65302373 -0.15414854
C 1.95062149 0.81002608 -0.04672845
C 2.50341126 0.31399163 1.13984633
C 2.49946637 0.50092292 -1.29628857
C 3.57159187 -0.55961180 1.06365295
H 2.08283631 0.61790742 2.09073252
C 3.57070326 -0.37016334 -1.35682870
H 2.06865571 0.93603302 -2.18942322
C 4.09572034 -0.90400403 -0.18159026
H 4.00860600 -0.96351083 1.96846706
H 4.00351938 -0.63195845 -2.31417358
H 4.93754586 -1.58476738 -0.23517960
S -0.15962249 -1.70041275 -0.30992325
C -0.14078530 -2.24667831 1.42491450
H 0.26831529 -1.46522912 2.06511852
H -1.14124793 -2.51341862 1.76488776
H 0.50202345 -3.12650670 1.46474463
C -3.12725742 -2.43190430 -0.52771587
H -2.65357296 -2.68012112 -1.47533571
H -2.73262765 -3.06558861 0.26583589
H -4.20089961 -2.61265176 -0.61045282
