17
bicyclo[3.2.0]hept-1(5)-ene 6, CASSCF(6,6)/6-31G*; verbatim official SI Cartesian block; E = -270.875707 NIMAG = 0
C -0.187046 1.945588 0.000000
H -1.215621 2.289601 0.000000
H 0.442251 2.828365 0.000000
C 0.049806 1.061942 1.272486
C 0.049806 1.061942 -1.272486
C -0.021667 -0.308261 0.663068
C -0.021667 -0.308261 -0.663068
C 0.049806 -1.818187 0.806445
C 0.049806 -1.818187 -0.806445
H -0.695339 1.256476 2.037444
H -0.695339 1.256476 -2.037444
H 1.022369 1.252575 1.720256
H 1.022369 1.252575 -1.720256
H -0.805808 -2.303593 1.263417
H -0.805808 -2.303593 -1.263417
H 0.958937 -2.214171 1.246476
H 0.958937 -2.214171 -1.246476
