10
W1985891822-i protonated 2,5-didehydropyridinium singlet; verbatim SI Gaussian 94 archive CASSCF(6,6)/3-21G geometry
C  0.0000000000  1.3067368797  0.0000000000
C  0.0220631447 -1.3563509629  0.0000000000
N -1.1444137829  0.6606686733  0.0000000000
C  1.2337765050 -0.7008809331  0.0000000000
C  1.2263701393  0.7157025218  0.0000000000
C -1.1714968385 -0.7374572318  0.0000000000
H  2.1658034839 -1.2286731397  0.0000000000
H  2.1319280923  1.2819278106  0.0000000000
H -2.1308344596 -1.2060445980  0.0000000000
H -2.0202783393  1.1616075715  0.0000000000
