10
VERBATIM ACS SI coordinates: ketene + formaldimine TS trans, competing pathway 3/c, CASSCF(6,5)/aug-cc-pVDZ, DOI 10.1021/jo026188h
C       0.000000    0.000000    0.000000
C       0.000000    0.000000    1.447870
O      -0.696493    0.223854    2.343964
H       0.183790   -1.002579   -0.373838
H       0.733694    0.700624   -0.383736
C      -1.624613    0.547771   -0.651515
N      -1.474900    0.532972   -1.992630
H      -2.295103   -0.166168   -0.176297
H      -1.683836    1.538361   -0.213093
H      -1.700236   -0.382455   -2.355081
