42
VERBATIM SOURCE COORDINATES: Table S6, MP2/cc-pVDZ ground-state geometry, DOI 10.1021/jp212295s
C    -0.97420   -0.00892    1.26915
C     0.28124    0.63688    1.41487
C     0.92420    0.68105    2.64597
C     0.35845    0.05986    3.80400
C    -0.89863   -0.60266    3.64426
C    -1.54745   -0.62143    2.41614
N     0.98954    0.09295    5.00643
C     2.28560    0.74715    5.13337
C     0.37316   -0.52116    6.17782
C    -1.66632   -0.00005    0.00007
N    -3.00140    0.00068    0.00035
C    -0.97476    0.00795   -1.26932
C    -1.54749    0.62166   -2.41592
C    -0.89887    0.60273   -3.64414
C     0.35753   -0.06099   -3.80434
C     0.92290   -0.68308   -2.64661
C     0.28015   -0.63877   -1.41541
N     0.98821   -0.09466   -5.00697
C     0.37441    0.52438   -6.17710
C     2.28571   -0.74613   -5.13328
H     0.72313    1.15645    0.55935
H     1.87052    1.21760    2.71748
H    -1.35833   -1.12259    4.48657
H    -2.48339   -1.18249    2.32830
H     2.21830    1.82550    4.90489
H     3.02965    0.28885    4.46045
H     2.63749    0.63412    6.16634
H     1.01856   -0.35026    7.04775
H     0.25047   -1.61061    6.04521
H    -0.61305   -0.07616    6.38798
H    -3.51938    0.16731    0.85792
H    -3.51994   -0.16573   -0.85691
H    -2.48289    1.18357   -2.32772
H    -1.35790    1.12391   -4.48604
H     1.86902   -1.21996   -2.71833
H     0.72164   -1.15911   -0.56014
H    -0.61419    0.08474   -6.38697
H     1.01811    0.35082   -7.04777
H     0.25744    1.61436   -6.04323
H     2.22078   -1.82394   -4.90184
H     2.63624   -0.63544   -6.16696
H     3.02954   -0.28452   -4.46228
