9
W1985891822-h pyridyne-to-nitrile ring-opening TS; verbatim SI Gaussian 94 archive CASSCF(6,6)/3-21G geometry
C  0.0000641956  1.3160778483  0.0000000000
C -0.1126767525 -1.3372710521  0.0000000000
N -1.1478654073  0.8908610707  0.0000000000
C  1.1518683219 -0.7316595182  0.0000000000
C  1.2352732161  0.6499329923  0.0000000000
C -1.2602158395 -0.7377667466  0.0000000000
H  2.0511856647 -1.3119683112  0.0000000000
H  2.1748029021  1.1563867782  0.0000000000
H -2.2768095645 -1.0363271033  0.0000000000
