17
VERBATIM ACS SI Cartesian coordinates; SOURCE UNITS UNSTATED; tricyclo[3.2.1.0^3,7]heptane 4a, CAS(6,6); CAS(6,6)/6-31G* E=-270.88871 Eh; DOI 10.1021/ja983480r
H 1.656147 -0.030195 -1.619470
C 0.812924 0.031961 -0.956539
C -0.509570 0.817946 -1.064565
C 0.054993 -1.109233 -0.245036
H -0.811989 1.533637 -1.809247
C 0.487939 1.170961 0.004371
C -1.292150 -0.466124 -0.670348
C 0.313547 -0.898341 1.249688
H 0.220313 -2.122163 -0.588258
H 0.992977 2.112303 -0.130872
C 0.279023 0.639873 1.420061
H -2.066036 -0.378971 0.087453
H -0.663053 0.979233 1.839699
H 1.294647 -1.284828 1.512413
H -0.417068 -1.406713 1.871856
H 1.064818 0.985457 2.083654
H -1.708547 -0.944201 -1.549291
