16
Benzyne plus ethylene capture TS 2ab; SI p. S18; CASSCF(6,6)/6-31G(d); angstrom
C 0.114762656 0.53072194 1.437586138
C -1.012772924 0.295323886 2.024350073
C 1.150045873 -0.424362725 1.405047233
C 0.897769093 -1.603541839 2.048979152
C -0.340585609 -1.836352168 2.704874664
C -1.327015853 -0.887685126 2.712046841
H 2.087735361 -0.243596073 0.909735769
H 1.646742471 -2.375889788 2.065011347
H -0.499547013 -2.780229511 3.196947917
H -2.269191936 -1.055668952 3.200154469
C 0.510429333 2.334217169 0.626436134
C 0.801360731 2.165848535 -0.725548659
H 0.017229495 2.142812456 -1.459849958
H 1.774560362 1.843172948 -1.04852952
H 1.323291814 2.56058522 1.29527535
H -0.413537833 2.817955528 0.884575151
