21
VERBATIM official SI Table S16, 3(pipi*)-TS2, CAS(10,9)/6-311G(d,p) optimized Cartesian coordinates in angstrom
C 0.464868 -0.627560 0.956809
C -0.763875 0.324463 1.080050
C 0.492660 -1.173199 -0.493485
C 1.741311 -0.850059 -1.071539
C 2.396734 0.242598 -0.271657
C 1.834984 0.097007 1.126365
C -2.027212 -0.483394 0.869116
C -0.701157 1.055896 -0.256794
C -2.175060 -0.716057 -0.455529
C -1.072317 -0.060212 -1.179965
O -0.387658 2.182569 -0.495413
H -2.920580 -1.339219 -0.912509
H -2.631985 -0.883021 1.660723
H -0.738275 0.951802 1.960108
H -1.061186 0.061774 -2.247781
H 0.058537 -2.134661 -0.700868
H 2.106607 -1.232997 -2.004835
H 2.492642 1.228675 -0.699792
H 1.738146 1.047623 1.638514
H 2.494819 -0.528667 1.723530
H 0.368437 -1.431490 1.676413
