17
VERBATIM ACS SI Cartesian coordinates; SOURCE UNITS UNSTATED; gauche-out biradical on S1 43; CAS(8,8)/6-31G* E=-270.74952 Eh; DOI 10.1021/ja983480r
C 1.225164 0.700586 0.444216
H 0.836438 1.429020 1.157740
H 2.132167 0.291181 0.878656
C 1.457538 1.355337 -0.892477
C 0.158285 -0.391057 0.176884
C 0.285337 1.115146 -1.746537
C -0.573485 0.101270 -1.046738
C -1.735330 -1.788399 1.217719
C -0.759580 -0.670336 1.421994
H 2.134006 2.177823 -1.029923
H 0.668350 -1.324432 -0.065764
H 0.211982 1.377731 -2.783125
H -1.349265 -0.457371 -1.534858
H -2.671992 -1.605200 0.723489
H -1.288879 0.246286 1.666267
H -1.389571 -2.806771 1.231428
H -0.112476 -0.900825 2.265146
