16
VERBATIM 7H-keto-amino guanine CI32(2) CASSCF optimized geometry from SI Table SI3 (atomic units)
N  -1.321171826 -1.031235456 -2.946861973
C   1.030548791  0.282344409 -2.862230127
N   2.791502581 -0.997495737 -1.089369633
C   1.849041263 -0.347328096  0.993047139
C  -0.723213669  0.745820344  1.083935482
C  -2.600128731 -0.248092281 -0.796294754
N  -1.189114218  1.133797341  3.601737091
C   0.901593541  0.161733662  4.899559349
N   2.678830204 -0.710708879  3.513895412
N   2.117129045  1.132509452 -5.106110946
O  -4.840157166 -0.325982806 -0.460772728
H  -2.894650673  1.329904160  4.374117390
H   0.961657544  0.219240445  6.919606261
H   3.926546309  1.582496596 -4.885861774
H   1.122752541  2.527802054 -5.900268270
H  -2.298757359 -1.079518175 -4.556591292
