17
VERBATIM ACS SI Cartesian coordinates; SOURCE UNITS UNSTATED; S1 C4-C7 cleavage transition structure 48; CAS(6,6) single point at CAS(4,4) geometry; CAS(6,6)/6-31G* E=-270.62764 Eh; DOI 10.1021/ja983480r
H 0.995057 1.354836 1.973100
C 0.413583 1.935555 1.292570
C -1.093697 2.132711 1.307439
C 0.893364 2.699583 0.085193
H -1.808994 1.615929 1.921119
C -1.424838 2.910209 0.173229
C 0.001828 3.925011 0.145525
C 0.477634 2.056725 -1.245368
H 1.957479 2.890764 0.188520
H -2.424194 3.324955 0.154087
C -1.066658 2.199923 -1.197427
H -0.148575 4.505675 -0.757921
H -1.447012 2.835967 -1.989182
H 0.787413 1.021262 -1.297246
H 0.889606 2.581613 -2.105595
H -1.587131 1.252427 -1.263807
H 0.112936 4.541288 1.021343
