22
VERBATIM S15 nonplanar triplet n-pi-star/S0 singlet-triplet-crossing geometry (angstrom)
O -0.069413 -3.293834 0.888204
C 0.814244 1.323590 -0.165106
C 2.215634 1.102277 -0.210721
C 2.736622 -0.145736 -0.058680
C 1.890828 -1.248431 0.165485
C 0.515834 -1.075551 0.161613
C -0.046468 0.210970 -0.047713
C -0.401277 -2.252605 0.339763
C -1.519941 0.422215 0.022521
C -1.989112 1.798750 0.195178
C -1.118491 2.852557 0.088363
C 0.262434 2.644764 -0.150894
C -1.685585 -1.956184 -0.356373
C -2.307814 -0.650526 0.039034
H 2.867788 1.947562 -0.343535
H 3.801405 -0.292039 -0.083699
H 2.297386 -2.227178 0.335473
H -1.521003 -2.026525 -1.427599
H -3.345840 -0.607718 0.314729
H -3.037149 1.961230 0.366826
H -1.486543 3.859263 0.170364
H 0.922244 3.487309 -0.243114
