17
diradical-formation TS1-7, CASSCF(6,6)/6-31G*; verbatim official SI Cartesian block; E = -270.770486 NIMAG = 1
C -0.150634 -0.228282 -0.140939
C 0.661231 -1.195994 0.024803
C 2.091090 -0.776942 0.252298
C 0.496260 1.127777 -0.031398
C 2.009517 0.744256 -0.101855
C -2.912034 0.227216 0.483288
C -2.207197 -0.402584 -0.526872
H 2.378831 -0.939111 1.286338
H 2.809256 -1.302048 -0.366317
H 2.632786 1.360882 0.537978
H 2.360357 0.886157 -1.118908
H 0.238330 1.600485 0.912019
H 0.213798 1.815454 -0.821566
H -3.164912 -0.291822 1.389672
H -3.067491 1.290892 0.474337
H -2.203665 -1.476014 -0.565515
H -2.126699 0.082448 -1.483983
