10
VERBATIM ACS SI coordinates: ketene + formaldimine TS Trans, CASSCF(8,7)/aug-cc-pVDZ, DOI 10.1021/jo026188h
C             0.083538   -0.016752   -0.047067
C             0.194703    0.004559    1.294484
O             0.894124   -0.005656    2.253335
H             0.993438   -0.018602   -0.625529
H            -0.868694    0.012140   -0.542240
N            -1.562698    0.004429    1.912014
C            -1.731912    0.003623    3.169282
H            -2.383427    0.006099    1.332557
H            -0.845726    0.000889    3.790176
H            -2.717053    0.006022    3.619319
