17
VERBATIM ACS SI Cartesian coordinates; SOURCE UNITS UNSTATED; anti S1 addition transition state 40; CAS(8,8)/6-31G* E=-270.73389 Eh; DOI 10.1021/ja983480r
C -0.415927 0.351252 -0.025062
H -0.825732 0.534521 0.966675
H 0.660741 0.508911 0.060326
C -1.016664 1.237457 -1.084179
C -0.729475 -1.056967 -0.534668
C -1.377472 0.423633 -2.249237
C -1.125743 -0.942836 -1.913060
C -2.070081 -1.713633 1.955766
C -2.356901 -1.681019 0.528031
H -0.924066 2.306152 -1.091769
H -0.079375 -1.863157 -0.238424
H -1.765131 0.793647 -3.176666
H -1.288033 -1.778257 -2.567832
H -2.251370 -0.855734 2.574747
H -3.082572 -0.950074 0.211162
H -1.487996 -2.511139 2.378726
H -2.505366 -2.640608 0.058481
