17
VERBATIM ACS SI Cartesian coordinates; SOURCE UNITS UNSTATED; S1(pi-pi*)/S0 conical intersection 37; CAS(6,6)/6-31G* E=-270.75242/-270.75246 Eh; DOI 10.1021/ja983480r
H 1.262001 -0.719697 -2.066064
C 0.927167 -0.338098 -1.121430
C 0.233001 0.949968 -1.069029
C 0.061870 -1.193105 -0.217754
H 0.195358 1.614594 -1.921624
C -0.112688 1.451850 0.255921
C -1.253114 -0.614532 -0.714558
C 0.308456 -0.845732 1.255581
H 0.164348 -2.259916 -0.384992
H -0.765379 2.288485 0.387284
C 0.443085 0.693173 1.428786
H -2.062539 -0.375311 -0.036253
H -0.000429 1.023853 2.360018
H 1.220256 -1.328883 1.593572
H -0.502056 -1.234071 1.864613
H 1.506549 0.925203 1.487055
H -1.559838 -0.901411 -1.711532
