22
W1982051564 exo-cyclobutane DBO 6 RB3LYP/6-31G(d) geometry, verbatim official SI
C -0.590066 1.259431 -0.103618
C 0.741921 0.778515 -0.716777
H -0.017085 -1.183036 1.996621
C 0.741930 -0.778544 -0.716741
H 0.859921 1.235128 -1.703966
C 2.047371 0.778987 0.134651
C 2.047393 -0.778962 0.134666
C -0.590042 -1.259442 -0.103536
H 0.859915 -1.235205 -1.703910
N -1.666170 -0.625471 -0.932572
C -0.797005 0.773955 1.347169
H -0.716792 -2.341812 -0.183887
N -1.666179 0.625385 -0.932617
H -0.716835 2.341793 -0.184042
C -0.796973 -0.773874 1.347221
H -0.017148 1.183193 1.996558
H -1.750648 1.167725 1.712670
H -1.750593 -1.167658 1.712770
H 2.900703 1.226871 -0.382865
H 1.973523 1.246904 1.120507
H 2.900727 -1.226827 -0.382864
H 1.973583 -1.246869 1.120531
