17
VERBATIM ACS SI Cartesian coordinates; SOURCE UNITS UNSTATED; CH2-inversion transition state to clockwise-twisted biradical 23; CAS(8,8)/6-31G* E=-270.86264 Eh; DOI 10.1021/ja983480r
C -1.056280 -1.195082 -1.197741
C -0.053789 -0.464772 -1.844726
H 0.430693 1.613242 -1.454377
H 0.367047 -0.693076 -2.804809
H -0.574296 0.816858 2.426171
C -1.346568 -0.627354 0.050377
H 1.774352 -0.899447 1.352275
C -0.528950 0.629102 0.266677
H 1.466624 0.472181 -0.646130
H -2.088120 -0.979316 0.742792
H 0.833890 1.537203 1.694654
H 0.682440 -1.222490 2.790474
H -1.534514 -2.068446 -1.602255
C 0.957845 -0.584335 1.973646
C 0.182880 0.663771 1.662610
H -1.180723 1.500129 0.218673
C 0.437637 0.649701 -0.952880
