23
VERBATIM official ACS SI Cartesian coordinates in angstroms; source block 18; triplet 1,4-biradical 3BR14-2; DOI 10.1021/jp037735l
C -1.699652 1.100141 0.198167
C -2.979952 0.590571 0.392042
C -3.238017 -0.766302 0.213608
C -2.186147 -1.615506 -0.163159
C -0.925810 -1.128592 -0.356021
C -0.632837 0.252727 -0.186189
H -1.511148 2.146137 0.337360
H -3.774466 1.254851 0.682970
H -4.226737 -1.160460 0.362691
H -2.374378 -2.665962 -0.300463
H -0.146300 -1.810535 -0.639998
C 0.670929 0.782156 -0.413018
O 0.848948 2.094027 -0.067950
C 1.924899 -0.003259 -0.664739
H 1.699382 -0.914175 -1.205258
H 2.573795 0.574514 -1.323107
C 2.700658 -0.341547 0.621905
H 2.054202 -0.929750 1.273929
H 2.914840 0.575109 1.163201
C 3.976237 -1.082436 0.348878
H 1.611785 2.444940 -0.505491
H 4.759025 -1.082601 1.085703
H 3.966569 -1.912005 -0.336780
