17
diradical 7, CASSCF(6,6)/6-31G*; verbatim official SI Cartesian block; E = -270.817423 NIMAG = 0
C 0.323764 -0.274524 -0.214633
C -0.604175 -1.208946 0.078403
C -2.018766 -0.717183 0.162859
C -1.793626 0.817000 0.213951
C -0.380416 1.064923 -0.367120
C 1.806586 -0.465698 -0.439695
C 2.677318 0.260138 0.549487
H -1.815478 1.142294 1.248463
H -2.564355 1.366370 -0.314377
H -2.586498 -1.016613 -0.714111
H -2.552524 -1.083942 1.032393
H -0.421718 1.346414 -1.418018
H 0.133564 1.867842 0.152722
H 2.029145 -1.527198 -0.405409
H 2.051661 -0.126918 -1.444448
H 2.887872 1.305747 0.415971
H 2.774220 -0.128253 1.547296
