23
VERBATIM official ACS SI Cartesian coordinates in angstroms; source block 23; singlet/triplet 1,4-biradical crossing; DOI 10.1021/jp037735l
C -1.486631 1.208135 0.103049
C -2.833000 0.953372 0.340984
C -3.326504 -0.349401 0.304056
C -2.444521 -1.402258 0.023640
C -1.119263 -1.164998 -0.214614
C -0.587084 0.151313 -0.186172
H -1.115360 2.213017 0.133559
H -3.496037 1.772881 0.555554
H -4.366623 -0.547565 0.488887
H -2.813471 -2.412693 -0.003535
H -0.475587 -2.000324 -0.417918
C 0.790494 0.417960 -0.421732
O 1.167353 1.731622 -0.402226
H 2.048039 1.810784 -0.062526
C 1.843932 -0.581431 -0.816218
H 1.383280 -1.454921 -1.259725
H 2.454567 -0.134057 -1.598328
C 2.754256 -1.035477 0.341388
H 2.142534 -1.445314 1.138841
H 3.384184 -1.851608 -0.015989
C 3.626209 0.062469 0.882922
H 3.936245 0.044086 1.911854
H 4.272086 0.594632 0.203309
