17
direct diradical-closure TS7-6, CASSCF(6,6)/6-31G*; verbatim official SI Cartesian block; E = -270.791265 NIMAG = 1
C 0.340742 0.074126 -0.233433
C -0.317853 -1.086333 -0.231503
C -1.808241 -0.997562 -0.080428
C -1.963670 0.471883 0.392468
C -0.668927 1.198112 -0.042833
C 1.820464 0.323954 -0.465957
C 2.724257 -0.361389 0.521433
H -2.035745 0.488724 1.474581
H -2.858651 0.941327 0.000613
H -2.307360 -1.174470 -1.029558
H -2.213800 -1.705358 0.633766
H -0.805724 1.739515 -0.977499
H -0.343007 1.925849 0.695189
H 2.078793 0.000947 -1.471057
H 2.001516 1.394232 -0.433872
H 2.872992 0.079838 1.490982
H 2.850360 -1.427347 0.458377
