17
Cyclopentyne plus ethylene biradical minimum 1b; SI p. S6; CASSCF(6,6)/6-31G(d); angstrom
C -0.319907543 -0.25600127 0.211068912
C -1.838552916 -0.418245289 0.438582917
C -2.683324969 0.306611555 -0.56742577
C 0.568694764 -1.206492551 -0.065409893
C 2.000820491 -0.764692285 -0.141709425
C 1.823960241 0.775996288 -0.208687923
C 0.411126489 1.070221044 0.353818045
H 2.55121416 -1.073586006 0.742983743
H 2.529644958 -1.156557904 -1.003197044
H 2.604703785 1.306058008 0.324614267
H 1.868271429 1.091666748 -1.245434088
H 0.448926479 1.365323877 1.400983828
H -0.076921488 1.878031311 -0.183142289
H -2.071418658 -1.477156435 0.421591244
H -2.069269821 -0.055192665 1.437385368
H -2.804503145 -0.110472406 -1.550880413
H -2.846521936 1.364710795 -0.469809036
