21
VERBATIM official SI Table S17, 1(npi*)-TS1, CAS(10,9)/6-311G(d,p) optimized Cartesian coordinates in angstrom
O 0.000815 0.038222 -0.011222
C 0.014097 0.014127 1.335459
C 1.082047 -0.012035 2.154765
C 0.598880 0.012220 3.524410
C -0.799620 0.174333 3.538306
C -1.294828 0.127912 2.089002
C -1.550255 2.218055 3.855622
C -2.973177 1.877946 3.873229
C -3.325718 1.450415 2.637893
C -2.084517 1.437715 1.767541
C -1.262577 2.563865 2.414324
H 2.107405 -0.060206 1.848219
H 1.220664 -0.078681 4.391386
H -0.212121 2.547406 2.155051
H -1.670740 3.537452 2.152414
H -2.271147 1.546957 0.707118
H -4.272142 1.030789 2.352082
H -3.594858 1.865448 4.749703
H -1.913371 -0.743937 1.897744
H -1.393238 -0.236850 4.330540
H -1.058427 2.702946 4.679184
