16
Pentamethine cyanine C2-C3 S1 transition state; SI pp. 10-11; CASSCF(8,7)/6-31G*; angstrom
N  0.167868  3.630807 -0.185814
C -0.259759  2.499357  0.381639
C -0.152980  1.224159 -0.307801
C  0.132377  0.029106  0.337002
C -0.007386 -1.247448 -0.321922
C  0.049112 -2.462785  0.368456
N  0.003379 -3.653016 -0.218954
H  0.125142  4.500861  0.297994
H  0.500397  3.656134 -1.125337
H -0.549992  2.554230  1.412175
H -0.314374  1.222986 -1.373430
H  0.331163  0.035348  1.394714
H -0.171325 -1.264506 -1.385336
H  0.159012 -2.479239  1.436417
H  0.081990 -4.495012  0.310019
H -0.094552 -3.750982 -1.208068
