10
W1985891822-b parent enediyne; verbatim SI Gaussian 94 archive CASSCF(6,6)/3-21G geometry
C  0.0000000000  1.4726133372 -0.0743047510
C  0.0000000000 -1.4726133372 -0.0743047510
C  0.0000000000  2.1696786672 -1.0506560846
C  0.0000000000 -0.6686379996  1.1032243776
C  0.0000000000  0.6686379996  1.1032243776
C  0.0000000000 -2.1696786672 -1.0506560846
H  0.0000000000  2.7740558398 -1.9101656044
H  0.0000000000 -1.1897361799  2.0405843530
H  0.0000000000  1.1897361799  2.0405843530
H  0.0000000000 -2.7740558398 -1.9101656044
