17
VERBATIM ACS SI Cartesian coordinates; SOURCE UNITS UNSTATED; bicyclo[3.2.0]hept-2-ene 2; CAS(8,8)/6-31G* E=-270.93439 Eh; DOI 10.1021/ja983480r
H -2.157410 -0.801659 0.413944
C -1.265569 -0.479045 0.945481
C -0.167010 -1.520005 0.916338
C 1.016129 -1.019182 0.534002
C 0.922143 0.478576 0.211148
C -0.606248 0.736406 0.275431
H -1.570739 -0.267353 1.968365
H -0.334943 -2.544716 1.197293
H -1.024571 -0.139823 -1.733294
H 1.290968 1.838141 -1.508704
H 1.930642 -1.581292 0.458920
H 1.579550 1.076971 0.833165
C 0.913273 0.837959 -1.327411
H -0.897748 1.682057 0.715991
C -0.628714 0.775168 -1.306860
H 1.423241 0.147080 -1.989159
H -1.147484 1.615635 -1.753474
