17
VERBATIM ACS SI Cartesian coordinates; SOURCE UNITS UNSTATED; S1(pi-pi*)/S0 conical intersection 36; CAS(8,8)/6-31G* E=-270.78265/-270.78271 Eh; DOI 10.1021/ja983480r
C 1.482195 0.381789 0.265697
H 1.764966 0.231095 1.303711
H 2.397561 0.566244 -0.293972
C 0.498828 1.510847 0.077103
C 0.717013 -0.821002 -0.329087
C -0.572515 1.040402 -0.764202
C -0.088273 -0.187703 -1.434530
C -1.437948 -0.192914 0.836103
C -0.391717 -1.284601 0.721701
H 0.464022 2.394041 0.681142
H 1.358432 -1.647763 -0.609292
H -1.352358 1.678825 -1.136970
H -0.699563 -0.764092 -2.108363
H -2.408254 -0.379160 0.407647
H -0.836656 -2.209355 0.368344
H -1.469430 0.393386 1.739872
H 0.073636 -1.493941 1.680481
