22
VERBATIM S15 singlet pi-pi-star r4 CASSCF optimized phenalenone geometry (angstrom)
O 0.127574 -3.350491 0.000000
C 0.868612 1.386873 0.000000
C 2.279099 1.192103 0.000000
C 2.791965 -0.093584 0.000000
C 1.939661 -1.198439 0.000000
C 0.540510 -1.030261 0.000000
C 0.003987 0.257415 0.000000
C -0.335519 -2.200929 0.000000
C -1.440623 0.470888 0.000000
C -1.963374 1.800413 0.000000
C -1.107502 2.879498 0.000000
C 0.316363 2.683840 0.000000
C -1.752154 -1.945045 0.000000
C -2.287767 -0.666592 0.000000
H 2.928507 2.048058 0.000000
H 3.856640 -0.242175 0.000000
H 2.331729 -2.195649 0.000000
H -2.397008 -2.804330 0.000000
H -3.352153 -0.520948 0.000000
H -3.026971 1.943693 0.000000
H -1.492717 3.881986 0.000000
H 0.966925 3.537838 0.000000
