21
VERBATIM official SI Table S2, 1(npi*)-R, CAS(8,7)/6-311G(d,p) optimized Cartesian coordinates in angstrom
C 0.727399 -1.155996 0.333600
C -0.306030 -0.498651 -0.632844
C 2.065414 -1.074978 -0.391905
C 2.441551 0.213376 -0.392529
C 1.355597 1.002975 0.330438
C 0.922096 -0.040073 1.375049
C 0.123351 1.012949 -0.626213
C -1.726869 -0.432305 -0.137861
C -1.099998 1.745961 -0.125784
C -2.146717 0.837363 0.135837
O -2.437062 -1.574547 0.004836
H -3.123153 1.094227 0.497839
H -1.154973 2.807441 -0.000383
H 0.017407 0.225280 1.908555
H 1.705558 -0.269017 2.087300
H 0.442838 -2.132549 0.700600
H 2.536305 -1.890399 -0.909101
H 3.276754 0.645796 -0.912229
H -0.268392 -0.954056 -1.616521
H 0.409368 1.368398 -1.610482
H 1.642861 1.980257 0.696620
