16
VERBATIM 9H CI32(2) CASSCF optimized geometry from SI Table SI2 (atomic units)
N  -1.267562147 -1.020397512 -2.961904347
C   1.064737926  0.301090584 -2.849554543
N   2.841443836 -0.951634770 -1.074213705
C   1.837950202 -0.380964396  1.001394513
C  -0.785913765  0.594325376  1.182921494
C  -2.602663747 -0.249341299 -0.824967993
N  -1.388671935  1.066996412  3.659340859
C   0.608149979  0.375251471  4.945205423
N   2.532196544 -0.674633446  3.519273297
N   2.157835784  1.147494849 -5.089547859
O  -4.861261417 -0.273986212 -0.618303797
H   0.765754178  0.544927331  6.958346171
H   4.287761331 -0.973083143  4.104861684
H   3.959312664  1.631833797 -4.853845958
H   1.157301956  2.521216595 -5.912535375
H  -2.230290978 -1.069915196 -4.581008448
