17
VERBATIM ACS SI Cartesian coordinates; SOURCE UNITS UNSTATED; metastable biradical, H atoms flipped up, constrained 27; CAS(8,8)/6-31G* E=-270.84269 Eh; DOI 10.1021/ja983480r
C 1.508334 0.368493 0.249489
H 1.801804 0.217595 1.286853
H 2.418915 0.550008 -0.314894
C 0.500241 1.487889 0.070860
C 0.734450 -0.842603 -0.333339
C -0.779781 0.859145 -0.450284
C -0.105429 -0.177009 -1.395868
C -1.392254 -0.079843 0.664806
C -0.378083 -1.254968 0.718864
H 0.555720 2.441310 0.562658
H 1.364477 -1.667465 -0.639906
H -1.485303 1.548628 -0.894779
H -0.580139 -0.662489 -2.229384
H -2.381025 -0.420883 0.373700
H -0.841092 -2.188715 0.417800
H -1.486350 0.440537 1.612437
H 0.045456 -1.403532 1.706372
