21
VERBATIM official SI Table S26, 3(npi*)/S0-SC, CAS(10,9)/6-311G(d,p) optimized Cartesian coordinates in angstrom
O -0.2617016292 0.5914384564 0.0292419450
C 0.1942255584 0.1501575282 1.2669463370
C 1.2422428711 -0.1706981038 1.9505299182
C 0.7338412531 -0.5404700491 3.3273857074
C -0.5911489814 -0.4002756782 3.3712242284
C -1.1432255417 0.0597186474 2.0263237656
C -2.1641318246 3.1192723534 3.7148949006
C -3.2642827426 2.2823673990 3.8597175869
C -3.2086683615 1.2300252407 2.9540175745
C -1.9862819528 1.3578427857 2.0680694055
C -1.2419014744 2.5975045234 2.6387459703
H 2.2638718262 -0.1946658317 1.6314871042
H 1.3681737462 -0.8707841988 4.1273904866
H -0.2748557272 2.3253904368 3.0497574469
H -1.0570526278 3.3345221339 1.8636523390
H -2.3161252035 1.5770950427 1.0550935414
H -3.9479884461 0.4595687275 2.8394488357
H -4.0539587475 2.4290317880 4.5738990934
H -1.7396474884 -0.7358258091 1.5887947690
H -1.2416720357 -0.5811723610 4.2035324622
H -1.9625404593 3.9940509584 4.3026165566
