20
Heptamethine cyanine C4-C5 S1 transition state; SI p. 14; CASSCF(10,9)/6-31G* per main text; angstrom
N  4.731851 -0.155184  0.579384
C  3.653870  0.386485 -0.012480
C  2.394391 -0.218589 -0.051189
C  1.285542  0.347951 -0.659548
C -0.035039 -0.310598 -0.646614
C -1.171140  0.267293 -0.107998
C -2.445238 -0.339879 -0.158853
C -3.589349  0.302496  0.341205
N -4.802111 -0.208328  0.318249
H  5.614479  0.285716  0.529603
H  4.695760 -1.045563  1.008598
H  3.811822  1.338529 -0.467304
H  2.297879 -1.182268  0.417953
H  1.378231  1.300616 -1.136713
H -0.108255 -1.293746 -1.093374
H -1.078907  1.237954  0.350668
H -2.545825 -1.317316 -0.608900
H -3.506150  1.283994  0.780377
H -4.994204 -1.114868 -0.072939
H -5.587705  0.295103  0.690330
