17
VERBATIM ACS SI Cartesian coordinates; SOURCE UNITS UNSTATED; constrained transition state between twisted biradicals 22; CAS(8,8)/6-31G* E=-270.86218 Eh; DOI 10.1021/ja983480r
C -1.122514 -1.175383 -1.229556
C -0.113755 -0.454905 -1.880509
H 0.510511 1.577546 -1.431028
H 0.284355 -0.673478 -2.852468
H -0.584137 0.764830 2.413449
C -1.369512 -0.631711 0.037394
H 2.063765 -0.583301 1.753254
C -0.526239 0.607246 0.255536
H 1.453278 0.336828 -0.647756
H -2.107316 -0.979277 0.736306
H 0.802395 1.541732 1.695314
H 0.644137 -1.320209 2.631573
H -1.634497 -2.023796 -1.645710
C 1.007324 -0.576088 1.947745
C 0.183429 0.648205 1.652495
H -1.165153 1.487889 0.198141
C 0.444098 0.601742 -0.958751
