23
VERBATIM official ACS SI Cartesian coordinates in angstroms; source block 8; butyrophenone T2 equilibrium; DOI 10.1021/jp037735l
C -1.655635 0.000000 1.416489
C -1.656710 0.000000 2.776684
C -0.419769 0.000000 3.525391
C 0.844754 0.000000 2.795998
C 0.872797 0.000000 1.438052
C -0.378575 0.000000 0.656015
H -2.568086 0.000000 0.855599
H -2.588512 0.000000 3.312869
H -0.426352 0.000000 4.597420
H 1.764140 0.000000 3.352857
H 1.814149 0.000000 0.923310
C -0.418471 0.000000 -0.788688
O -1.506718 0.000000 -1.363538
C 0.874325 0.000000 -1.591792
H 1.465216 0.868426 -1.307411
H 1.465216 -0.868426 -1.307411
C 0.651028 0.000000 -3.103011
H 0.060600 0.866997 -3.379282
H 0.060600 -0.866997 -3.379282
C 1.967725 0.000000 -3.878645
H 1.787759 0.000000 -4.948968
H 2.565100 -0.877185 -3.645180
H 2.565100 0.877185 -3.645180
