17
VERBATIM ACS SI Cartesian coordinates; SOURCE UNITS UNSTATED; biradical with H atoms flipped up 33; CAS(6,6)/6-31G* E=-270.80127 Eh; DOI 10.1021/ja983480r
H 1.059557 -0.665760 -2.175815
C 0.785224 -0.310472 -1.195754
C -0.268784 0.831675 -1.052181
C -0.051260 -1.174604 -0.261013
H -0.465624 1.485614 -1.892146
C -0.120686 1.532673 0.265371
C -1.272790 -0.397349 -0.798051
C 0.213554 -0.799055 1.206125
H -0.040881 -2.247466 -0.412099
H -0.915657 2.200567 0.556658
C 0.567865 0.706171 1.324674
H -2.101686 -0.212961 -0.122343
H 0.356615 1.075869 2.322248
H 1.030251 -1.393175 1.606023
H -0.667832 -1.035408 1.797296
H 1.641840 0.803525 1.173155
H -1.644298 -0.809751 -1.728375
