16
Pentamethine cyanine C3-C4 S1 transition state; SI p. 11; CASSCF(8,7)/6-31G*; angstrom
N -1.477018 -0.507681 -3.303559
C -1.477119 -0.096563 -2.035586
C -0.389765 -0.317412 -1.147824
C -0.435665 -0.018297  0.219128
C  0.750815 -0.134682  1.056532
C  0.950411  0.641178  2.208331
N  1.951640  0.443828  3.065616
H -2.270601 -0.373115 -3.890673
H -0.688893 -0.962961 -3.711313
H -2.376539  0.379084 -1.695490
H  0.500008 -0.768955 -1.552686
H -1.314448  0.443042  0.633796
H  1.503191 -0.855384  0.786096
H  0.254070  1.412153  2.478469
H  2.041861  0.994875  3.891897
H  2.641407 -0.263010  2.918827
