21
VERBATIM official SI Table S8, 3(npi*)-P, CAS(8,7)/6-311G(d,p) optimized Cartesian coordinates in angstrom
O 0.006358 -0.010591 -0.008068
C 0.001374 -0.004481 1.326017
C 1.342459 0.004808 2.058103
C 1.739617 -1.459925 1.875643
C 0.612120 -2.186980 1.878966
C -0.560938 -1.222940 2.057278
C 0.830454 0.143457 3.521598
C 0.384875 1.527268 3.921623
C -0.931849 1.603420 4.133278
C -0.498073 -0.694815 3.516242
C -1.632357 0.285073 3.908295
H 2.068192 0.745027 1.750565
H 2.749538 -1.825060 1.857168
H -2.383389 0.368925 3.126300
H -2.150819 -0.045973 4.804503
H -0.455074 -1.524890 4.209923
H 1.572830 -0.245106 4.211076
H 1.072361 2.349872 4.015403
H -1.530384 -1.584041 1.742597
H 0.528293 -3.257665 1.861912
H -1.458457 2.496749 4.419901
