17
VERBATIM ACS SI Cartesian coordinates; SOURCE UNITS UNSTATED; constrained transition state forming clockwise-twisted biradical 20; CAS(8,8)/6-31G* E=-270.86348 Eh; DOI 10.1021/ja983480r
C -0.502598 0.248745 0.468177
H -0.493605 0.249828 1.553627
H 0.537504 0.261854 0.148995
C -1.245288 1.431873 -0.105623
C -1.239991 -0.991636 -0.113380
C -2.163855 1.001846 -1.068608
C -2.176824 -0.399020 -1.138728
C -3.041158 -1.088501 1.741631
C -1.996621 -1.843239 0.973191
H -1.031420 2.452967 0.144487
H -0.531393 -1.666433 -0.585770
H -2.776586 1.653168 -1.664880
H -2.798008 -0.988808 -1.786512
H -3.423524 -0.155712 1.374569
H -2.449298 -2.691990 0.460281
H -3.182746 -1.288203 2.787900
H -1.261603 -2.264839 1.655760
