17
direct diradical-closure TS7-6, CASSCF(4,4)/6-31G*; SI atomic-number 6 labels converted to C; verbatim official SI Cartesian block; E = -270.787603 NIMAG = 1
C 0.340699 0.072394 -0.236207
C -0.320962 -1.086950 -0.239006
C -1.809820 -0.996237 -0.075315
C -1.961463 0.474573 0.394416
C -0.666966 1.198061 -0.046359
C 1.821128 0.317294 -0.469265
C 2.722835 -0.356642 0.528040
H -2.030592 0.494456 1.476668
H -2.856854 0.944242 0.003803
H -2.316718 -1.176294 -1.019725
H -2.209682 -1.701952 0.644160
H -0.805883 1.738500 -0.981201
H -0.337766 1.926197 0.689774
H 2.081371 -0.018237 -1.469689
H 2.003246 1.387715 -0.449981
H 2.865238 0.092776 1.494782
H 2.854928 -1.422360 0.473585
