18
W1982051564 DBO2 reactant RB3LYP/6-31G(d) geometry, verbatim official SI
C -0.002591 -1.250548 0.110574
C 1.264561 -0.776569 -0.633997
H -1.257850 1.185346 -1.650233
C 1.268238 0.771863 -0.632964
H 2.151346 -1.175134 -0.131387
H 1.263908 1.180975 -1.649741
H 1.257058 -1.184242 -1.651394
C 0.002603 1.250578 0.111233
H 2.156382 1.165513 -0.128809
N 0.001462 0.625176 1.463462
C -1.268317 -0.771390 -0.633254
H 0.004666 2.333641 0.253151
N -0.001061 -0.626381 1.463083
H -0.004635 -2.333715 0.251677
C -1.264830 0.777053 -0.633135
H -1.263838 -1.179607 -1.650449
H -2.156383 -1.165569 -0.129450
H -2.151446 1.175309 -0.129924
