17
VERBATIM ACS SI Cartesian coordinates; SOURCE UNITS UNSTATED; gauche-in biradical, methylene twisted 120 deg anticlockwise 17; CAS(8,8)/6-31G* E=-270.86485 Eh; DOI 10.1021/ja983480r
C 0.010669 -0.030342 -0.018027
H 0.116482 -0.077810 1.060023
H 1.014772 0.045172 -0.432631
C -0.829305 1.134176 -0.482924
C -0.719820 -1.267755 -0.600307
C -1.684162 0.715818 -1.512177
C -1.609990 -0.675128 -1.664400
C -2.551648 -1.199781 1.214486
C -1.547533 -2.046007 0.497858
H -0.682036 2.148167 -0.165187
H -0.014952 -1.979087 -1.019923
H -2.313459 1.367418 -2.090686
H -2.179111 -1.261467 -2.361554
H -3.245387 -0.599916 0.657342
H -2.034603 -2.887543 0.004647
H -2.818859 -1.436913 2.228064
H -0.848600 -2.472673 1.212867
