16
VERBATIM 9H Min(2) CASSCF optimized geometry from SI Table SI2 (atomic units)
N  -1.286269360 -0.971314209 -2.949360863
C   1.069861122  0.229904463 -2.919387051
N   2.837242222 -0.860353850 -1.122205898
C   1.813949772 -0.301104803  1.008853434
C  -0.800983227  0.564406703  1.230335365
C  -2.600733351 -0.207477055 -0.753850248
N  -1.383440638  0.920989546  3.754350516
C   0.647914871  0.311492418  4.980591681
N   2.610119541 -0.567833996  3.465767229
N   2.107210627  1.045153537 -5.167848422
O  -4.872005473 -0.219999337 -0.604198346
H   0.852495848  0.429600528  6.992159548
H   4.370794725 -0.904221686  4.021471180
H   3.910313138  1.568948613 -4.990523267
H   1.070418017  2.320527193 -6.095219969
H  -2.299958038 -1.017334605 -4.538306479
