17
VERBATIM ACS SI Cartesian coordinates; SOURCE UNITS UNSTATED; methylene-bridge cleavage transition state 29; CAS(6,6)/6-31G* E=-270.84568 Eh; DOI 10.1021/ja983480r
H 0.609094 1.248886 2.118464
C 0.401225 0.607737 1.281563
C 0.652049 -0.745399 1.285142
C -0.331339 1.109065 0.058590
H 1.027689 -1.254776 2.156171
C 0.293282 -1.485465 0.104139
H -2.415696 0.824392 -0.699673
H -0.399162 2.195986 0.072941
H 1.426633 1.085308 -1.180568
H 0.233530 -2.559105 0.157950
C 0.425373 0.666421 -1.207288
C -1.717907 0.503655 0.058916
H 1.445045 -1.187546 -1.668634
H -0.058438 1.058750 -2.097485
H -2.151211 0.185039 0.989042
C 0.483495 -0.872021 -1.264507
H -0.267960 -1.263230 -1.941750
