40
VERBATIM SOURCE COORDINATES: Table S5, MP2/cc-pVDZ ground-state geometry, DOI 10.1021/jp212295s
C     1.44686   -0.00000   -0.00000
F     2.78478   -0.00000    0.00000
C     0.84394   -0.02440    1.28202
C    -0.49407   -0.47552    1.48464
C    -1.05558   -0.49009    2.75002
C    -0.31902   -0.04264    3.89730
C     1.03970    0.36671    3.69147
C     1.60357    0.36040    2.42920
H    -1.06058   -0.89156    0.64758
H    -2.06418   -0.88647    2.86606
H     1.64925    0.69406    4.53488
H     2.63720    0.68772    2.30241
N    -0.87481   -0.03080    5.12868
C    -2.26305   -0.44472    5.31549
H    -2.53939   -0.28370    6.36463
H    -2.93665    0.15394    4.68165
H    -2.39903   -1.51368    5.07621
C    -0.08437    0.36328    6.29507
H    -0.71371    0.28732    7.18937
H     0.78638   -0.29928    6.42419
H     0.26565    1.40495    6.20161
C     0.84394    0.02440   -1.28202
C    -0.49407    0.47552   -1.48464
C    -1.05558    0.49009   -2.75002
C    -0.31902    0.04264   -3.89730
C     1.03970   -0.36671   -3.69147
C     1.60357   -0.36040   -2.42920
H    -1.06058    0.89156   -0.64758
H    -2.06418    0.88647   -2.86606
H     1.64925   -0.69405   -4.53488
H     2.63720   -0.68772   -2.30241
N    -0.87481    0.03080   -5.12868
C    -2.26305    0.44472   -5.31549
H    -2.39903    1.51368   -5.07621
H    -2.53939    0.28369   -6.36463
H    -2.93665   -0.15394   -4.68164
C    -0.08437   -0.36328   -6.29507
H     0.78638    0.29928   -6.42419
H    -0.71371   -0.28732   -7.18937
H     0.26565   -1.40495   -6.20161
