30
VERBATIM official ACS SI Gaussian 09 final wB97XD/6-311G(d,p) system 38 phenyl-migration TS geometry used for the reported CAS(8,8) single point; angstrom; NImag=1; DOI 10.1021/jo401146k
C 1.747444 1.054837 0.088794
O 1.183985 3.523354 0.319959
N 2.746387 1.621797 0.519256
C 0.454265 1.368615 -0.314538
C 0.154284 2.965778 -0.060983
O -1.004903 3.279283 -0.262943
C 2.652417 -0.199862 0.175162
C 2.577317 -1.007218 1.315373
C 3.337626 -0.611132 -0.973045
C 3.147812 -2.266598 1.277795
H 2.075384 -0.636860 2.200550
C 3.902918 -1.873564 -0.994578
H 3.410797 0.059047 -1.820472
C 3.804831 -2.695714 0.126044
H 3.094884 -2.910850 2.146481
H 4.431461 -2.214830 -1.875852
H 4.258803 -3.679742 0.106699
C -0.480270 0.534294 -0.731232
N -1.401013 -0.092665 -1.168520
C -2.582801 -0.531043 -0.528947
C -3.213618 0.310605 0.386126
C -3.118447 -1.768107 -0.863802
C -4.388293 -0.116899 0.986931
H -2.792698 1.291867 0.582876
C -4.286441 -2.187373 -0.241104
H -2.617599 -2.386472 -1.598538
C -4.921444 -1.365340 0.682628
H -4.890920 0.532894 1.693543
H -4.706915 -3.155267 -0.487599
H -5.839058 -1.692480 1.157286
