12
VERBATIM ACS SI coordinates: keteniminium cation + formaldimine TS Cis, CASSCF(8,7)/aug-cc-pVDZ, DOI 10.1021/jo026188h
C            0.000000    0.000000    0.000000
C            0.000000    0.000000    1.312984
N            0.551321    0.000000    2.467067
H            0.896746   -0.357121   -0.488402
H           -0.854950    0.297674   -0.577459
H            0.381964   -0.747727    3.113880
H            1.006623    0.823373    2.815711
N           -2.191550    0.618542    1.680607
C           -3.231765   -0.079927    1.439893
H           -2.413756    1.487001    2.143803
H           -3.128051   -1.037655    0.943327
H           -4.232303    0.241886    1.707513
