20
VERBATIM official SI Table S23, 3(pipi*)/S0-SC, CAS(10,9)/6-311G(d,p) optimized Cartesian coordinates in angstrom; source Table S23 contains C10H9O (one H coordinate omitted), so no missing coordinate was inferred
O 0.0499918082 0.4845747689 0.0122692472
C 0.0604924234 0.1486081522 1.1680849990
C 1.2309671150 -0.2574756103 1.9589730770
C 0.8145405636 -0.5086972121 3.2720543908
C -0.5514208125 -0.3091447306 3.4084886130
C -1.1668184998 0.0775073158 2.0853329598
C -2.1701436371 3.0673147910 3.7780709165
C -3.2885199187 2.2475670390 3.8808002641
C -3.2636521139 1.2530129122 2.9112279948
C -2.0162666162 1.3633584881 2.0602891561
C -1.3019084631 2.6284646020 2.6229024385
H 2.2266511121 -0.3219066210 1.5673929148
H 1.4663634778 -0.8126380471 4.0697967218
H -0.2854278237 2.4198571348 2.9443975795
H -1.2333827396 3.4045142764 1.8654923188
H -2.2860799238 1.5229624655 1.0207049666
H -4.0141449374 0.4985589616 2.7665137639
H -4.0694039103 2.3694225212 4.6092304657
H -1.7925362944 -0.7378367204 1.7225243757
H -1.1090165725 -0.4360708236 4.3152392420
