16
Benzyne plus ethylene direct cyclization TS 2bp; SI pp. S21-S22; CASSCF(6,6)/6-31G(d); angstrom
C 0.1736148122 1.0726287582 1.4675869569
C -0.6123644426 0.0797879112 0.9463403974
C 0.7034856104 0.8195321812 2.7546886658
C 0.4306657653 -0.3532369733 3.4085645871
C -0.3821768424 -1.3356181681 2.8187315794
C -0.9137385747 -1.1244991775 1.5700600282
H 1.3314631404 1.5585442786 3.2217857928
H 0.8454953975 -0.5280977368 4.385309832
H -0.5844558096 -2.2504988411 3.3470222736
H -1.5386096102 -1.8576605105 1.0936485696
C 0.4331085451 2.391459763 0.7110986628
C 0.8556928123 2.1874736288 -0.713450202
H 1.0184386141 3.0395478687 -1.3464620953
H 0.8369160467 1.2163252093 -1.1662438223
H 1.1884694316 2.9630792489 1.2458817068
H -0.4754280061 2.9907873597 0.750764367
