20
Heptamethine cyanine C4-C5 S1/S0 conical intersection; SI p. 15; SA-CASSCF(10,9)/6-31G* per main text; angstrom
N  3.041739  0.436111  1.586672
C  2.719115  0.442561  0.263422
C  2.097760 -0.541529 -0.374661
C  1.466609 -0.262703 -1.612553
C  0.047234 -0.571412 -1.879399
C -0.818374  0.166057 -0.975011
C -2.118287 -0.122475 -0.629138
C -2.648304  0.309609  0.673657
N -3.780205 -0.088349  1.209648
H  3.845891  0.945908  1.790732
H  3.097057 -0.463018  1.955490
H  2.800315  1.369704 -0.200467
H  1.990177 -1.445546  0.143333
H  1.880012  0.608870 -2.024935
H -0.190503 -1.434473 -2.499664
H -0.238268  0.909642 -0.397895
H -2.667564 -0.856755 -1.237861
H -2.041701  0.997688  1.299462
H -4.424928 -0.753243  0.751793
H -4.057876  0.213149  2.157829
