16
VERBATIM 9H Min(1) CASSCF optimized geometry from SI Table SI2 (atomic units)
N  -1.525052008 -0.541237248 -3.018937657
C   0.998705718  0.257923880 -2.932493205
N   2.721748666 -1.068050486 -1.235857944
C   1.807781315 -0.450649081  0.921536994
C  -0.708599511  0.699126103  1.169645608
C  -2.647357752 -0.168970771 -0.654886862
N  -1.156049552  1.227279868  3.702998558
C   0.816055120  0.408469189  4.892482022
N   2.612629443 -0.781991135  3.367598154
N   2.061829681  1.062538616 -5.154413240
O  -4.849435015 -0.546143525 -0.222130044
H   1.093184028  0.561868011  6.893504251
H   4.369598181 -1.198165760  3.882248352
H   3.891557564  1.496448893 -5.024451068
H   1.031876177  2.318783011 -6.111253899
H  -2.108916660 -1.988290711 -4.087324139
