22
VERBATIM official ACS SI Cartesian coordinates; pyramidalized equivalent MXS; units unstated in source and values preserved without conversion; DOI 10.1021/jp066090x
F -1.823162 -0.811143 -1.275112
C -2.181784 -0.065699 -0.217326
C -1.393574 0.655783 0.595123
C -0.690862 -0.687862 1.209233
C 0.584241 -1.132870 0.496497
C 1.566362 0.016648 0.246105
C 0.881145 1.156426 -0.514367
C -0.344252 1.692387 0.236135
C 2.821258 -0.475624 -0.473319
H -3.242811 -0.292842 -0.080191
H -0.485568 -0.344034 2.225167
H -1.371169 -1.535750 1.330954
H 1.067639 -1.903682 1.108086
H 0.329922 -1.606008 -0.455406
H 1.873990 0.411174 1.223876
H 1.596113 1.971365 -0.672149
H 0.581755 0.801050 -1.506942
H -0.004691 2.170130 1.160876
H -0.825671 2.481533 -0.345609
H 3.317181 -1.269321 0.091638
H 2.576085 -0.874010 -1.462259
H 3.540481 0.335541 -0.610521
