17
VERBATIM ACS SI Cartesian coordinates; SOURCE UNITS UNSTATED; concerted Diels-Alder transition state 5; CAS(8,8)/6-31G* E=-270.86769 Eh; DOI 10.1021/ja983480r
H 1.608907 1.332258 1.503519
C 0.802355 0.709433 1.163175
C 0.802468 -0.708579 1.162707
C -0.334011 1.155527 0.464490
H 1.609288 -1.331266 1.502527
C -0.333753 -1.154950 0.463509
H -2.018468 0.000162 -0.360089
H -0.656595 2.180949 0.451458
H 1.175919 1.233114 -1.646549
H -0.656482 -2.180383 0.450812
C 0.244067 0.699841 -1.633301
C -1.307758 0.000116 0.454605
H 1.174875 -1.234530 -1.646643
H -0.584614 1.229406 -2.068629
H -1.865708 -0.000603 1.391438
C 0.243280 -0.700804 -1.632379
H -0.585635 -1.229690 -2.068242
