22
VERBATIM S15 planar singlet n-pi-star/S0 conical-intersection geometry (angstrom)
O 0.532069 -3.248091 0.000000
C 0.871709 1.385387 0.000000
C 2.231556 1.140047 0.000000
C 2.751428 -0.184045 0.000000
C 1.894087 -1.243129 0.000000
C 0.479257 -0.976987 0.000000
C -0.029430 0.255172 0.000000
C -0.413218 -2.077918 0.000000
C -1.487093 0.442107 0.000000
C -2.002787 1.845608 0.000000
C -1.100132 2.936523 0.000000
C 0.320531 2.723864 0.000000
C -1.712039 -2.018442 0.000000
C -2.283162 -0.632270 0.000000
H 2.916602 1.969252 0.000000
H 3.814804 -0.337746 0.000000
H 2.282824 -2.250262 0.000000
H -2.364629 -2.869976 0.000000
H -3.353301 -0.532005 0.000000
H -3.064519 2.003419 0.000000
H -1.480325 3.941388 0.000000
H 0.991550 3.562264 0.000000
