21
VERBATIM official SI Table S25, 1(npi*)/S0-CI, CAS(10,9)/6-311G(d,p) optimized Cartesian coordinates in angstrom
O -0.2940608400 0.6106454998 0.0353366919
C 0.1802631360 0.1593148170 1.2623390957
C 1.2389544544 -0.1754208379 1.9224897246
C 0.7575130113 -0.5621815018 3.3036201382
C -0.5663730180 -0.4221938853 3.3779055678
C -1.1426816951 0.0554242493 2.0483186027
C -2.1994970070 3.1510887943 3.6915457872
C -3.2945220085 2.3121778099 3.8333785910
C -3.2030009336 1.2283795483 2.9624046475
C -1.9735541959 1.3538245669 2.0940737819
C -1.2337450795 2.5904805496 2.6747042447
H 2.2547826812 -0.1944396359 1.5849950588
H 1.4076198940 -0.9047760691 4.0857033787
H -0.2988840649 2.3042472196 3.1460417005
H -0.9879789572 3.3058465472 1.8972229927
H -2.2885491428 1.5789857698 1.0743189971
H -3.9349203043 0.4507518798 2.8488187900
H -4.1057604000 2.4748658588 4.5191549406
H -1.7470946908 -0.7342103504 1.6108589187
H -1.1967234512 -0.6201970970 4.2213269987
H -2.0246153768 4.0514802572 4.2482113253
