25
VERBATIM from jp031214g Supporting Information p. 11 | 1A oxoCr(salen)-, CASSCF/6-31G* optimized geometry | computational
Cr  -0.5371752621  -0.0823528904   0.3342221800
O   -1.7290964556   0.9544743558  -0.8921293554
O   -0.6757963078  -1.5455550088  -0.9329591917
N   -0.5650283242   1.6635945739   0.5513852179
N    1.2924631874  -0.8216509323   0.8890351654
C   -1.8897912669   2.2068619397  -0.9114220693
C   -1.0895824073   3.1689363181  -0.3375389662
C    0.1584407198   2.8436090857   0.2683735991
C    0.0401547816  -2.6185100592  -0.9782908048
C    1.2000555900  -2.8802903166  -0.3156027096
C    1.8440043294  -1.9233938707   0.5496471028
C    1.9306976275   1.4767740400   1.0506488783
C    2.0126717136   0.1216463367   1.7377028112
H    0.8203866045   3.6744886149   0.4870581929
H    2.8424123858  -2.1392472786   0.9058664800
H    2.6209800036   1.4860379157   0.2127479800
H    1.5015671545   0.1722905747   2.6965626715
H    2.2138713930   2.2775126132   1.7287214959
H    3.0402747228  -0.1781385324   1.8975335522
H   -2.7467402290   2.5593147093  -1.4789879407
H   -0.3293454297  -3.3789199663  -1.6570677734
Cl   5.2825272288  -1.5342548942   1.5928677212
O   -1.4176691338  -0.3004053398   1.5815648187
H   -1.3168915613   4.2062080893  -0.5022181811
H    1.7141401521  -3.8038844991  -0.5042257600
