25
VERBATIM from jp031214g Supporting Information p. 1 | 1A oxoMn(salen), CASSCF/6-31G* optimized geometry | computational
Mn  -0.0128264866  -0.0002779912  -0.1091894544
O   -1.1037647823   1.0246639195  -1.2821459116
O   -0.4319309790  -1.5910632792  -1.0423314985
N   -0.7243918073   1.6205280457   0.7709992473
N    1.3008767173  -0.9287768925   1.0635839133
C   -1.2886186814   2.2834208702  -1.2181338272
C   -0.7050865946   3.1821062059  -0.3604271375
C    0.3534920334   2.8195308082   0.5207059889
C    0.2177419816  -2.6945497951  -0.9662726987
C    1.2181378357  -3.0250490115  -0.0961995911
C    1.7180430400  -2.1229929449   0.8899899444
C    1.9393113446   1.3525171542   1.5367699106
C    1.8333722479  -0.0604962603   2.1055467704
H    0.8908035853   3.6241374839   1.0039698993
H    2.5024254412  -2.4854165868   1.5399007635
H    2.7858100041   1.4098930461   0.8661311665
H    1.1490336627  -0.0652673733   2.9502674019
H    2.0638511115   2.0769335299   2.3353274192
H    2.7993768711  -0.4085469833   2.4534782102
H   -1.9892347032   2.6686747336  -1.9454961675
H   -0.0986239324  -3.4441353556  -1.6764363233
Cl   1.8821942342   0.3098852687  -1.6599082362
O   -1.1395010178  -0.1703680057   0.9263551082
H   -0.9312248148   4.2251864392  -0.4696082573
H    1.6695378989  -3.9953914470  -0.1633815245
