25
VERBATIM from jp031214g Supporting Information p. 9 | 2A oxoFe(salen), CASSCF/6-31G* optimized geometry | computational
Fe   0.1070192762   0.0240850542  -0.1904156863
O   -1.0369273112   1.0173797670  -1.3055610956
O   -0.4148492868  -1.5556995504  -1.0316556433
N   -0.7492851922   1.6156324472   0.7427232176
N    1.3341657269  -0.9118010274   1.0219141446
C   -1.2775142402   2.2594644952  -1.2187332387
C   -0.7379291862   3.1652637580  -0.3413469937
C    0.3306272804   2.8104897094   0.5331623693
C    0.2042422425  -2.6882406003  -0.9553069404
C    1.2072003875  -3.0248900023  -0.0979086545
C    1.7106805042  -2.1230083928   0.8887138531
C    1.9517903987   1.3600855915   1.5304446922
C    1.8409726639  -0.00558699325  2.0870018358
H    0.8290885152   3.6119231635   1.0602829975
H    2.4537197670  -2.5016975807   1.5765669647
H    2.8125418244   1.4300933025   0.8788981827
H    1.1371348321  -0.0710055409   2.9145349716
H    2.0510947216   2.0818631718   2.3345489142
H    2.7998510330  -0.4068430644   2.4508164303
H   -1.9962180288   2.6280620852  -1.9373457013
H   -0.1552707402  -3.4274050290  -1.6465449015
Cl   1.9556921673   0.3118475751  -1.7142600936
O   -1.1269936239  -0.1383476019   0.9367529008
H   -0.9921275827   4.2015853072  -0.4238385418
H    1.6222593092  -4.0125085211  -0.1401219767
