24
VERBATIM from jp031214g Supporting Information p. 3 | 5A Mn(salen), CASSCF/6-31G* optimized geometry | computational
Mn   0.4355359655   0.0846043348  -0.6014360301
O   -1.0520629996   1.0476267756  -1.2698001032
O   -0.2299131520  -1.5581398400  -1.1952337994
N   -0.8813328883   1.6552323441   0.5850001972
N    1.3670419623  -0.8852691683   0.9483639060
C   -1.3722334408   2.2823178797  -1.1096576118
C   -0.7682848638   3.1770149380  -0.2761062157
C    0.3314326997   2.8094158818   0.5602736693
C    0.2481992660  -2.7345331564  -0.9745183198
C    1.1300526591  -3.0829563583   0.0048681698
C    1.6011486017  -2.1419547628   0.9745967325
C    2.0273564277   1.3787000566   1.4459491244
C    1.8291010772  -0.0168571096   2.0286481972
H    0.7183953331   3.5691523624   1.2252424247
H    2.1841438631  -2.5366676843   1.7960142334
H    2.9213273003   1.3995081427   0.8356343797
H    1.0701446054   0.0173997092   2.8045537947
H    2.1183861598   2.1189452378   2.2337755153
H    2.7497183910  -0.3866816193   2.4669588288
H   -2.2244017139   2.6089208600  -1.6867757422
H   -0.1365314200  -3.5069269673  -1.6223824415
Cl   2.3683215179   0.4039246578  -2.0242081053
H   -1.1418166254   4.1799476624  -0.2099759886
H    1.4306943402  -4.1071818182   0.1073551917
