26
VERBATIM from ja066430s Supporting Information Table A3 (p. S5) | cis S0-Min model R0, SA2-CAS(12,11)/6-31G* optimized geometry | computational
O 0.00000 0.00000 0.00000
O 0.00007 5.20683 5.21253
O 0.00016 0.15917 12.05227
C 0.00000 0.00000 1.19133
C 0.00013 0.90886 3.26007
C 0.00016 1.92994 4.22218
C 0.00027 2.94160 6.11650
C 0.00015 3.99898 5.10030
C 0.00036 3.23804 7.50134
C 0.00052 2.42173 8.61353
C 0.00086 0.97099 8.57198
C 0.00106 0.22085 9.70260
C 0.00067 0.82514 11.04331
C 0.00091 2.29456 11.07483
C 0.00073 3.02443 9.93245
N 0.00000 1.13045 1.97772
N 0.00033 1.72865 5.52631
N 0.00002 3.28882 3.93454
H 0.00035 -0.95559 1.73601
H 0.00035 -0.09413 3.67049
H -0.00012 3.68144 3.02218
H 0.00028 4.29894 7.68923
H 0.00087 0.49760 7.61020
H 0.00120 -0.85367 9.66525
H 0.00094 2.75624 12.04567
H 0.00066 4.09992 9.99133
