25
VERBATIM from jp031214g Supporting Information p. 7 | 4A oxoMn(salen)-, CASSCF/6-31G* optimized geometry | computational
Mn  -0.1081034758  -0.0239708269  -0.1233496696
O   -1.1198704993   1.0989979550  -1.3225794522
O   -0.4328595913  -1.6785416379  -1.0516519154
N   -0.7418232155   1.6304267306   0.7243738392
N    1.2840609941  -0.9395508771   1.0543133317
C   -1.3246960832   2.3427119082  -1.1905473194
C   -0.7330460581   3.2137740213  -0.3103721073
C    0.3582197171   2.8259151136   0.5326154999
C    0.2325871764  -2.7562519450  -0.9501998444
C    1.2193214082  -3.0655199172  -0.0517059678
C    1.7180815784  -2.1235114326   0.9048823657
C    1.9495566226   1.3362164238   1.4772554894
C    1.7944178601  -0.0568018300   2.0841237162
H    0.9022350259   3.6242742467   1.0262539755
H    2.5159718032  -2.4635158343   1.5561156890
H    2.7836492185   1.3339978352   0.7881943181
H    1.0729463443  -0.0212131246   2.8947259614
H    2.1217569806   2.0769176508   2.2564614000
H    2.7435974427  -0.4105003271   2.4807626509
H   -2.0469513947   2.7642327003  -1.8827998779
H   -0.0329300022  -3.5247217232  -1.6685188297
Cl   2.2897159049   0.3313690970  -1.8244856350
O   -1.3112566941  -0.1538868734   1.0583541994
H   -0.9687888156   4.2603912203  -0.3769764823
H    1.7200971644  -4.0127799696  -0.1318733282
