21
4-(dimethylamino)benzonitrile S0; source-explicit computational coordinates, Dreyer and Kummrow SI Table 11, CAS(4e,4o)/6-31G(d), angstrom
C   0.059976  -0.919778   0.000000
C   0.059976   1.905222   0.000000
C   0.059976  -0.190966   1.196977
C   0.059976  -0.190966  -1.196977
C   0.059976   1.195165   1.199873
C   0.059976   1.195165  -1.199873
C   0.059976   3.349222   0.000000
N   0.059976   4.485822   0.000000
H   0.059976  -0.694124   2.142199
H   0.059976  -0.694124  -2.142199
H   0.059976   1.723295   2.135279
H   0.059976   1.723295  -2.135279
N   0.083825  -2.305473   0.000000
C  -0.188453  -3.009622   1.234911
C  -0.188453  -3.009622  -1.234911
H   0.553822  -2.773965   1.987783
H   0.553822  -2.773965  -1.987783
H  -1.173861  -2.785014   1.641502
H  -1.173861  -2.785014  -1.641502
H  -0.131993  -4.072875   1.053473
H  -0.131993  -4.072875  -1.053473
