21
VERBATIM SI geometry: TS PCET/HCO3-, PCM-M06-2X/6-311+G(d,p)/LANL2DZdp(I), computational
H -2.289036 4.096686 -1.010542
C -2.205400 2.044288 -0.406736
C -1.830428 3.473561 -0.242996
O -1.830533 1.185637 0.468955
H -2.125315 3.846673 0.743518
H -2.681928 1.693328 -1.324237
H -0.737964 3.591288 -0.310324
H 0.081400 -0.102695 -0.470587
H 0.393710 -1.501013 1.595593
I 2.963151 -0.265448 -0.211907
C 0.293763 -0.422296 1.723082
C 0.506704 0.301188 0.435541
H -0.720402 -0.217809 2.089552
H 0.999737 -0.093180 2.487216
H 0.663017 1.369021 0.451646
O -2.383038 -1.075745 -0.136073
O -4.065481 -2.487179 -0.526543
C -3.628758 -1.395169 -0.218919
H -2.173323 -0.008917 0.162741
O -4.459300 -0.363998 0.079602
H -5.365354 -0.683804 -0.010885
