33
Wild-type PYP QM1 S0 minimum; source-explicit computational coordinates, Wei et al. ESI p. S31, CASSCF(14e,11o)/6-31G*/AMBER QM/MM, angstrom
C    2.946818609   -0.692207356    -3.715090544
H    2.513265748   -1.190780030    -4.573908123
H    3.096297736   -1.432443400    -2.940652430
C    1.982450076    0.399143176    -3.209287175
H    2.368920995    0.851282382    -2.305669063
H    1.827671409    1.182959018    -3.936191869
C    0.670908453   -0.271372789    -2.864859748
O    0.614770230   -1.145170836    -2.041885529
O   -0.414737139    0.062608634    -3.519048338
H   -0.292487708    0.739224331    -4.239327600
C   -6.118193680    0.941509336   -14.293665358
H   -6.418369051    0.109141998   -14.913287995
H   -5.371587924    1.516079308   -14.826995538
S   -5.394531039    0.178378820   -12.818638441
O   -4.525369970    2.625345844   -12.595149320
C   -4.473507610    1.518599923   -12.113989138
C   -3.729889144    1.171747546   -10.919560521
H   -3.915252351    0.209339402   -10.485084991
C   -2.885002446    2.078409554   -10.369429017
H   -2.717621005    2.980490428   -10.931428167
C   -2.212932296    2.000620451    -9.096880502
C   -1.380356542    3.053348832    -8.675335366
H   -1.238905764    3.908107871    -9.313532812
C   -0.747600493    3.030838367    -7.449204480
H   -0.087217993    3.828735671    -7.160329954
C   -0.910128680    1.942196283    -6.568158175
O   -0.232399874    1.838898433    -5.482051029
C   -1.812775964    0.923624695    -6.961962464
H   -1.983330796    0.105483626    -6.286190629
C   -2.423188472    0.942806815    -8.193539854
H   -3.078396040    0.131266319    -8.455849365
H    3.931488705   -0.281476728    -3.926147169
H   -6.911157744    1.644911754   -14.052567283
