15
4-aminobenzonitrile S0; source-explicit computational coordinates, Dreyer and Kummrow SI Table 11, CAS(4e,4o)/6-31G(d), angstrom
C   0.004426  -1.706571   0.000000
C   0.004426   1.093559   0.000000
C   0.004426  -0.997759   1.199345
C   0.004426  -0.997759  -1.199345
C   0.004426   0.388706   1.205322
C   0.004426   0.388706  -1.205322
C   0.004426   2.537604   0.000000
N   0.004426   3.674057   0.000000
H   0.004426  -1.531756   2.133006
H   0.004426  -1.531756  -2.133006
H   0.004426   0.921726   2.137528
H   0.004426   0.921726  -2.137528
N   0.053635  -3.096642   0.000000
H  -0.305017  -3.530377   0.823025
H  -0.305017  -3.530377  -0.823025
