40
Photolyase FADH- QM1 S0 minimum; verbatim CASSCF(12,10)/6-31G*/AMBER coordinates from official RSC SI pp. S22-S23
O -2.627536 4.942237 15.142529
C -1.536261 4.522338 14.804772
N -0.471255 4.505082 15.654494
H -0.655317 4.725058 16.616207
C 0.773253 3.980735 15.357238
O 1.569776 3.880670 16.283463
N 1.039230 3.636236 14.092295
C 0.004147 3.588579 13.203467
C -1.250201 4.016038 13.497579
N -2.371490 3.639284 12.692759
H -3.147395 4.245608 12.851549
C -2.068343 3.439884 11.334558
C -3.074209 3.531647 10.383314
H -4.035728 3.901890 10.693518
C -2.884806 3.141266 9.054254
C -4.049254 3.191857 8.086227
H -3.743763 3.488942 7.089956
H -4.798780 3.892761 8.424703
H -4.536146 2.225084 7.979076
C -1.626916 2.661371 8.694475
C -1.361387 2.148172 7.293655
H -0.402254 1.651650 7.230595
H -1.353166 2.950625 6.562791
H -2.127600 1.444559 6.980057
C -0.596523 2.647169 9.652507
H 0.357340 2.293485 9.328826
C -0.775289 3.038268 10.969181
N 0.259291 3.012247 11.953469
C 1.640161 2.766695 11.561758
H 2.292873 3.382047 12.155602
H 1.780456 3.098767 10.545859
C 2.089745 1.317979 11.689757
O 1.213044 0.509250 10.927981
H 1.245213 -0.359201 11.340988
H 3.088573 1.265288 11.260790
C 2.173259 0.771712 13.121743
O 3.074219 1.539154 13.878898
H 2.578371 2.340209 14.129713
H 1.189198 0.807203 13.573228
H 2.357148 -0.320302 13.038094
