14
all-E-1,3,5-hexatriene S0 planar minimum; verbatim BLYP/6-31G(d,p) Cartesian coordinates from official ACS SI p. 7
C 0.000000 0.682996 0.000000
C 0.000000 -0.682996 0.000000
C 1.197244 1.505354 0.000000
C -1.197244 -1.505354 0.000000
C 1.201519 2.860475 0.000000
C -1.201519 -2.860475 0.000000
H -0.962193 1.211578 0.000000
H 0.962193 -1.211578 0.000000
H 2.155269 0.970201 0.000000
H -2.155269 -0.970201 0.000000
H 0.270669 3.434945 0.000000
H -0.270669 -3.434945 0.000000
H 2.131434 3.432095 0.000000
H -2.131434 -3.432095 0.000000
