16
VERBATIM RSC SI CASSCF(12,12)/6-31G(d) cis-isomer coordinates in BOHR; representative of consolidated cis/trans entry; DOI 10.1039/b511229j
C 0.6902526608 -3.1815880322 0.0000000000
C -1.9215184179 -3.6668108193 0.0000000000
C -3.5990072543 -1.6079097226 0.0000000000
C -2.6719359350 0.8325143465 0.0000000000
C -0.0527510009 1.3208688243 0.0000000000
C 1.6410850259 -0.7424050823 0.0000000000
N 0.3803828914 3.9571084914 0.0000000000
N -2.8100694404 -6.0930842550 0.0000000000
H 1.9904887811 -4.7437532391 0.0000000000
H -5.6045071892 -1.9343492049 0.0000000000
H -3.9485563271 2.4088583332 0.0000000000
H 3.6271364736 -0.4291736203 0.0000000000
H -4.6489092901 -6.4554004706 0.0000000000
H -1.6377978194 -7.5555424499 0.0000000000
O 2.5793921889 4.8946710302 0.0000000000
O 4.6286322190 3.4398518534 0.0000000000
