16
VERBATIM RSC SI B3LYP/6-31G(d) Cs constrained geometry used for CASSCF/CASPT2 spectrum; one imaginary mode; DOI 10.1039/b511229j
C 0.595415 -1.587634 0.000000
C -0.772148 -1.948321 0.000000
C -1.741819 -0.926798 0.000000
C -1.353765 0.407211 0.000000
C 0.000000 0.746933 0.000000
C 0.976886 -0.257339 0.000000
H 1.352264 -2.368545 0.000000
H -2.797415 -1.186464 0.000000
H -2.095741 1.199954 0.000000
H 2.025285 0.017876 0.000000
N 0.276691 2.154488 0.000000
N -1.141436 -3.269602 0.000000
H -2.111367 -3.539066 0.000000
H -0.451546 -4.002646 0.000000
O 1.494020 2.442524 0.730000
O 1.494020 2.442524 -0.730000
