14
VERBATIM RSC SI CASSCF(8,8)/6-31G(d) Cs minimum coordinates; numeric values/ordering as published (units not stated); DOI 10.1039/b511229j
N -0.004558 -2.878514 0.000000
C -0.005713 -1.542730 0.000000
C -0.007323 -0.811245 1.222457
C -0.007323 -0.811245 -1.222457
C -0.005852 0.572190 1.211986
C -0.005852 0.572190 -1.211986
C 0.000000 1.287337 0.000000
N -0.055314 2.687360 0.000000
H -0.009746 -1.350488 2.151516
H -0.009746 -1.350488 -2.151516
H -0.015013 1.111230 2.143297
H -0.015013 1.111230 -2.143297
H 0.330499 3.108808 0.818056
H 0.330499 3.108808 -0.818056
