21
HBI- anion S0 minimum; verbatim CASSCF(14,12)/6-31G* Cartesian coordinates from official AIP SI Table 3S
C -2.3295119532 1.6375408265 0.0000000000
C -1.4280205839 0.6131055864 0.0000000000
C -0.0180235481 0.8445098320 0.0000000000
C 0.3918218618 2.2108497431 0.0000000000
C -0.4892339319 3.2523381144 0.0000000000
C -1.9264457110 3.0365555203 0.0000000000
H -3.3876865274 1.4370659612 0.0000000000
H 1.4501427228 2.4210405114 0.0000000000
H -0.1431125105 4.2719709340 0.0000000000
C 0.9558342919 -0.1556488976 0.0000000000
H 1.9742043032 0.2009903450 0.0000000000
C 2.0751470169 -2.3817960610 0.0000000000
C 0.1564646479 -3.5579551675 0.0000000000
C 0.8956116222 -1.5355098076 0.0000000000
O 3.2665734666 -2.1380327554 0.0000000000
N -0.2555961044 -2.3439367287 0.0000000000
N 1.5364850705 -3.6650914153 0.0000000000
H 2.0780107148 -4.4957063878 0.0000000000
H -0.4750165609 -4.4245372897 0.0000000000
O -2.7409275141 3.9624756381 0.0000000000
H -1.7757977731 -0.4021475019 0.0000000000
