22
ImOHZ,PhO- cis dye; MP2/cc-pVDZ stationary geometry from SI Table S2.11
N     0.00000000    0.56926000    3.83335000
H     0.00001000    0.52762000    4.84801000
C    -0.00001000    1.69335000    3.03226000
H    -0.00001000    2.69975000    3.44922000
N    -0.00001000    1.38575000    1.74585000
C    -0.00001000   -0.00817000    1.68963000
C     0.00000000   -0.51320000    3.00205000
O     0.00002000   -1.75107000    3.54892000
C    -0.00001000   -0.81688000    0.49728000
H    -0.00001000   -1.90470000    0.67405000
C    -0.00001000   -0.43816000   -0.83338000
C     0.00000000    0.94932000   -1.28233000
H     0.00001000    1.73459000   -0.52218000
C     0.00001000    1.24918000   -2.61615000
H     0.00002000    2.28894000   -2.96185000
C     0.00000000    0.21014000   -3.66832000
C    -0.00001000   -1.18677000   -3.18432000
H    -0.00001000   -1.97322000   -3.94680000
C    -0.00001000   -1.48200000   -1.85111000
H    -0.00002000   -2.52776000   -1.51644000
O     0.00001000    0.49044000   -4.87504000
H     0.00002000   -2.38624000    2.81680000
