20
ImNH,ImOHZ cis dye; MP2/cc-pVDZ stationary geometry from SI Table S2.26
C    -0.00000000   -0.80842000   -0.01247000
C    -0.00000000   -0.10344000    1.22356000
N    -0.00000000    1.29606000    1.28125000
C    -0.00000000    1.60156000    2.56729000
N    -0.00000000    0.47176000    3.35805000
C    -0.00000000   -0.61527000    2.53984000
O    -0.00000000   -1.83171000    3.08848000
C    -0.00000000   -0.18400000   -1.23508000
N    -0.00000000    1.20789000   -1.41300000
C     0.00000000    1.49545000   -2.70650000
N     0.00000000    0.37042000   -3.43814000
C     0.00000000   -0.79769000   -2.57821000
O     0.00000000   -1.94993000   -2.94674000
H    -0.00000000   -1.90561000   -0.03887000
H    -0.00000000    2.60598000    2.98900000
H     0.00001000    0.43348000    4.37622000
H     0.00000000    2.50774000   -3.11319000
H     0.00000000    0.33122000   -4.45657000
H    -0.00000000   -2.50364000    2.38792000
H    -0.00000000    1.83204000   -0.58596000
