22
ImO-,PhOHZ cis dye; MP2/cc-pVDZ stationary geometry from SI Table S2.8
N     0.00000000    0.00000000    0.00000000
H     0.00000000    0.00000000    1.01430000
C     0.00000000    1.10353000   -0.83297000
H    -0.00001000    2.11664000   -0.42179000
N     0.00001000    0.83753000   -2.11716000
C     0.00002000   -0.57180000   -2.17912000
C     0.00002000   -1.15989000   -0.79904000
O     0.00002000   -2.31853000   -0.41310000
C     0.00004000   -1.36553000   -3.29305000
H     0.00004000   -2.44229000   -3.07035000
C     0.00005000   -0.98370000   -4.69870000
C     0.00006000    0.36321000   -5.14116000
H     0.00006000    1.16618000   -4.39998000
C     0.00007000    0.65716000   -6.50881000
H     0.00008000    1.70412000   -6.83809000
C     0.00008000   -0.37552000   -7.46804000
C     0.00006000   -1.71674000   -7.04225000
H     0.00007000   -2.50933000   -7.79656000
C     0.00005000   -2.01113000   -5.67601000
H     0.00004000   -3.05780000   -5.35051000
O     0.00009000   -0.14229000   -8.81406000
H     0.00010000    0.81802000   -8.94153000
