19
ImOHZ,ImO- cis dye; MP2/cc-pVDZ stationary geometry from SI Table S2.14
C    -0.00000000   -0.51802000   -0.05387000
C    -0.00000000    0.08235000    1.25069000
N    -0.00000000    1.44783000    1.53027000
C    -0.00000000    1.53285000    2.84897000
N    -0.00000000    0.28986000    3.45771000
C    -0.00000000   -0.63774000    2.45755000
O    -0.00000000   -1.95160000    2.78334000
C    -0.00000000    0.06537000   -1.29082000
N     0.00000000    1.43594000   -1.61409000
C     0.00000000    1.44652000   -2.92442000
N     0.00000000    0.19830000   -3.53323000
C     0.00000000   -0.78000000   -2.52724000
O     0.00000000   -1.99595000   -2.67381000
H    -0.00000000   -1.61864000   -0.10410000
H    -0.00000000    2.45447000    3.43030000
H     0.00001000    0.08072000    4.45115000
H     0.00000000    2.35938000   -3.52629000
H     0.00000000    0.00189000   -4.52806000
H    -0.00000000   -2.44890000    1.95083000
