21
ImO-,PhO- cis dye; MP2/cc-pVDZ stationary geometry from SI Table S2.7
N     0.00001000    0.48726000    3.90774000
H     0.00003000    0.43641000    4.91962000
C    -0.00000000    1.62549000    3.12295000
H     0.00000000    2.62655000    3.56302000
N    -0.00001000    1.37799000    1.82879000
C    -0.00001000   -0.02515000    1.73178000
C     0.00001000   -0.65000000    3.06283000
O     0.00002000   -1.82479000    3.45338000
C    -0.00001000   -0.78941000    0.56328000
H    -0.00001000   -1.87149000    0.77384000
C    -0.00001000   -0.41940000   -0.80170000
C    -0.00001000    0.94124000   -1.27139000
H    -0.00001000    1.74061000   -0.52307000
C    -0.00000000    1.23034000   -2.62133000
H     0.00001000    2.27263000   -2.96684000
C     0.00001000    0.20358000   -3.66976000
C    -0.00001000   -1.16718000   -3.15394000
H    -0.00000000   -1.97307000   -3.89916000
C    -0.00001000   -1.45082000   -1.80239000
H    -0.00002000   -2.49686000   -1.46212000
O     0.00002000    0.47684000   -4.89375000
