24
PhO-,PhO- cis dye; MP2/cc-pVDZ stationary geometry from SI Table S2.1
C    -0.00002000   -1.13835000   -0.00000000
C     0.03847000   -0.56676000    1.29314000
C     0.32979000    0.81233000    1.59153000
C     0.32049000    1.29047000    2.88628000
C     0.00913000    0.45399000    4.05122000
C    -0.22615000   -0.95458000    3.72139000
C    -0.19520000   -1.42619000    2.42613000
O    -0.01939000    0.89836000    5.22096000
C    -0.03853000   -0.56677000   -1.29315000
C     0.19518000   -1.42620000   -2.42613000
C     0.22621000   -0.95456000   -3.72139000
C    -0.00909000    0.45400000   -4.05121000
C    -0.32049000    1.29048000   -2.88627000
C    -0.32984000    0.81231000   -1.59154000
O     0.01942000    0.89836000   -5.22095000
H    -0.00000000   -2.24242000    0.00001000
H     0.62965000    1.47916000    0.77686000
H     0.57750000    2.33682000    3.09401000
H    -0.42496000   -1.63059000    4.56234000
H    -0.38328000   -2.49154000    2.22937000
H     0.38331000   -2.49154000   -2.22937000
H     0.42505000   -1.63057000   -4.56234000
H    -0.57750000    2.33682000   -3.09400000
H    -0.62972000    1.47914000   -0.77687000
