18
ImO-,ImO- cis dye; MP2/cc-pVDZ stationary geometry from SI Table S2.10
C    -0.00000000   -0.50589000    0.00000000
C    -0.00000000    0.05937000    1.27850000
N    -0.00000000    1.42940000    1.59851000
C    -0.00000000    1.46152000    2.91526000
N    -0.00000000    0.20915000    3.50628000
C    -0.00000000   -0.77485000    2.48638000
O    -0.00000000   -1.99905000    2.68769000
C    -0.00000000    0.05937000   -1.27849000
N     0.00000000    1.42940000   -1.59851000
C     0.00000000    1.46152000   -2.91526000
N     0.00000000    0.20915000   -3.50628000
C     0.00000000   -0.77485000   -2.48638000
O     0.00000000   -1.99905000   -2.68769000
H    -0.00000000   -1.60720000    0.00000000
H    -0.00000000    2.37672000    3.51505000
H     0.00001000   -0.00915000    4.49544000
H     0.00000000    2.37672000   -3.51506000
H     0.00000000   -0.00915000   -4.49544000
