19
ImNH,ImO- cis dye; MP2/cc-pVDZ stationary geometry from SI Table S2.25
C    -0.00000000   -0.81763000   -0.04302000
C    -0.00000000   -0.19275000    1.22365000
N    -0.00000000    1.18755000    1.36162000
C    -0.00000000    1.53982000    2.64937000
N    -0.00000000    0.40304000    3.38652000
C    -0.00000000   -0.77779000    2.55296000
O    -0.00000000   -1.92950000    2.97587000
C    -0.00000000   -0.13335000   -1.24153000
N    -0.00000000    1.27575000   -1.33991000
C     0.00000000    1.52222000   -2.63437000
N     0.00000000    0.39365000   -3.41854000
C     0.00000000   -0.75494000   -2.58323000
O     0.00000000   -1.92059000   -2.95572000
H    -0.00000000   -1.91364000   -0.07037000
H    -0.00000000    2.55907000    3.02792000
H     0.00001000    0.36153000    4.40141000
H     0.00000000    2.52466000   -3.06887000
H     0.00000000    0.35929000   -4.43253000
H    -0.00000000    1.77641000    0.51043000
