14
(E)-penta-3,5-dieniminium cation FC180 minimum; CASSCF(6,6)/6-31G* coordinates from SI Table S13
C    0.233793   -0.000284   -3.098412
C   -0.430478    0.000107   -1.928152
H    1.307160   -0.000492   -3.142191
H   -0.289009   -0.000453   -4.034259
H   -1.505024    0.000267   -1.913648
C    0.258417    0.000256   -0.653125
C   -0.364935    0.000167    0.551377
H    1.334630    0.000282   -0.683266
H   -1.437053    0.000021    0.627348
C    0.405209    0.000115    1.753773
H    1.478099    0.000339    1.702247
N   -0.106106   -0.000250    2.936922
H    0.467643   -0.000280    3.757211
H   -1.097463   -0.000502    3.085191
