23
ImNH,PhOHE cis dye; MP2/cc-pVDZ stationary geometry from SI Table S2.24
N    -0.00000000    0.42277000    3.99763000
H     0.00001000    0.34597000    5.01466000
C    -0.00002000    1.56683000    3.31178000
H    -0.00002000    2.56616000    3.74963000
N    -0.00002000    1.32688000    2.00247000
C    -0.00000000   -0.06005000    1.75888000
C     0.00001000   -0.71202000    3.08967000
O     0.00002000   -1.87363000    3.42073000
C     0.00000000   -0.77147000    0.58319000
H     0.00001000   -1.85367000    0.78113000
C     0.00000000   -0.38237000   -0.80130000
C     0.00002000    0.95665000   -1.28562000
H     0.00004000    1.81529000   -0.60821000
C     0.00002000    1.22394000   -2.64995000
H     0.00004000    2.25012000   -3.02834000
C     0.00000000    0.16199000   -3.58724000
C    -0.00002000   -1.17295000   -3.12750000
H    -0.00003000   -2.00251000   -3.84337000
C    -0.00002000   -1.43500000   -1.75864000
H    -0.00003000   -2.47336000   -1.40962000
O     0.00000000    0.50866000   -4.88655000
H    -0.00001000   -0.29380000   -5.43352000
H    -0.00003000    2.06462000    1.30380000
