13
VERBATIM CASSCF(8,8)/6-31G(d) singlet cyclopropylidene endpoint-of-IRC geometry from ACS Supporting Information, p. S2 (angstrom)
C -0.181928 -0.972731 -0.342909
C -1.264391 -1.070794 0.706743
C -1.431444 -0.114694 -0.427426
C -0.955250 1.250903 -0.011565
C 0.371251 1.264111 0.220289
C 0.968896 -0.058598 -0.033996
C 2.269333 -0.385944 -0.000594
H -0.020005 -1.870791 -0.915325
H -2.250516 -0.226056 -1.117074
H -1.630546 2.071626 0.134067
H 0.938089 2.114462 0.548910
H 3.020548 0.342544 0.246256
H 2.606732 -1.384024 -0.212295
