25
PhOHZ,PhO- cis dye; MP2/cc-pVDZ stationary geometry from SI Table S2.2
C     0.20783000   -1.28233000   -0.11317000
C     0.13317000   -0.67305000    1.21645000
C     0.64388000    0.61653000    1.49851000
C     0.56350000    1.15656000    2.78964000
C    -0.02603000    0.41978000    3.83345000
C    -0.51140000   -0.87707000    3.57611000
C    -0.41869000   -1.41609000    2.29012000
O    -0.13897000    0.88891000    5.11021000
C     0.06129000   -0.66000000   -1.33729000
C     0.30524000   -1.43159000   -2.55290000
C     0.24301000   -0.86081000   -3.79093000
C    -0.11179000    0.56345000   -3.97319000
C    -0.43929000    1.30359000   -2.73369000
C    -0.35465000    0.73019000   -1.49665000
O    -0.15903000    1.09612000   -5.08914000
H     0.38958000   -2.36748000   -0.13341000
H     1.15251000    1.18201000    0.71230000
H     0.97964000    2.15149000    2.98994000
H    -0.95163000   -1.44554000    4.40052000
H    -0.79805000   -2.42690000    2.10262000
H     0.57724000   -2.48853000   -2.44079000
H     0.45210000   -1.43571000   -4.69937000
H    -0.77771000    2.33772000   -2.86005000
H    -0.65026000    1.29524000   -0.60747000
H     0.23424000    1.78243000    5.12834000
