13
VERBATIM CASSCF(8,8)/6-31G(d) singlet alpha,3-didehydrotoluene biradical geometry from ACS Supporting Information, p. S5 (angstrom)
C 0.086383 2.365624 0.000000
C 0.000000 0.966646 0.000000
C 1.176048 0.147314 0.000000
C 1.101315 -1.237042 0.000000
C -0.148747 -1.888267 0.000000
C -1.281210 -1.078690 0.000000
C -1.264981 0.297806 0.000000
H 1.036851 2.864734 0.000000
H -0.795674 2.977605 0.000000
H 2.137783 0.628635 0.000000
H 2.005474 -1.819639 0.000000
H -0.221019 -2.959566 0.000000
H -2.176255 0.867875 0.000000
