43
cis-[RuVI(bpy)2(O)2]2+ M06-L singlet geometry copied from official SI, section C.I
Ru   0.00005500  -0.96142800  -0.00007100
N   -2.05008400  -0.91099300   0.51549700
C   -2.59851500  -1.78698500   1.37334300
C   -3.96485200  -1.81490300   1.60981600
C   -4.77629300  -0.90911000   0.93266800
C   -4.20041000  -0.00073100   0.05058600
C   -2.82181400  -0.01119000  -0.15547900
N   -0.77143400   0.77678100  -1.14138500
C   -0.05455100   1.58050100  -1.93623800
C   -0.64342700   2.57961000  -2.69923600
C   -2.02421200   2.73818700  -2.63026500
C   -2.76604400   1.90173400  -1.80426000
C   -2.12064900   0.91330500  -1.06007000
N    0.77127400   0.77704700   1.14087800
C    0.05430200   1.58067300   1.93574500
C    0.64318100   2.57924400   2.69944300
C    2.02406500   2.73729200   2.63125200
C    2.76598800   1.90097300   1.80519000
C    2.12057600   0.91317500   1.06018100
N    2.05022900  -0.91122900  -0.51532600
C    2.59879100  -1.78710000  -1.37319900
C    3.96509200  -1.81455600  -1.60999000
C    4.77634900  -0.90834000  -0.93320400
C    4.20033700  -0.00010500  -0.05104700
C    2.82181100  -0.01110000   0.15543100
H   -1.90663800  -2.46395400   1.86991700
H   -4.37541100  -2.53771400   2.30891000
H   -5.85223900  -0.90660500   1.08924100
H   -4.82829000   0.70998200  -0.47869300
H    1.01833800   1.39948300  -1.96224500
H   -0.02905300   3.20694000  -3.33865000
H   -2.52324000   3.50465400  -3.21810100
H   -3.84460400   2.01684100  -1.74777100
H   -1.01866600   1.40005000   1.96112600
H    0.02873300   3.20653200   3.33882700
H    2.52310800   3.50324000   3.21975400
H    3.84463200   2.01562100   1.74940000
H    1.90706300  -2.46438300  -1.86955200
H    4.37573000  -2.53729800  -2.30910900
H    5.85224600  -0.90536800  -1.09011400
H    4.82807400   0.71099900   0.47787700
O   -0.40736800  -1.74771800  -1.43705300
O    0.40731100  -1.74739100   1.43713600
