26
PhOHZ,PhOHZ cis dye; MP2/cc-pVDZ stationary geometry from SI Table S2.3
C     0.00016000   -1.23718000   -0.00001000
C     0.04163000   -0.63352000    1.28201000
C     0.42741000    0.72539000    1.51429000
C     0.42156000    1.24753000    2.80040000
C     0.02326000    0.43925000    3.89833000
C    -0.32209000   -0.92109000    3.69173000
C    -0.28566000   -1.45211000    2.41285000
O    -0.01551000    0.88093000    5.15842000
C    -0.04134000   -0.63348000   -1.28200000
C     0.28564000   -1.45211000   -2.41292000
C     0.32180000   -0.92112000   -3.69181000
C    -0.02342000    0.43927000   -3.89833000
C    -0.42136000    1.24761000   -2.80031000
C    -0.42712000    0.72543000   -1.51422000
O     0.01514000    0.88094000   -5.15843000
H     0.00013000   -2.33825000   -0.00002000
H     0.80870000    1.33441000    0.69077000
H     0.75285000    2.27721000    2.97584000
H    -0.59712000   -1.52753000    4.55912000
H    -0.54875000   -2.50333000    2.25264000
H     0.54868000   -2.50336000   -2.25274000
H     0.59661000   -1.52757000   -4.55925000
H    -0.75264000    2.27731000   -2.97570000
H    -0.80813000    1.33452000   -0.69061000
H     0.23690000    1.81913000    5.18841000
H    -0.23715000    1.81918000   -5.18839000
