20
ImOHZ,ImOHZ cis dye; MP2/cc-pVDZ stationary geometry from SI Table S2.15
C    -0.00000000   -0.57851000   -0.00001000
C    -0.00000000    0.03868000    1.25643000
N    -0.00000000    1.41788000    1.48429000
C    -0.00000000    1.54775000    2.78848000
N    -0.00000000    0.31779000    3.45673000
C    -0.00000000   -0.64675000    2.51866000
O    -0.00000000   -1.92006000    2.89741000
C    -0.00000000    0.03874000   -1.25631000
N    -0.00000000    1.41797000   -1.48428000
C     0.00000000    1.54787000   -2.78837000
N     0.00000000    0.31777000   -3.45670000
C     0.00000000   -0.64670000   -2.51870000
O     0.00000000   -1.92004000   -2.89753000
H    -0.00000000   -1.68022000   -0.00016000
H    -0.00000000    2.48883000    3.33925000
H     0.00000000    0.15530000    4.46335000
H     0.00000000    2.48887000   -3.33926000
H     0.00000000    0.15539000   -4.46334000
H    -0.00000000   -2.49672000    2.11692000
H     0.00000000   -2.49696000   -2.11717000
