43
trans-[RuVI(bpy)2(O)2]2+ M06-L singlet geometry copied from official SI, section C.I
C   -2.90659600   0.71080400   0.17041800
C   -4.06220400   1.43277500   0.46572900
C   -3.96876000   2.76691800   0.84104400
C   -2.71086400   3.35057200   0.94806400
C   -1.59635300   2.58409700   0.64146900
N   -1.68890800   1.31418200   0.22131000
H   -4.86635500   3.33362000   1.07577700
H   -5.03273700   0.94682400   0.42879100
H   -2.58324900   4.37702400   1.27913800
H   -0.59410000   2.98249100   0.76739700
C   -2.90659600  -0.71080400  -0.17041800
C   -4.06220400  -1.43277500  -0.46572900
N   -1.68890800  -1.31418200  -0.22131000
C   -3.96876000  -2.76691800  -0.84104400
H   -5.03273700  -0.94682400  -0.42879100
C   -1.59635300  -2.58409700  -0.64146900
C   -2.71086400  -3.35057200  -0.94806400
H   -4.86635500  -3.33362000  -1.07577700
H   -0.59410000  -2.98249100  -0.76739700
H   -2.58324900  -4.37702400  -1.27913800
Ru   0.00000000   0.00000000   0.00000000
N    1.68890800   1.31418200  -0.22131000
C    1.59635300   2.58409700  -0.64146900
C    2.90659600   0.71080400  -0.17041800
C    2.71086400   3.35057200  -0.94806400
H    0.59410000   2.98249100  -0.76739700
C    4.06220400   1.43277500  -0.46572900
C    3.96876000   2.76691800  -0.84104400
H    2.58324900   4.37702400  -1.27913800
H    5.03273700   0.94682400  -0.42879100
H    4.86635500   3.33362000  -1.07577700
N    1.68890800  -1.31418200   0.22131000
C    1.59635300  -2.58409700   0.64146900
C    2.90659600  -0.71080400   0.17041800
C    2.71086400  -3.35057200   0.94806400
H    0.59410000  -2.98249100   0.76739700
C    4.06220400  -1.43277500   0.46572900
C    3.96876000  -2.76691800   0.84104400
H    2.58324900  -4.37702400   1.27913800
H    5.03273700  -0.94682400   0.42879100
H    4.86635500  -3.33362000   1.07577700
O    0.00000000   0.00000000  -1.71302900
O    0.00000000   0.00000000   1.71302900
