20
ImNH,ImNH cis dye; MP2/cc-pVDZ stationary geometry from SI Table S2.28
C    -0.00000000   -0.46174000    0.00000000
C    -0.00000000    0.05015000    1.29325000
N    -0.00000000    1.36780000    1.77463000
C    -0.00000000    1.38064000    3.11180000
N    -0.00000000    0.12499000    3.56815000
C    -0.00000000   -0.82733000    2.47179000
O    -0.00000000   -2.03399000    2.59170000
C    -0.00000000    0.05021000   -1.29325000
N     0.00000000    1.36780000   -1.77468000
C     0.00000000    1.38059000   -3.11185000
N     0.00000000    0.12492000   -3.56816000
C     0.00000000   -0.82734000   -2.47177000
O     0.00000000   -2.03401000   -2.59159000
H    -0.00000000   -1.56362000   -0.00008000
H    -0.00000000    2.28508000    3.71949000
H     0.00001000   -0.14206000    4.55196000
H     0.00000000    2.28502000   -3.71957000
H     0.00000000   -0.14216000   -4.55195000
H    -0.00000000    2.22604000    1.23406000
H     0.00000000    2.22612000   -1.23422000
