16
o-phthalaldehyde FC minimum; CASSCF(10,10)/6-31G* Cartesian coordinates from ESI page 9
C   -1.32500600   -1.38060200    0.00046900
C   -2.43632600   -0.53991900   -0.00001600
C   -2.24942500    0.84065000   -0.00025300
C   -0.95827300    1.36615000    0.00005900
C    0.16705100    0.53394800    0.00043100
C   -0.02140900   -0.86862800    0.00058600
H   -1.46973900   -2.44662400    0.00050500
H   -3.42660400   -0.95734100   -0.00029300
H   -3.09645000    1.50225600   -0.00073600
H   -0.80622300    2.42784000   -0.00014300
C    1.50970300    1.19803600    0.00034300
C    1.06521100   -1.88781800   -0.00004400
O    2.25215500   -1.67344700   -0.00245500
H    2.38811900    0.57112900    0.00065200
O    1.61725100    2.40281300    0.00017900
H    0.71031400   -2.91831500    0.00079800
