23
ImOHZ,PhOHZ cis dye; MP2/cc-pVDZ stationary geometry from SI Table S2.12
N     0.60738000    0.00002000    3.82154000
H     1.35041000    0.00010000    4.51974000
C    -0.77148000    0.00006000    4.04587000
H    -1.18213000    0.00009000    5.05553000
N    -1.45000000    0.00002000    2.93066000
C    -0.49778000   -0.00002000    1.89132000
C     0.81349000   -0.00001000    2.49427000
O     2.06113000   -0.00003000    2.06040000
C    -1.01249000   -0.00004000    0.59187000
H    -2.10840000   -0.00004000    0.64820000
C    -0.50991000   -0.00005000   -0.74535000
C     0.84735000   -0.00003000   -1.17105000
H     1.67984000   -0.00005000   -0.46726000
C     1.18334000   -0.00000000   -2.51954000
H     2.23565000    0.00001000   -2.81787000
C     0.16941000    0.00002000   -3.51023000
C    -1.18636000    0.00000000   -3.11655000
H    -1.95707000    0.00002000   -3.89092000
C    -1.51178000   -0.00003000   -1.76791000
H    -2.56390000   -0.00003000   -1.47093000
O     0.42051000    0.00006000   -4.82434000
H     2.07011000   -0.00006000    1.09181000
H     1.37804000    0.00007000   -4.97849000
