23
2-phenylphenol | PubChem CID 7017 3D conformer | GENERATED structure, NOT the geometry used in the referenced paper
O       0.801900    -2.205900     0.001000
C       0.655700     0.193300     0.000500
C      -0.790500     0.153000     0.000500
C       1.406400    -0.983800     0.000400
C       1.303300     1.430000     0.000000
C      -1.487200     0.133200    -1.207800
C      -1.488300     0.134600     1.208200
C       2.800000    -0.924200    -0.000100
C       2.696900     1.489600    -0.000500
C      -2.881500     0.095000    -1.208400
C      -2.882600     0.096300     1.207500
C       3.445200     0.312500    -0.000500
C      -3.579200     0.076400    -0.000700
H       0.736500     2.358300     0.000000
H      -0.958800     0.147000    -2.158200
H      -0.960800     0.149400     2.159100
H       3.396400    -1.832600    -0.000200
H       3.199400     2.452400    -0.000900
H      -3.424000     0.079500    -2.149100
H      -3.426000     0.081900     2.147800
H       4.530300     0.359100    -0.000800
H      -4.664800     0.046500    -0.001200
H       1.483900    -2.899200     0.000900
