28
(+)-cis-pinane; exact CASSCF(4,4)/6-31G(d,p) optimized reactant coordinates from official RSC ESI
C  -0.01165300  -0.34190600  -1.01971800
C   1.04830300  -0.36656900   0.17907500
C   2.42130600  -0.83792200  -0.32163100
C   0.91167700   1.17925700   0.14829400
C  -0.32585000   1.67125100   0.90414100
C  -1.60364100   0.83689400   0.59659300
C  -1.47360000  -0.17911400  -0.57798300
C   0.52822400   1.05991500  -1.37241100
C   0.76612200  -1.10830800   1.48718900
C  -2.17829000  -1.50354100  -0.27150700
H   1.79019200   1.76178600   0.41346700
H   0.08389400  -1.12371400  -1.76884200
H  -0.13691100   1.66144400   1.97417900
H  -0.48858700   2.71198000   0.63640800
H  -1.89064100   0.29620400   1.49139100
H  -2.43218100   1.50780700   0.39324700
H   1.38319800   1.05222200  -2.03428200
H  -0.19476300   1.77749400  -1.74860000
H   0.76146200  -2.18276700   1.32470300
H   1.55426400  -0.89475900   2.20538400
H  -0.17193000  -0.84259800   1.95090500
H   3.18723500  -0.62165800   0.41873600
H   2.41550300  -1.91267000  -0.48350900
H   2.72496500  -0.37096600  -1.24994100
H  -1.98527800   0.24438800  -1.44047500
H  -3.22197200  -1.33270000  -0.02089100
H  -2.15195100  -2.16290200  -1.13474600
H  -1.72209200  -2.02833400   0.56062000
