28
(-)-beta-citronellene; exact CASSCF(4,4)/6-31G(d,p) optimized product coordinates from official RSC ESI
C  -1.75130000   1.05294400  -0.38180200
C  -2.08590300   2.18999700   0.24114300
C   1.18328700   0.23027800   0.67498100
C   2.32784400   0.10917300  -0.02187800
C   3.13453100   1.32853700  -0.40345700
C   0.27232400  -0.88698600   1.13304700
C  -0.85503600  -1.27201600   0.15540200
C  -2.07622200  -0.33598700   0.11560700
C   2.91872800  -1.19954800  -0.49109600
C  -3.18069000  -0.95169400  -0.75707500
H   0.86518100   1.22622900   0.93213100
H  -1.24611900   1.10796100  -1.33510500
H   0.85889200  -1.77713100   1.33393900
H  -0.17063100  -0.60602300   2.08630700
H  -0.44335400  -1.37100800  -0.84756000
H  -1.21517600  -2.25992600   0.43477100
H  -1.85682800   3.15242400  -0.18171600
H  -2.59440900   2.18704500   1.19086700
H   3.03108600  -1.19694600  -1.57298500
H   3.91236000  -1.34258700  -0.07208400
H   2.31811200  -2.05907500  -0.22575900
H   4.14007700   1.27327200   0.00829900
H   3.23967600   1.40385400  -1.48371800
H   2.67583400   2.24335600  -0.04630700
H  -2.46245800  -0.24783200   1.13000300
H  -3.45999800  -1.93743600  -0.39644000
H  -4.06818600  -0.32750600  -0.75668700
H  -2.84943800  -1.05687200  -1.78719100
