28
(+)-trans-pinane; exact CASSCF(4,4)/6-31G(d,p) optimized reactant coordinates from official RSC ESI
C   0.01682300  -0.18598300  -1.59430300
C  -0.10652400  -0.93850100  -0.25048500
C  -1.32763200  -0.42957000   0.53095400
C  -1.54092500   1.08734000   0.27235600
C  -0.27115600   1.85798800  -0.17263500
C   0.75637600   0.92353000  -0.81763300
C   1.22788400  -0.19703400   0.21134500
C   2.48632500  -0.92930500  -0.26655200
C   1.41839300   0.17029000   1.68222700
C  -2.59124000  -1.22000100   0.18167600
H  -1.13842300  -0.58852900   1.58881700
H   1.53878200   1.47802600  -1.32801700
H  -0.07272300  -2.02470300  -0.26785200
H   0.18161100   2.38506100   0.66119500
H  -0.55971400   2.62230100  -0.88987000
H  -1.97705200   1.55390900   1.15100500
H  -2.28573800   1.18863600  -0.51109700
H   0.64660300  -0.69797000  -2.30888200
H  -0.90222000   0.09233200  -2.09889900
H   1.57104500  -0.72614600   2.27824200
H   2.30134500   0.79349400   1.80119400
H   0.58364000   0.70704100   2.11213200
H   3.36103200  -0.29435600  -0.15132300
H   2.65105100  -1.82541300   0.32628200
H   2.43795700  -1.23113800  -1.30551100
H  -3.45479300  -0.82737100   0.71183600
H  -2.80748800  -1.17082300  -0.88241300
H  -2.48485400  -2.26687800   0.45146500
