14
keto-N9H hypoxanthine CASSCF(10,8)/6-31G(d) ground-state geometry copied from official ESI Table S6
C  -0.006316   0.609614   0.000000
C  -0.883649  -0.445312  -0.000000
C   0.671663  -2.006976   0.000000
C   1.420178   0.346406  -0.000000
C  -1.939070   1.464574   0.000000
N  -0.592442  -1.782931  -0.000000
N   1.636795  -1.035248   0.000000
N  -0.686058   1.804015   0.000000
N  -2.123732   0.108011  -0.000000
O   2.335382   1.111864  -0.000000
H   1.032520  -3.017464   0.000000
H   2.596064  -1.308530   0.000000
H  -2.763528   2.145733   0.000000
H  -2.986692  -0.385617  -0.000000
