14
keto-N7H hypoxanthine CASSCF(10,8)/6-31G(d) ground-state geometry copied from official ESI Table S5
C  -0.009743   0.548567   0.000000
C  -0.942236  -0.460104   0.000000
C   0.641310  -2.028437  -0.000000
C   1.409843   0.303328   0.000000
C  -2.027419   1.351557  -0.000000
N  -0.617660  -1.799191   0.000000
N   1.628433  -1.059620  -0.000000
N  -0.718998   1.712831  -0.000000
N  -2.203888   0.057623   0.000000
O   2.296428   1.111436   0.000000
H   1.002837  -3.038678  -0.000000
H   2.584582  -1.343387  -0.000000
H  -2.813926   2.076299  -0.000000
H  -0.342298   2.633068  -0.000000
