28
(-)-isocitronellene; exact CASSCF(4,4)/6-31G(d,p) optimized product coordinates from official RSC ESI
C  -0.78183500  -0.01850700   0.51585700
C   0.00318500  -1.27795600   0.20808600
C   0.98559700  -1.12124100  -0.97539000
C   2.24387500  -0.26280000  -0.76725400
C   2.00035100   1.20849300  -0.54872600
C   2.57975000   1.94781700   0.40580600
C  -1.99489000   0.33193000   0.05136800
C  -2.63623800   1.63337400   0.47496900
C  -2.82856600  -0.48317600  -0.90953200
C   0.69329900  -1.79576300   1.47652600
H  -0.69698000  -2.04835400  -0.09985100
H   1.31955200  -2.11791900  -1.25828500
H   0.43379400  -0.73366900  -1.82922900
H   2.85259300  -0.37343900  -1.66399600
H   2.84118900  -0.65792900   0.04903000
H  -3.04320000   0.09459000  -1.80575500
H  -3.78715300  -0.73692000  -0.46230800
H   3.25657600   1.51639400   1.12442900
H   1.33163600   1.68932100  -1.24656200
H  -2.35157900  -1.40303200  -1.21900700
H  -0.29408600   0.67212500   1.18461200
H   2.39168700   3.00358100   0.49176200
H  -2.83466600   2.26809100  -0.38610300
H  -3.59258500   1.45434000   0.96185900
H  -2.00822700   2.18766800   1.16277300
H   1.26972900  -2.69369400   1.27080500
H   1.36665700  -1.05598700   1.89813500
H  -0.04210500  -2.03819200   2.23743400
