98
W2040980003-a trans-sqp low-spin NiTPP-PAPy; exact source M06-2X/TZVP(Ni)+SVP(other) ESI coordinates
Ni  0.29928600  0.30009000 -0.05152000
N   2.10049600  0.75574600  0.65994000
N   0.49827400 -1.54815600  0.64730000
N   0.14282500  2.11347100 -0.85601200
N  -1.56323700 -0.10207600 -0.59977100
N   0.27861900 -1.37629100 -3.08047700
N   0.58233700 -2.55129300 -2.83394600
N   3.87167400 -1.89721200 -1.24603300
C   2.75489100  1.95010000  0.53420400
C   2.88696400 -0.00946500  1.47418800
C   3.97470400  1.94675100  1.30972900
C   4.04251900  0.73921600  1.91485000
C   1.56432600 -2.06932000  1.32278400
C  -0.37006200 -2.58897300  0.47027900
C   1.38700600 -3.48766600  1.53345600
C   0.18502900 -3.81162000  0.99968200
C  -0.89225000  2.59470500 -1.61360600
C   1.11678200  3.06744300 -0.91729100
C  -0.53956000  3.86404400 -2.20433100
C   0.70146500  4.16938400 -1.74981600
C  -2.44484000  0.74315500 -1.21411700
C  -2.22580800 -1.28844500 -0.47545700
C  -3.72260400  0.10133200 -1.39976100
C  -3.58380900 -1.16962700 -0.95193200
C   2.66553300 -1.34857100  1.79474700
C   2.34013900  3.02926600 -0.24149100
C  -2.12727300  1.97003300 -1.79986900
C  -1.66438800 -2.48915600 -0.03535100
C  -2.50780400 -3.71573700 -0.07211600
C  -2.22041600 -4.77740400 -0.93136700
C  -3.62055400 -3.84767800  0.76086700
C  -3.00860100 -5.92499000 -0.96966000
C  -4.42395500 -4.98468600  0.73927700
C  -4.11410100 -6.02725900 -0.12980600
C   3.62566200 -2.05249600  2.68863200
C   4.98067300 -2.20971200  2.38267600
C   3.18428400 -2.59698100  3.90047800
C   5.85257400 -2.89269200  3.22762700
C   4.03688500 -3.28573700  4.75781000
C   5.37901700 -3.43352200  4.41909900
C   3.24015200  4.21158100 -0.34685100
C   3.48008700  5.04098100  0.74987300
C   3.87288600  4.53322400 -1.54869700
C   4.32455800  6.14462300  0.66382800
C   4.71735100  5.63480600 -1.65996400
C   4.94347400  6.44130400 -0.54771700
C  -3.04872800  2.51652600 -2.84597600
C  -3.69454000  3.74164600 -2.65078700
C  -3.24780800  1.81048200 -4.06130800
C  -4.51874100  4.28739700 -3.63246900
C  -4.07816600  2.37752500 -5.03607800
C  -4.70438200  3.60479100 -4.83241900
C  -2.67958400  0.44486100 -4.26234200
C  -3.49631100 -0.59835200 -4.71352900
C  -1.38181600  0.12481400 -3.84515600
C  -3.05576200 -1.92650600 -4.67286900
C  -0.97791200 -1.20034800 -3.71724000
C  -1.81569200 -2.24562600 -4.13502100
C   1.82582000 -2.72679200 -2.18058700
C   2.18376700 -4.03554500 -1.86372400
C   2.70922700 -1.68397900 -1.84533100
C   3.41001400 -4.25820100 -1.24479500
C   4.21493700 -3.15684100 -0.96063700
H   4.68251000  2.76769200  1.37827000
H   4.81279800  0.37556900  2.58814800
H   2.10149400 -4.14582700  2.02037200
H  -0.29785300 -4.78460900  0.97848200
H  -1.17204600  4.44496900 -2.86849800
H   1.28895800  5.05824800 -1.96150300
H  -4.59228700  0.57224100 -1.85064000
H  -4.32328200 -1.96529000 -0.95580900
H  -3.54439300  4.26609700 -1.70491300
H  -5.01444300  5.24338000 -3.45851000
H  -4.22044500  1.84555500 -5.97878500
H  -5.33964500  4.02659100 -5.61251100
H  -4.51512200 -0.37934100 -5.04082900
H  -0.67661400  0.89146600 -3.52819500
H  -3.71821300 -2.72139400 -5.01927000
H  -1.48071400 -3.27569200 -4.01409100
H   1.49224600 -4.84255100 -2.11162100
H   2.44056800 -0.65085700 -2.08428400
H   3.74003200 -5.26457500 -0.98589000
H   5.18691000 -3.29236500 -0.47711800
F  -5.47091100 -5.08262000  1.53876800
F  -4.86862600 -7.10899200 -0.15904700
F  -2.71391900 -6.91277900 -1.79717400
F  -1.17302800 -4.71688800 -1.74022800
F  -3.94502700 -2.87259500  1.59318200
F   2.90775700  4.78115800  1.91415900
F   4.53662300  6.91237600  1.71790600
F   5.74331700  7.48570000 -0.64133400
F   5.30553100  5.91767200 -2.80864700
F   3.67033000  3.79016900 -2.62344400
F   1.91927300 -2.46849600  4.26531700
F   3.58331300 -3.79078900  5.89129600
F   6.19798200 -4.08106500  5.22415700
F   7.12576900 -3.03021100  2.90058800
F   5.48711900 -1.70450900  1.26987300
