19
1c cis,trans,cis-[Pt(N3)2(OH)2(NH3)2], exact ESI wB97X/CRENBL(Pt)/6-311+G* ground-state geometry, DOI 10.1039/c1dt10493d
Pt  -0.569966   0.053112  -0.040492
N    0.758924   1.036103  -1.205246
N    1.556446   1.740435  -0.603391
N    2.331327   2.412201  -0.129257
N    0.837476  -0.817001   1.121947
N    1.683968  -1.460518   0.518595
N    2.506178  -2.072483   0.043327
N   -1.999055   1.087418  -1.175015
H   -2.684401   0.492855  -1.627708
H   -1.457690   1.561782  -1.894343
H   -2.445877   1.792170  -0.594936
N   -1.907486  -1.091235   1.099185
H   -2.626217  -0.547899   1.564494
H   -1.323830  -1.528633   1.808920
H   -2.311858  -1.823802   0.522754
O   -0.670620  -1.475130  -1.349708
H    0.069568  -1.439963  -1.961935
O   -0.800260   1.568085   1.268699
H   -0.056560   1.603039   1.876626
