11
TS1 CASSCF(13,13)/6-311+G(2df,2p), exact ESI Table S3 coordinates, DOI 10.1039/c3cp53100g; C2H5O4 neutral doublet
C   1.4250392959   0.8880814085   0.0215722187
O   1.5535871453  -0.3222869923   0.5132320513
H   1.6307912289   1.6592620027   0.7295740848
H   1.4289739096   1.0106031726  -1.0382961154
O  -0.7913350642   1.3213215074   0.0674587668
O  -1.3302071550   0.2300538937  -0.6008196078
C  -1.8919387191  -0.6731239136   0.3811333430
O   1.5028366233  -1.3317742170  -0.3730415592
H  -2.2812068015  -1.4947439216  -0.1991503192
H  -1.1240106055  -1.0190576797   1.0538304688
H  -2.6869858576  -0.1802352606   0.9206096683
