19
1t trans,trans,trans-[Pt(N3)2(OH)2(NH3)2], exact ESI wB97X/CRENBL(Pt)/6-311+G* ground-state geometry, DOI 10.1039/c1dt10493d
Pt   0.000000   0.000000   0.000000
O   -0.931001  -0.354022   1.750629
H   -0.260705  -0.434166   2.436601
N    0.128725  -1.991270  -0.435220
H    0.872857  -2.125627  -1.116432
H   -0.754946  -2.274498  -0.851884
H    0.300647  -2.551812   0.393219
N   -1.803361  -0.008832  -0.995214
N   -2.784727   0.255621  -0.321145
N   -3.738664   0.502159   0.235484
O    0.931001   0.354022  -1.750629
H    0.260705   0.434166  -2.436601
N   -0.128725   1.991270   0.435220
H   -0.872857   2.125627   1.116432
H    0.754946   2.274498   0.851884
H   -0.300647   2.551812  -0.393219
N    1.803361   0.008832   0.995214
N    2.784727  -0.255621   0.321145
N    3.738664  -0.502159  -0.235484
