14
VERBATIM singlet pi-CASSCF/6-31G* geometry for 1g from scanned ACS Supporting Information p. 9, manually transcribed and visually cross-checked (angstrom)
O -0.6823971119 -1.0829330426 0.0000000000
C 0.0230983610 1.0251057408 0.0000000000
C -1.1300278380 0.3029389318 0.0000000000
C 1.2088376715 0.1232538499 0.0000000000
C 0.7507964707 -1.1531825630 0.0000000000
H -1.2604212004 -1.8471532520 0.0000000000
C -2.5091955890 0.5382229363 0.0000000000
C 2.5623356679 0.5394547199 0.0000000000
H 0.0595492324 2.0941192279 0.0000000000
H 1.1576420018 -2.1386011934 0.0000000000
H -3.2272777592 -0.2571757467 0.0000000000
H -2.8535756080 1.5519850766 0.0000000000
H 2.8108048996 1.5810878673 0.0000000000
H 3.3576744926 -0.1786725542 0.0000000000
