15
VERBATIM singlet pi-CASSCF/6-31G* geometry for 1i from scanned ACS Supporting Information p. 11, manually transcribed and visually cross-checked (angstrom)
Si -0.8673044329 1.2732188437 0.0000000000
C 0.2174196429 -1.1531354470 0.0000000000
C -1.0508982730 -0.6065943868 0.0000000000
C 1.3975438160 -0.2187152313 0.0000000000
C 0.9947429631 1.1656724238 0.0000000000
C -2.2410052745 -1.3729268560 0.0000000000
C 2.6838674791 -0.6606454336 0.0000000000
H 0.3895353095 -2.2170278166 0.0000000000
H 1.7386168832 1.9410673711 0.0000000000
H -3.2103910045 -0.9118286470 0.0000000000
H -2.2111509940 -2.4481882006 0.0000000000
H 2.9187284483 -1.7097013480 0.0000000000
H 3.5104392262 0.0260118874 0.0000000000
H -1.4466024180 1.9332115444 -1.1954218065
H -1.4466024180 1.9332115444 1.1954218065
