24
trans-1,2-bis(phenyl)diphosphene, unconstrained S0 CASSCF(8,6)/6-31G** geometry from exact publisher ESI
P   0.00000000  0.00000000  0.00000000
P   0.00000000  0.00000000  2.09104923
C   0.00000000  1.81000703  2.44631900
C  -0.09855166 -1.80713169 -0.35608662
C   0.77801867 -2.31921598 -1.31102704
C   0.74458899 -3.65874194 -1.65960804
C  -0.17843640 -4.50561757 -1.06851091
C  -1.06677581 -4.00674323 -0.13058933
C  -1.02956115 -2.66758630  0.22199280
C   0.90587911  2.27504618  3.39796819
C   0.94533761  3.61466659  3.74550510
C   0.06703081  4.50936409  3.15668514
C  -0.84982785  4.05814236  2.22210374
C  -0.88549336  2.71866277  1.87051928
H   1.49437433 -1.66931118 -1.78370078
H   1.43441448 -4.03802950 -2.39273240
H  -0.20971078 -5.54553015 -1.34198980
H  -1.79145504 -4.65766130  0.32590919
H  -1.73208062 -2.29489157  0.94513231
H   1.58798817  1.58804895  3.86884122
H   1.65688350  3.95698058  4.47606311
H   0.09237468  5.54963897  3.42939744
H  -1.54010477  4.74662072  1.76739401
H  -1.60929526  2.38358890  1.14995480
