13
VERBATIM singlet pi-CASSCF/6-31G* geometry for 1j from scanned ACS Supporting Information p. 12, manually transcribed and visually cross-checked (angstrom)
P 0.8541132745 1.1986995133 0.0000000000
C -0.2828283974 -1.2036956389 0.0000000000
C 1.0056151335 -0.6248842434 0.0000000000
C -1.3642491113 -0.2817754553 0.0000000000
C -0.8442451304 1.0900047748 0.0000000000
C 2.2612637618 -1.2016351687 0.0000000000
C -2.7305248444 -0.5031415335 0.0000000000
H -0.4352585639 -2.2724036690 0.0000000000
H -1.5130905888 1.9349271648 0.0000000000
H 3.1558543438 -0.6025805279 0.0000000000
H 2.3958042567 -2.2727149286 0.0000000000
H -3.1475020977 -1.4970132497 0.0000000000
H -3.4280262569 0.3174513662 0.0000000000
