13
VERBATIM singlet pi-CASSCF/6-31G* geometry for 1c from scanned ACS Supporting Information p. 5, manually transcribed and visually cross-checked (angstrom)
N 0.7102400551 1.1693761484 0.0000000000
C -0.0294525530 -1.0425878549 0.0000000000
C 1.1253582881 -0.2076704096 0.0000000000
C -1.1711843986 -0.2111586129 0.0000000000
C -0.5762856030 1.1437573647 0.0000000000
C 2.4678185401 -0.4647792013 0.0000000000
C -2.5333244784 -0.4029042168 0.0000000000
H -0.0178898036 -2.1175251678 0.0000000000
H -1.1523956967 2.0584462390 0.0000000000
H 3.1754409673 0.3444661830 0.0000000000
H 2.8523804025 -1.4714309439 0.0000000000
H -2.9781486971 -1.3846326802 0.0000000000
H -3.2096764094 0.4366343542 0.0000000000
