14
VERBATIM singlet pi-CASSCF/6-31G* geometry for 1h from scanned ACS Supporting Information p. 10, manually transcribed and visually cross-checked (angstrom)
Si -0.7199405541 -1.2439063472 0.0000000000
C 0.1575777135 1.1527881357 0.0000000000
C -1.1318540387 0.5624135577 0.0000000000
C 1.3193461213 0.3056264522 0.0000000000
C 1.0154801636 -1.1504486927 0.0000000000
C -2.3983579270 1.1142017102 0.0000000000
C 2.6335065565 0.7153507866 0.0000000000
H 0.2795303219 2.2273118055 0.0000000000
H 1.8154207397 1.8670390089 0.0000000000
H -3.2853478682 0.5021859227 0.0000000000
H -2.5542188797 2.1835163892 0.0000000000
H 2.9017604581 1.7596919192 0.0000000000
H 3.4436934160 0.0053723379 0.0000000000
H -1.6152073333 -2.4281877735 0.0000000000
