21
Tricyclo[4.2.1.0^2,5]non-2(5)-ene conrotatory C1 transition state, source-exact CASSCF/6-31G(d) Cartesian from ja028963g SI p. S41
C 0.736034 0.654311 0.291979
C 0.774325 -0.677928 0.128319
C 1.978439 1.229928 -0.221546
C 2.143179 -1.091494 -0.152097
C -0.706068 1.051307 0.566323
C -0.647748 -1.201131 0.198698
H 2.482909 2.044131 0.278951
H 2.156797 1.185496 -1.279396
H 2.381422 -1.811624 -0.921739
H 2.844683 -1.060163 0.659355
C -1.180979 -0.231958 1.285173
H -0.886482 1.993227 1.068147
C -1.445984 0.889474 -0.793237
C -1.398240 -0.649317 -1.047781
H -0.788139 -2.258992 0.379235
H -2.260654 -0.281536 1.400042
H -0.711926 -0.377727 2.251392
H -0.972455 1.458778 -1.584618
H -2.471350 1.236631 -0.711780
H -2.399662 -1.064696 -1.101875
H -0.892889 -0.902676 -1.972705
