14
VERBATIM singlet pi-CASSCF/6-31G* geometry for 1k from scanned ACS Supporting Information p. 13, manually transcribed and visually cross-checked (angstrom)
P 0.7487485128 1.1537056007 0.0000000000
C -0.2075888926 -1.1507720472 0.0000000000
C 1.0552203464 -0.5733284285 0.0000000000
C -1.3394646607 -0.2530335269 0.0000000000
C -0.9692183074 1.0973002213 0.0000000000
C 2.3369824620 -1.2076730178 0.0000000000
C -2.7083677868 -0.6687855805 0.0000000000
H -0.3336377809 -2.2184673166 0.0000000000
H -1.6465008918 1.9264372458 0.0000000000
H 3.2461500669 -0.6400909742 0.0000000000
H 2.4081940644 -2.2779294608 0.0000000000
H -2.9711253367 -1.7088935459 0.0000000000
H -3.5021151995 0.0526119543 0.0000000000
H 1.6060554772 2.2278861055 0.0000000000
