13
VERBATIM singlet pi-CASSCF/6-31G* geometry for 1f from scanned ACS Supporting Information p. 8, manually transcribed and visually cross-checked (angstrom)
O 0.7129227249 1.0831454875 0.0000000000
C 0.0222463174 -1.0315054593 0.0000000000
C 1.0894156734 -0.2322512351 0.0000000000
C -1.1882249467 -0.1398163726 0.0000000000
C -0.6270987293 1.1130793628 0.0000000000
C 2.4760844126 -0.5007509250 0.0000000000
C -2.5684539711 -0.4533716743 0.0000000000
H -0.0287825451 -2.1017315709 0.0000000000
H -1.0742255600 2.0844096740 0.0000000000
H 3.1817335105 0.3046061496 0.0000000000
H 2.8293018790 -1.5119619190 0.0000000000
H -2.9072741639 -1.4705590735 0.0000000000
H -3.3073770663 0.3243698252 0.0000000000
