15
VERBATIM singlet pi-CASSCF/6-31G* geometry for 1e from scanned ACS Supporting Information p. 7, manually transcribed and visually cross-checked (angstrom)
N 0.7133971992 1.1657969098 0.0000000000
C -0.0091554126 -1.0195787427 0.0000000000
C 1.1318195279 -0.2704977860 0.0000000000
C -1.2125771504 -0.1277041216 0.0000000000
C -0.7601579336 1.1614839280 0.0000000000
H 1.0793078123 1.6473643517 -0.8117767670
H 1.0793078123 1.6473643517 0.8117767670
C 2.5013988921 -0.5812472774 0.0000000000
C -2.5490283119 -0.5584092531 0.0000000000
H -0.0364265072 -2.0893749855 0.0000000000
H -1.2656110685 2.1032179532 0.0000000000
H 3.2591088787 0.1777108558 0.0000000000
H 2.8050110798 -1.6082610110 0.0000000000
H -2.7887689721 -1.6027211833 0.0000000000
H -3.3553520080 0.1480899386 0.0000000000
