14
VERBATIM singlet pi-CASSCF/6-31G* geometry for tautomer 3c from scanned ACS Supporting Information p. 19, manually transcribed and visually cross-checked (angstrom)
C 0.3136176809 1.2856089546 0.0000000000
P -0.8750692332 -1.2290529914 0.0000000000
C 0.8172292463 -1.1278801814 0.0000000000
C -1.0437832984 0.5948928804 0.0000000000
C 1.3938368449 0.2141787513 0.0000000000
C -2.2249632767 1.2352265975 0.0000000000
C 2.7187908498 0.4658637092 0.0000000000
H 1.4599677949 -1.9901955704 0.0000000000
H -3.1584124026 0.7007904942 0.0000000000
H 3.4408969907 -0.3306110115 0.0000000000
H -2.2886999066 2.3105730969 0.0000000000
H 3.1034386778 1.4702733544 0.0000000000
H 0.4119002192 1.9229355203 0.8734274399
H 0.4119002192 1.9229355203 -0.8734274399
