15
VERBATIM singlet pi-CASSCF/6-31G* geometry for tautomer 3b from scanned ACS Supporting Information p. 18, manually transcribed and visually cross-checked (angstrom)
C 0.1962936121 1.2346832813 0.0000000000
Si -0.7639724574 -1.2823598417 0.0000000000
C 0.9689670279 -1.1755902947 0.0000000000
C -1.1640362353 0.5269556677 0.0000000000
C 1.3656617074 0.2379934427 0.0000000000
C -2.3409342243 1.1764390642 0.0000000000
C 2.6484232768 0.6563527139 0.0000000000
H -1.6876669997 -2.4235234632 0.0000000000
H 1.7285319405 -1.9340729821 0.0000000000
H -3.2818309937 0.6547014819 0.0000000000
H 3.4667571283 -0.0411741165 0.0000000000
H -2.3975561244 2.2530744485 0.0000000000
H 2.9016270300 1.7022588711 0.0000000000
H 0.2706466087 1.8761033118 0.8728787121
H 0.2706466087 1.8761033118 -0.8728787121
