26
trans-stilbene S1 t* minimum; exact SA2-RASSCF(14,14)/(2,2)/1/6-31G* Cartesian from RSC ESI
C  -1.838836  -3.624762  -0.011211
C  -1.010629  -2.511419   0.168450
H  -2.094922  -4.211630   0.851101
H  -0.743143  -1.930498  -0.694653
C  -0.481039  -2.066170   1.391413
C  -0.734923  -2.706894   2.647649
C   0.373387  -0.896237   1.417823
C  -0.179582  -2.218267   3.801903
H  -1.365839  -3.571269   2.695305
C   0.915149  -0.426326   2.583740
H   0.580688  -0.392107   0.489675
C   0.641498  -1.089008   3.792279
H  -0.381236  -2.714479   4.735222
H   1.544807   0.444653   2.567565
H   1.067402  -0.722653   4.707946
C  -2.380647  -4.070598  -1.230751
C  -2.141081  -3.432974  -2.488248
C  -3.227576  -5.230835  -1.246219
C  -2.707121  -3.923546  -3.636836
H  -1.509711  -2.569253  -2.543605
C  -3.781339  -5.700417  -2.406153
H  -3.425320  -5.735400  -0.316336
C  -3.527625  -5.052291  -3.618141
H  -2.510754  -3.428523  -4.571539
H  -4.410971  -6.571174  -2.381303
H  -3.961448  -5.420980  -4.529396
