14
VERBATIM singlet pi-CASSCF/6-31G* geometry for 1n from scanned ACS Supporting Information p. 16, manually transcribed and visually cross-checked (angstrom)
S -0.7411076499 -1.1387599694 0.0000000000
C 0.2049736668 1.1662194781 0.0000000000
C -1.0551611458 0.6309717161 0.0000000000
C 1.3662587899 0.2294179698 0.0000000000
C 1.0145778179 -1.0975640585 0.0000000000
H -1.5543497643 -2.1807490015 0.0000000000
C -2.3526750850 1.1866979372 0.0000000000
C 2.7015132785 0.6960200371 0.0000000000
H 0.3431780820 2.2299370846 0.0000000000
H 1.5916875277 -1.9965832284 0.0000000000
H -3.2370605210 0.5839253812 0.0000000000
H -2.4477820263 2.2540333826 0.0000000000
H 2.9121369281 1.7466061700 0.0000000000
H 3.5242293545 0.0094767007 0.0000000000
