17
Bicyclo[3.2.0]hept-1(5)-ene conrotatory C1 transition state, source-exact CASSCF/6-31G(d) Cartesian from ja028963g SI pp. S39-S40
C -0.362807 0.670512 -0.010256
C 1.907531 -0.011833 -0.159525
C -0.357493 -0.670708 0.019550
C -1.733691 1.147462 0.123140
C -1.714026 -1.160715 -0.183908
C 1.023726 1.262950 -0.011909
C 1.024462 -1.239447 0.218535
H -2.227789 0.999247 1.064006
H -2.110511 1.979925 -0.453856
H -2.150845 -1.031212 -1.155154
H -2.118358 -1.986993 0.383080
H 1.227451 1.789620 0.917718
H 1.198466 1.969351 -0.818183
H 1.183971 -1.542254 1.251198
H 1.245110 -2.100494 -0.404018
H 2.215114 -0.110169 -1.195357
H 2.811184 0.043649 0.436802
