14
VERBATIM singlet pi-CASSCF/6-31G* geometry for tautomer 3a from scanned ACS Supporting Information p. 17, manually transcribed and visually cross-checked (angstrom)
C -0.0318448218 -1.1086048927 0.0000000000
N 0.7057384794 1.1899885133 0.0000000000
C -0.5781584443 1.1908954000 0.0000000000
C 1.1553643664 -0.1552674420 0.0000000000
C -1.2003625439 -0.1433333872 0.0000000000
C 2.4587750212 -0.4615315343 0.0000000000
C -2.5147327960 -0.4095347128 0.0000000000
H -1.1337273062 2.1120319628 0.0000000000
H 3.2002977649 0.3146411688 0.0000000000
H -3.2439900851 0.3811476299 0.0000000000
H 2.7946698250 -1.4824264899 0.0000000000
H -2.8906316488 -1.4167750498 0.0000000000
H -0.0335619016 -1.7477626523 0.8763074378
H 0.0335619016 -1.7477626523 -0.8763074378
