15
VERBATIM singlet pi-CASSCF/6-31G* geometry for 1b from scanned ACS Supporting Information p. 4, manually transcribed and visually cross-checked (angstrom)
C -0.7343460960 1.2745689363 0.0000000000
C -0.0312925195 -0.9811955032 0.0000000000
C -1.1521323293 -0.1874436458 0.0000000000
C 1.2135708423 -0.1426167741 0.0000000000
C 0.7658561932 1.1961317739 0.0000000000
C -2.4989731454 -0.6085569862 0.0000000000
C 2.5079974164 -0.5930273097 0.0000000000
H -0.0291960493 -2.0550988579 0.0000000000
H 1.4083411470 2.0559772383 0.0000000000
H -3.3048021592 0.1006328821 0.0000000000
H -2.7532857832 -1.6516756964 0.0000000000
H 2.7398918105 -1.6419239842 0.0000000000
H 3.3335710058 0.0944824952 0.0000000000
H -1.1180494774 1.7996769258 -0.8730654824
H -1.1180494774 1.7996769258 0.8730654824
