13
VERBATIM singlet pi-CASSCF/6-31G* geometry for 1m from scanned ACS Supporting Information p. 15, manually transcribed and visually cross-checked (angstrom)
S -0.8548001546 -1.1627793765 0.0000000000
C 0.2612546365 1.1794882713 0.0000000000
C -0.9777560082 0.6005800884 0.0000000000
C 1.3757180826 0.2136900468 0.0000000000
C 0.8785788101 -1.0745804022 0.0000000000
C -2.2536686527 1.2378982109 0.0000000000
C 2.7454489050 0.5531677743 0.0000000000
H 0.4089241471 2.2432144760 0.0000000000
H 1.4581599599 -1.9758673574 0.0000000000
H -3.1634778084 0.6717667188 0.0000000000
H -2.3174230949 2.3085066596 0.0000000000
H 3.0638661179 1.5776235259 0.0000000000
H 3.5016745375 -0.2078394649 0.0000000000
