10
Ti2O5-H2O S1/S0 conical intersection; exact SA2-CASSCF(10,7)/6-31G(d) Cartesian from RSC ESI
Ti   0.36577900  -0.37736300  -0.18413200
O   -0.17580000   0.08787700   1.47937800
O    2.02239900  -0.26600200   0.47933800
Ti   1.51132300   0.20912100   2.18809000
O    0.19772000   0.92403800  -1.52716600
O   -2.03444400  -0.01559800  -0.92621200
O    2.03145700   1.51691800   2.90579600
O    0.04024700  -2.09886600  -0.61651900
H   -0.80524300  -2.49601800  -0.77764200
H   -2.14811200   0.62674800  -1.63102000
