15
VERBATIM singlet pi-CASSCF/6-31G* geometry for 1l from scanned ACS Supporting Information p. 14, manually transcribed and visually cross-checked (angstrom)
P 0.7848405480 1.1582561389 0.0000000000
C -0.2323400940 -1.1947796817 0.0000000000
C 1.0309296665 -0.6360241959 0.0000000000
C -1.3874906585 -0.2213897548 0.0000000000
C -0.9871457589 1.1094592904 0.0000000000
H 1.3386762537 1.7833797579 1.1014100571
H 1.3386762537 1.7833797579 -1.1014100571
C 2.2862660459 -1.2728880051 0.0000000000
C -2.7124127722 -0.6532904484 0.0000000000
H -0.3973831720 -2.2549401284 0.0000000000
H -1.6315348735 1.9651976130 0.0000000000
H 3.2067226850 -0.7230935886 0.0000000000
H 2.3404917497 -2.3439387238 0.0000000000
H -2.9548876363 -1.6978855181 0.0000000000
H -3.5217028131 0.0505539511 0.0000000000
