14
VERBATIM singlet pi-CASSCF/6-31G* geometry for 1d from scanned ACS Supporting Information p. 6, manually transcribed and visually cross-checked (angstrom)
N 0.6810154281 1.1016117011 0.0000000000
C -0.0156359031 -1.0135481193 0.0000000000
C 1.1203972229 -0.2171974318 0.0000000000
C -1.1730153528 -0.1597943632 0.0000000000
C -0.6623926881 1.1368355586 0.0000000000
H 1.2756742274 1.8975770139 0.0000000000
C 2.5008669483 -0.5117215824 0.0000000000
C -2.5603513221 -0.4730814120 0.0000000000
H -0.0158175486 -2.0848249907 0.0000000000
H -1.1904156945 2.0691245512 0.0000000000
H 3.2369754089 0.2690837069 0.0000000000
H 2.8404984348 -1.5277521614 0.0000000000
H -2.9034365650 -1.4891855604 0.0000000000
H -3.2977868697 0.3064978056 0.0000000000
