31
SPc H-substituted spiropyran model; source-exact SA3-CASSCF(12,10)/6-31G(d) geometry from Supporting Information
C  0.000000000  0.000000000  0.000000000
C -0.139508140 -0.105467260  1.532608410
N  1.346934820 -0.481197370 -0.230912270
C -0.991769430 -0.801852760 -0.800825900
C  1.291747470  0.029097270  1.996871670
C  2.121980810 -0.191443260  0.902962810
C -1.506412240 -0.337357480 -1.923715520
C  1.829255730  0.291279980  3.245180110
C  3.492253320 -0.153501620  1.022264140
C -1.143798490  1.002614100 -2.403991230
C  3.224310030  0.336197700  3.387378750
C  4.041634400  0.115115470  2.281924310
C -0.420750250  1.809742270 -1.540291270
C -1.487736240  1.489464550 -3.668299870
O -0.112099020  1.386896350 -0.291980330
C -0.037531420  3.089343710 -1.910321780
C -1.111219200  2.770218640 -4.058906870
C -0.385435480  3.571170740 -3.171216790
H -0.089365720  4.563845840 -3.458637180
H -0.806997700  0.660670150  1.901266070
H -0.541678750 -1.076633870  1.804683100
H  1.731717130 -0.249081310 -1.122626190
H -1.210258760 -1.790793930 -0.442300210
H -2.183565530 -0.930504250 -2.512863010
H  1.190407270  0.464891460  4.093408610
H  4.129824370 -0.324236840  0.172614270
H  3.660673260  0.544359410  4.347452100
H  5.110812470  0.152617760  2.391352360
H -2.048866540  0.860880330 -4.337530470
H  0.516120570  3.689636970 -1.212735480
H -1.377423750  3.140917510 -5.031817650
