18
1,3,5,7-octatetraene | PubChem CID 5463164 3D conformer | GENERATED structure, NOT the geometry used in the referenced paper
C      -0.634800     0.346900     0.000900
C       0.634700    -0.347500     0.000700
C      -1.816000    -0.289000     0.000900
C       1.816000     0.288800     0.000700
C      -3.083300     0.405300    -0.000800
C       3.083400    -0.405100    -0.000800
C      -4.265300    -0.221200    -0.000800
C       4.265200     0.221900    -0.000800
H      -0.603200     1.434300     0.000300
H       0.603400    -1.434800     0.000100
H      -1.848400    -1.376400     0.001300
H       1.848100     1.376200     0.001300
H      -3.068000     1.491900    -0.002100
H       3.068500    -1.491700    -0.001900
H      -5.187100     0.350900    -0.002100
H      -4.343200    -1.303400     0.000400
H       5.187300    -0.349800    -0.002000
H       4.342700     1.304100     0.000300
