18
VERBATIM all-trans hepta-2,4,6-trieniminium CASSCF(8,8)/6-31G* Franck-Condon geometry, SI p. 5 (PDF page 6)
C 0.682344 0.085409 0.000000
C -0.757012 0.087939 0.000000
C 1.456483 1.205634 0.000000
H 1.167468 -0.877097 0.000000
C -1.477287 -1.061949 0.000000
H -1.258515 1.040253 0.000000
C 2.875265 1.090541 0.000000
H 1.017497 2.187834 0.000000
C -2.930612 -1.116120 0.000000
H -0.956075 -2.005536 0.000000
N 3.686204 2.097302 0.000000
H 3.332918 0.117667 0.000000
C -3.618498 -2.273716 0.000000
H -3.458724 -0.178097 0.000000
H 3.354505 3.043640 0.000000
H 4.679707 1.971844 0.000000
H -3.122412 -3.228045 0.000000
H -4.691775 -2.285650 0.000000
