25
VERBATIM CASSCF(10,10)/6-31G* MEP coordinate 1.5 au (8 degree twist), SI p. 3 (PDF page 4)
C -1.311485 0.681135 0.034076
C -1.714612 -0.618924 -0.037353
C 0.051255 1.258536 -0.009187
C -3.104341 -0.963161 0.019884
C 1.273343 0.650001 0.009044
C -3.589536 -2.275282 -0.048761
C 2.441448 1.542890 -0.023492
C 1.465201 -0.850257 0.068290
C -4.935249 -2.558223 -0.003745
C 3.768823 1.169078 -0.001293
H -5.299764 -3.565083 -0.070501
N 4.781487 2.043934 -0.024964
H -2.089119 1.418067 0.141276
H -1.018949 -1.424584 -0.148113
H 0.042478 2.332810 -0.052931
H -3.817889 -0.165500 0.127988
H -2.885098 -3.081284 -0.151437
H 2.235329 2.598965 -0.064220
H -5.665237 -1.777074 0.100950
H 4.072681 0.143586 0.043354
H 5.730138 1.741781 -0.028857
H 4.627509 3.026907 -0.084885
H 0.995330 -1.267848 0.950318
H 1.039691 -1.334221 -0.803668
H 2.505993 -1.134554 0.099930
