20
Linear H20 chain at uniform R=0.70 Angstrom, first point in Table I symmetric stretch
H  -6.650000  0.000000  0.000000
H  -5.950000  0.000000  0.000000
H  -5.250000  0.000000  0.000000
H  -4.550000  0.000000  0.000000
H  -3.850000  0.000000  0.000000
H  -3.150000  0.000000  0.000000
H  -2.450000  0.000000  0.000000
H  -1.750000  0.000000  0.000000
H  -1.050000  0.000000  0.000000
H  -0.350000  0.000000  0.000000
H   0.350000  0.000000  0.000000
H   1.050000  0.000000  0.000000
H   1.750000  0.000000  0.000000
H   2.450000  0.000000  0.000000
H   3.150000  0.000000  0.000000
H   3.850000  0.000000  0.000000
H   4.550000  0.000000  0.000000
H   5.250000  0.000000  0.000000
H   5.950000  0.000000  0.000000
H   6.650000  0.000000  0.000000
