14
S0 Z-PDI; source-exact CASSCF/6-31G* coordinates from Sumita et al. official ESI; angstrom
C   0.000000   0.000000   0.000000
C   0.000000   0.000000   1.418160
C   1.141120   0.000000   2.176530
C   2.516407   0.000000   1.744381
C   3.524528   0.000000   2.639622
N  -1.077806   0.000000  -0.714819
H   0.919440   0.000000  -0.552972
H  -0.953463   0.000000   1.915337
H   0.990584   0.000000   3.241813
H   2.749896   0.000000   0.695341
H   4.549827   0.000000   2.323627
H   3.341876   0.000000   3.698612
H  -1.043823   0.000000  -1.715586
H  -1.990158   0.000000  -0.298484
