24
VERBATIM constrained CASSCF ground-state two-glycine beta-turn model geometry from ACS Supporting Information, p. S5 (angstrom; atomic numbers converted to symbols)
H -0.651918 0.841572 0.927648
C -0.000029 -0.023509 0.999670
H 0.342628 -0.270421 0.000439
H 0.849307 0.226462 1.618051
C -0.740020 -1.185337 1.617292
O -0.452291 -1.632120 2.726776
N -1.745667 -1.715334 0.876612
H -2.001913 -1.257267 0.033507
C -2.645663 -2.714781 1.416238
H -3.094761 -2.367410 2.345617
H -3.451865 -2.859101 0.703617
H -2.125493 -3.658766 1.580094
C -0.101912 -5.553398 1.367493
H -0.775329 -6.259856 1.845395
H 0.255325 -6.025119 0.455326
C 1.103577 -5.373650 2.272805
O 1.954678 -6.223117 2.337355
N 1.147306 -4.246346 3.002335
H 0.433012 -3.559246 2.919043
C 2.233156 -3.990824 3.921259
H 3.187741 -4.022708 3.410985
H 2.091980 -3.007050 4.347790
H 2.253842 -4.723451 4.719419
H -0.634689 -4.633219 1.149232
