11
CASPT2/ANO-S optimized R(1A) geometry from Table S1 of DOI 10.1039/b906404d; source coordinates converted from bohr to angstrom with 0.529177210903
C   1.0115756855  -0.0903877010   0.0144804052
C   0.4706322194   1.3259556331   0.0254322568
C  -0.8822754675   1.3628186468  -0.1032361237
C  -1.3446562266  -0.0353156995  -0.1568433627
C  -0.1791317777  -1.0030051314  -0.2818842334
C  -1.3973389930  -1.0983596898   0.6282931609
O   2.1897151900  -0.3892558770   0.1055327528
H   1.1073784570   2.1748426645   0.2404385451
H  -1.5177691426   2.2352900481  -0.0333947862
H  -1.7778967842  -1.5372470974   1.5362681196
H  -0.0721908843  -1.6599982183  -1.1402027902
