16
CASSCF(6,6)/6-31G(d) concerted MgH-TS Cartesian geometry from the ESI of DOI 10.1039/b925166a; coordinates in angstrom
C    0.000000    0.000000    0.000000
C    0.000000    0.000000    1.388400
C    1.144778    0.000000    2.203995
Mg   2.003913    2.150537    2.201075
H    2.993747    3.044808    3.326809
H    0.876977   -0.359970   -0.512400
H   -0.928808   -0.165105   -0.518149
H   -0.945001    0.187820    1.877237
H    0.999608   -0.159517    3.263565
H    2.026259   -0.494871    1.815429
C    0.246356    2.124029   -0.538771
C    1.179427    2.890403    0.180200
H    0.504183    1.766834   -1.517828
H    2.127720    3.092172   -0.299265
H   -0.799932    2.326329   -0.406039
H    0.781542    3.743325    0.719245
