36
Fe(Cor)Cl | VERBATIM B3LYP/TZP Ms=1 optimized geometry from the Supporting Information of 10.1021/jp807734x; coordinates in atomic units
C     -0.53399214625217      0.53221329243317     -6.28333795625260
C     -0.65959848788810      5.36380961670669     -5.59886565850622
H     -0.81506246002079      8.80504214419218     -3.25753809065825
C     -0.69929905617338      6.77556152774255     -3.40652955729379
C     -0.57890387696841      5.03309897721245     -1.35377159381333
H     -0.73699772194683      6.07005190074471     -7.51062259135249
N     -0.46922342899351      2.65995246187553     -2.29990869519223
C     -0.52291104468386      2.74968447107330     -4.89166978225412
H     -0.57680759252101      0.65371023429555     -8.32601562644709
H     -0.76150621140502     -4.44063983584541     -8.58109262889875
H     -0.81506246002079      8.80504214419218      3.25753809065825
C     -0.69929905617338      6.77556152774255      3.40652955729379
C     -0.65959848788810      5.36380961670669      5.59886565850622
C     -0.57890387696841      5.03309897721245      1.35377159381333
H     -0.73699772194683      6.07005190074471      7.51062259135249
C     -0.52291104468386      2.74968447107330      4.89166978225412
C     -0.53399214625217      0.53221329243317      6.28333795625260
N     -0.51703738104690     -2.40842873373754     -2.66366980641220
C     -0.62844179954317     -4.98702003999111     -2.35577062242420
C     -0.55142667816858     -1.90991852331730     -5.20934842137245
C     -0.66255356948769     -6.17762149083254      0.00000000000000
C     -0.74400271757184     -6.15485761993975     -4.79258998711494
H     -0.85143003492414     -8.16332778383118     -5.12998954544196
C     -0.69159843352207     -4.25657637358206     -6.55084322479043
N     -0.46922342899351      2.65995246187553      2.29990869519223
H     -0.76150621140502     -4.44063983584541      8.58109262889875
H     -0.75112275544391     -8.22331840035087      0.00000000000000
H     -0.57680759252101      0.65371023429555      8.32601562644709
H     -0.85143003492414     -8.16332778383118      5.12998954544196
C     -0.74400271757184     -6.15485761993975      4.79258998711494
N     -0.51703738104690     -2.40842873373754      2.66366980641220
C     -0.62844179954317     -4.98702003999111      2.35577062242420
C     -0.69159843352207     -4.25657637358206      6.55084322479043
C     -0.55142667816858     -1.90991852331730      5.20934842137245
Fe     0.29709431180078     -0.01895580041437      0.00000000000000
Cl     4.57122054081978     -0.14014316211495      0.00000000000000
