12
Benzene regular D6h geometry used for all states; experimental C-C 1.397 and C-H 1.084 angstrom
C   1.3970000000   0.0000000000  0.0000000000
C   0.6985000000   1.2098374891  0.0000000000
C  -0.6985000000   1.2098374891  0.0000000000
C  -1.3970000000   0.0000000000  0.0000000000
C  -0.6985000000  -1.2098374891  0.0000000000
C   0.6985000000  -1.2098374891  0.0000000000
H   2.4810000000   0.0000000000  0.0000000000
H   1.2405000000   2.1486090268  0.0000000000
H  -1.2405000000   2.1486090268  0.0000000000
H  -2.4810000000   0.0000000000  0.0000000000
H  -1.2405000000  -2.1486090268  0.0000000000
H   1.2405000000  -2.1486090268  0.0000000000
