33
protonated palythine FC | VERBATIM CASPT2//CASSCF geometry from the Supporting Information of 10.1039/c0cp02901g; atomic numbers mapped to element symbols and coordinate values unchanged
C      0.829193      1.262463     -0.622257
C      0.046277     -0.056516      1.400090
C      1.524907     -0.210320      1.772094
C      2.401197      0.864101      1.185934
C      2.047760      1.492783     -0.032046
C     -0.626066      1.055706      2.210448
O     -1.986220      1.007783      1.881350
O     -0.539642     -1.274718      1.737892
N      3.511232      1.218746      1.769125
C      4.088220      0.687532      2.993330
C      5.474925      1.279247      3.145131
O      6.063528      0.823156      4.222957
O      2.886579      2.457210     -0.517663
C      3.811333      2.027878     -1.509827
N      0.447284      1.946115     -1.698149
O      5.936283      2.054204      2.376099
H     -0.454968      1.816186     -2.096773
H      1.863122     -1.168288      1.386878
H      1.626063     -0.251485      2.848743
H     -1.116296      0.427183     -0.346614
H      0.150642     -0.745217     -0.621592
H      4.387308      2.896832     -1.786521
H      4.473404      1.264256     -1.118704
H      3.293759      1.638507     -2.377396
H      4.047420      1.947191      1.329782
H      3.495266      0.958916      3.857610
H      4.164167     -0.390667      2.954910
H      6.933881      1.206065      4.312757
H     -0.474883      0.850345      3.265858
H     -0.202224      2.029213      1.981917
H     -1.483847     -1.165622      1.777715
H     -2.497292      1.551936      2.465565
H      0.985096      2.719809     -2.022076
