33
neutral palythine FC | VERBATIM CASPT2//CASSCF geometry from the Supporting Information of 10.1039/c0cp02901g; atomic numbers mapped to element symbols and coordinate values unchanged
C      0.022252      0.010371      0.004592
C      0.008243      0.013216      1.536962
C      1.446419      0.012591      2.051186
C      2.331935      1.023256      1.358417
C      2.033397      1.539452      0.145354
C      0.800360      1.171703     -0.580027
C     -0.781028      1.196517      2.107686
O     -2.143516      1.089336      1.761671
O     -0.585288     -1.170677      2.003715
N      3.439882      1.478067      2.080873
C      4.313199      0.505101      2.685328
C      5.574549      1.177111      3.168531
O      5.959108      2.244460      2.821764
O      2.829750      2.521879     -0.364841
C      3.585152      2.188484     -1.504817
N      0.479799      1.799337     -1.645518
O      6.246964      0.402310      4.010620
H     -0.373873      1.429974     -2.031554
H      1.838590     -0.992671      1.923275
H      1.447322      0.212413      3.117494
H     -0.993121      0.010311     -0.379593
H      0.479013     -0.922504     -0.314452
H      4.216250      3.040171     -1.714556
H      4.211276      1.321031     -1.313569
H      2.945495      1.996394     -2.353924
H      3.946012      2.184296      1.589095
H      3.841632      0.019442      3.529802
H      4.632666     -0.287924      2.004858
H      7.051617      0.849987      4.254614
H     -0.730981      1.151549      3.187460
H     -0.369503      2.146438      1.788638
H     -1.528006     -1.075902      1.931806
H     -2.330043      1.612971      0.996356
