16
CASSCF(6,6)/6-31G(d) concerted MgCl-TS Cartesian geometry from the ESI of DOI 10.1039/b925166a; coordinates in angstrom
C    0.000000    0.000000    0.000000
C    0.000000    0.000000    1.388000
C    1.146748    0.000000    2.204621
Mg   1.939286    2.145219    2.125644
Cl   3.210743    3.301942    3.574400
H    0.880930   -0.347969   -0.513699
H   -0.927336   -0.171461   -0.517889
H   -0.945496    0.181499    1.877602
H    1.002691   -0.156246    3.264015
H    2.028329   -0.493776    1.815727
C    0.202892    2.132354   -0.553329
C    1.127435    2.931173    0.144553
H    0.459855    1.765026   -1.528418
H    2.064793    3.145288   -0.349707
H   -0.845975    2.312031   -0.410415
H    0.715746    3.784071    0.671730
