9
Furan structure 1, CASSCF(12,10)/cc-pVDZ; Cartesian reconstruction of complete SI Table S1 internals (angstrom)
O   0.0000000000   0.0000000000  0.0000000000
C  -1.0969926552  -0.8339610988  0.0000000000
C  -0.7200000000  -2.1365018997  0.0000000000
C   0.7200000000  -2.1365018997  0.0000000000
C   1.0969926552  -0.8339610988  0.0000000000
H  -2.0518169309  -0.3400627260  0.0000000000
H  -1.3775289824  -2.9894876189  0.0000000000
H   1.3775289824  -2.9894876189  0.0000000000
H   2.0518169309  -0.3400627260  0.0000000000
