15
7H-diketo xanthine; CC2/aug-cc-pVDZ S0 minimum; SI Table S1; bohr converted to angstrom
N -0.800761859 0.000000000 -1.514725827
C 0.573344567 0.000000000 -1.832038147
N 1.416546784 0.000000000 -0.722815459
C 0.913605988 0.000000000 0.563599453
C -0.461361912 0.000000000 0.798730428
C -1.447338978 0.000000000 -0.253328275
N -0.579327739 0.000000000 2.178953818
C 0.695369495 0.000000000 2.687545371
N 1.640720531 0.000000000 1.727161142
O 0.983904706 0.000000000 -2.999057513
O -2.685592129 0.000000000 -0.139576358
H 0.894793411 0.000000000 3.756779961
H -1.414704223 0.000000000 -2.329506551
H 2.417425650 0.000000000 -0.901492161
H -1.453283511 0.000000000 2.697566311
