16
cyclooctatetraene | PubChem CID 637866 3D conformer | GENERATED structure, NOT the geometry used in the referenced paper
C      -1.555800    -0.661100    -0.364600
C      -1.547800     0.679600    -0.364500
C      -0.679600    -1.547800     0.364500
C      -0.661000     1.555800     0.364500
C       0.661000    -1.555800     0.364600
C       0.679600     1.547800     0.364600
C       1.547800    -0.679600    -0.364600
C       1.555800     0.661000    -0.364500
H      -2.347300    -1.164500    -0.916300
H      -2.333200     1.192600    -0.916200
H      -1.192600    -2.333100     0.916300
H      -1.164600     2.347200     0.916200
H       1.164600    -2.347200     0.916400
H       1.192600     2.333100     0.916300
H       2.333100    -1.192600    -0.916400
H       2.347300     1.164500    -0.916300
