18
MP2/6-31G* valence-benchmark geometry adopted by Bostrom et al. (2010) from the cited Schreiber et al. protocol
H   1.240557  2.492735  0.000000
H  -1.240557 -2.492735  0.000000
H  -1.240557  2.492735  0.000000
H   1.240557 -2.492735  0.000000
H   3.377213  1.246082  0.000000
H  -3.377213 -1.246082  0.000000
H  -3.377213  1.246082  0.000000
H   3.377213 -1.246082  0.000000
C   0.000000  0.716253  0.000000
C   0.000000 -0.716253  0.000000
C   1.241539  1.403577  0.000000
C  -1.241539 -1.403577  0.000000
C  -1.241539  1.403577  0.000000
C   1.241539 -1.403577  0.000000
C   2.432418  0.707325  0.000000
C  -2.432418 -0.707325  0.000000
C  -2.432418  0.707325  0.000000
C   2.432418 -0.707325  0.000000
