15
9H-diketo xanthine; CC2/aug-cc-pVDZ S0 minimum; SI Table S2; bohr converted to angstrom
N -0.798552562 0.000000000 -1.509824182
C 0.555957407 0.000000000 -1.848672607
N 1.417154381 0.000000000 -0.741403597
C 0.896751761 0.000000000 0.534692398
C -0.464229092 0.000000000 0.842747055
C -1.446883365 0.000000000 -0.230285336
N -0.652430054 0.000000000 2.222203326
C 0.574219604 0.000000000 2.727681688
N 1.562230016 0.000000000 1.736960247
O 0.978853074 0.000000000 -3.011411832
O -2.679824213 0.000000000 -0.156235507
H 0.832363508 0.000000000 3.784453342
H -1.429554177 0.000000000 -2.311579116
H 2.410456447 0.000000000 -0.953519999
H 2.567385690 0.000000000 1.882862543
