13
Cr(CO)6 source-derived Oh Cartesian geometry from experimental r(Cr-C)=1.914 and r(C-O)=1.140 angstrom used by Pierloot et al. (1996)
Cr  0.000000000  0.000000000  0.000000000
C   1.914000000  0.000000000  0.000000000
O   3.054000000  0.000000000  0.000000000
C  -1.914000000  0.000000000  0.000000000
O  -3.054000000  0.000000000  0.000000000
C   0.000000000  1.914000000  0.000000000
O   0.000000000  3.054000000  0.000000000
C   0.000000000 -1.914000000  0.000000000
O   0.000000000 -3.054000000  0.000000000
C   0.000000000  0.000000000  1.914000000
O   0.000000000  0.000000000  3.054000000
C   0.000000000  0.000000000 -1.914000000
O   0.000000000  0.000000000 -3.054000000
