14
pyrimidine-NH3 sigma_B S0, CASSCF(10,8)/6-311G(2df), source-explicit ESI coordinates in angstrom
C      -0.024494598     -0.000398277      0.015574318
C      -0.043202924      0.000377249      1.400580754
N       1.073098900      0.000678789      2.117201120
C       2.209480091     -0.000018848      1.437365505
N       2.341178354     -0.000741766      0.118802068
C       1.220656568     -0.001100496     -0.593581904
H      -0.929856249     -0.000269963     -0.559129602
H      -0.967285850      0.001280285      1.948901789
H       1.333695274     -0.001424436     -1.661192135
H       3.115278959      0.000385343      2.012861311
N       3.734395311     -0.001759842     -2.962415273
H       3.823391234     -0.001918281     -1.964238812
H       4.224355578      0.802381694     -3.301227076
H       4.225193710     -0.805223122     -3.301617122
