9
Ni(CO)4 source-derived Td Cartesian geometry from experimental r(Ni-C)=1.838 and r(C-O)=1.141 angstrom used by Pierloot et al. (1996)
Ni  0.000000000  0.000000000  0.000000000
C   1.061169795  1.061169795  1.061169795
O   1.719926452  1.719926452  1.719926452
C   1.061169795 -1.061169795 -1.061169795
O   1.719926452 -1.719926452 -1.719926452
C  -1.061169795  1.061169795 -1.061169795
O  -1.719926452  1.719926452 -1.719926452
C  -1.061169795 -1.061169795  1.061169795
O  -1.719926452 -1.719926452  1.719926452
