13
cytosine | PubChem CID 597 3D conformer | GENERATED structure, NOT the geometry used in the referenced paper
O       2.213400     1.118800     0.000100
N      -0.059500     0.981600     0.000100
N      -2.442200     0.921400     0.000100
N       1.293500    -0.974400     0.000000
C      -1.240600     0.267600    -0.000100
C      -1.164300    -1.072600    -0.000200
C       1.208800     0.405600    -0.000300
C       0.190800    -1.647800     0.000300
H      -0.133100     1.994600     0.000300
H      -2.022300    -1.731700    -0.000300
H       0.235100    -2.748700     0.000500
H      -3.308900     0.398400     0.000300
H      -2.453300     1.933200     0.000600
