14
Phenylacetylene CASSCF(10,10)/cc-pVDZ S0 1A1 minimum reconstructed from Table 2 C2v internal coordinates; DOI 10.1039/b705194h
C  -2.66200000   0.00000000   0.00000000
C  -1.44600000   0.00000000   0.00000000
C   0.00000000   0.00000000   0.00000000
C   0.70920289   1.21171253   0.00000000
C   0.70920289  -1.21171253   0.00000000
C   2.10520077   1.20927605   0.00000000
C   2.10520077  -1.20927605   0.00000000
C   2.80652386   0.00000000   0.00000000
H  -3.72500000   0.00000000   0.00000000
H   0.16511224   2.14580373   0.00000000
H   0.16511224  -2.14580373   0.00000000
H   2.64259881   2.14838592   0.00000000
H   2.64259881  -2.14838592   0.00000000
H   3.88852386   0.00000000   0.00000000
