14
Phenylacetylene cation CASSCF(9,10)/cc-pVDZ D0 2B1 minimum reconstructed from Table 2 C2v internal coordinates; DOI 10.1039/b705194h
C  -2.62500000   0.00000000   0.00000000
C  -1.40100000   0.00000000   0.00000000
C   0.00000000   0.00000000   0.00000000
C   0.71676168   1.24548051   0.00000000
C   0.71676168  -1.24548051   0.00000000
C   2.08874028   1.23781785   0.00000000
C   2.08874028  -1.23781785   0.00000000
C   2.78431166   0.00000000   0.00000000
H  -3.69200000   0.00000000   0.00000000
H   0.15713129   2.16917625   0.00000000
H   0.15713129  -2.16917625   0.00000000
H   2.64498140   2.16355854   0.00000000
H   2.64498140  -2.16355854   0.00000000
H   3.86531166   0.00000000   0.00000000
