24
1-anthrylnitrene triplet U-B3LYP/6-31G* optimized coordinates from ESI; DOI 10.1039/c0cp02809f (molecule 4)
C  -0.030450   2.671369   0.000000
C   1.220605   3.377385   0.000000
C   2.434654   2.690893   0.000000
C   2.478087   1.303295   0.000000
C   1.277889   0.524563   0.000000
C   1.309247  -0.872754   0.000000
C   0.132383  -1.642566   0.000000
C   0.152048  -3.068353   0.000000
C  -1.018013  -3.787412   0.000000
C  -2.272897  -3.120114   0.000000
C  -2.329965  -1.746779   0.000000
C  -1.139040  -0.967632   0.000000
C  -1.165756   0.443769   0.000000
C   0.000000   1.191678   0.000000
N  -1.152930   3.331938   0.000000
H   1.188996   4.461652   0.000000
H   3.362057   3.257314   0.000000
H   3.432941   0.784683   0.000000
H   2.272041  -1.379851   0.000000
H   1.113563  -3.576295   0.000000
H  -0.990065  -4.873561   0.000000
H  -3.189139  -3.703875   0.000000
H  -3.288077  -1.232907   0.000000
H  -2.124540   0.955220   0.000000
