18
Naphthalene radical cation; direct publisher-SI UB3LYP/6-31G* optimized 2-Au geometry, angstrom
C   0.716279   0.000000   0.000000
C  -0.716279   0.000000   0.000000
C   1.402314   1.236160   0.000000
C   1.402314  -1.236160   0.000000
C  -1.402314   1.236160   0.000000
C  -1.402314  -1.236160   0.000000
C   0.696179   2.452503   0.000000
C   0.696179  -2.452503   0.000000
C  -0.696179   2.452503   0.000000
C  -0.696179  -2.452503   0.000000
H   2.488952   1.243593   0.000000
H   2.488952  -1.243593   0.000000
H  -2.488952   1.243593   0.000000
H  -2.488952  -1.243593   0.000000
H   1.242928   3.389936   0.000000
H   1.242928  -3.389936   0.000000
H  -1.242928   3.389936   0.000000
H  -1.242928  -3.389936   0.000000
