28
1Z diazocine ground-state equilibrium structure; direct publisher-ESI Table S3 CASSCF(14,12) coordinates, angstrom
N  -0.618886  -0.883112   1.731709
N   0.609782  -1.018485   1.682439
C  -3.149784   0.161082  -1.476635
C  -3.126067  -1.121614  -0.940862
C  -2.268677  -1.401151   0.108970
C  -1.398180  -0.426127   0.604236
C  -1.423557   0.881062   0.096547
C  -2.315554   1.135813  -0.952342
C  -0.617308   2.049069   0.627623
C   0.823679   1.776817   1.115925
C   1.562257   0.759864   0.289180
C   2.438948   1.120736  -0.733271
C   3.104755   0.160800  -1.485427
C   2.920865  -1.189857  -1.205541
C   2.078455  -1.573467  -0.171975
C   1.380794  -0.604192   0.545112
H  -3.818097   0.403014  -2.292443
H  -3.776124  -1.894502  -1.329033
H  -2.252341  -2.382436   0.564684
H  -2.346616   2.136199  -1.367177
H  -1.170931   2.520332   1.446423
H  -0.576530   2.792221  -0.170484
H   0.800661   1.447635   2.155139
H   1.367038   2.722747   1.104189
H   2.601046   2.172258  -0.939281
H   3.776150   0.465143  -2.277520
H   3.445224  -1.942265  -1.779820
H   1.950409  -2.616943   0.084059
