24
2-anthrylnitrene triplet U-B3LYP/6-31G* optimized coordinates from ESI; DOI 10.1039/c0cp02809f (molecule 5)
C  -0.141400   2.538339   0.000000
C  -1.424970   3.158514   0.000000
C  -2.607437   2.296930   0.000000
C  -2.478843   0.947829   0.000000
C  -1.188523   0.301136   0.000000
C  -1.052970  -1.078880   0.000000
C   0.213024  -1.706285   0.000000
C   0.359110  -3.120481   0.000000
C   1.606111  -3.701689   0.000000
C   2.775505  -2.894888   0.000000
C   2.673774  -1.524921   0.000000
C   1.398538  -0.886212   0.000000
C   1.260218   0.512044   0.000000
C   0.000000   1.131498   0.000000
H   0.739648   3.172969   0.000000
N  -1.548672   4.465543   0.000000
H  -3.580463   2.776682   0.000000
H  -3.364539   0.316416   0.000000
H  -1.945680  -1.701342   0.000000
H  -0.536671  -3.736935   0.000000
H   1.702527  -4.783811   0.000000
H   3.752946  -3.369098   0.000000
H   3.566415  -0.904006   0.000000
H   2.153707   1.132711   0.000000
