24
9-anthrylnitrene triplet U-B3LYP/6-31G* optimized coordinates from ESI; DOI 10.1039/c0cp02809f (molecule 6)
C   0.000000   2.473539  -1.574398
C   0.000000   3.675855  -0.898296
C   0.000000   3.693978   0.512184
C   0.000000   2.505479   1.225151
C   0.000000   1.267436   0.557886
C   0.000000   0.000000   1.310313
C   0.000000  -1.267436   0.557886
C   0.000000  -2.505479   1.225151
C   0.000000  -3.693978   0.512184
C   0.000000  -3.675855  -0.898296
C   0.000000  -2.473539  -1.574398
C   0.000000  -1.237920  -0.870370
C   0.000000   0.000000  -1.554291
C   0.000000   1.237920  -0.870370
H   0.000000   2.451626  -2.661481
H   0.000000   4.611181  -1.451150
H   0.000000   4.642491   1.041568
H   0.000000   2.514442   2.310675
N   0.000000   0.000000   2.600058
H   0.000000  -2.514442   2.310675
H   0.000000  -4.642491   1.041568
H   0.000000  -4.611181  -1.451150
H   0.000000  -2.451626  -2.661481
H   0.000000   0.000000  -2.641638
