22
Dihydroacenaphthylene radical cation A+; direct publisher-SI UB3LYP/6-31G* optimized 2-A2 geometry, angstrom
C   0.000000   0.000000  -0.090884
C   0.000000   0.000000   1.321961
C   0.000000   1.164424  -0.877445
C   0.000000  -1.164424  -0.877445
C   0.000000   1.268528   1.949558
C   0.000000  -1.268528   1.949558
C   0.000000   2.414748  -0.227964
C   0.000000  -2.414748  -0.227964
C   0.000000   2.445182   1.169379
C   0.000000  -2.445182   1.169379
C   0.000000   0.780772  -2.331897
C   0.000000  -0.780772  -2.331897
H   0.000000   1.344849   3.033302
H   0.000000  -1.344849   3.033302
H   0.000000   3.341720  -0.793396
H   0.000000  -3.341720  -0.793396
H   0.000000   3.404728   1.677119
H   0.000000  -3.404728   1.677119
H   0.875811   1.192897  -2.850022
H   0.875811  -1.192897  -2.850022
H  -0.875811   1.192897  -2.850022
H  -0.875811  -1.192897  -2.850022
