102
W2139464059-a | Direct transcription of ESI Table S3 DFT-optimized [MnIII(O2)(TpPh2)(THF)] model
Mn 2.311278 5.168113 8.572887
O 3.759224 4.994203 7.408479
O 3.702012 3.944327 8.39639
O 3.642094 6.494182 10.025693
N 0.531187 4.095032 7.443028
N 1.29661 6.924038 8.086569
N 1.148728 4.746492 10.261434
N -0.182102 5.072468 10.203946
N -0.675955 4.675571 7.737045
N 0.002915 7.007179 8.533482
B -0.777242 5.703335 8.899954
C -1.695933 4.029288 7.074486
C -1.115549 2.982868 6.349993
C 0.278409 3.060868 6.59728
C -0.446171 8.298971 8.418836
C 0.597253 9.057491 7.86571
C 1.672346 8.164192 7.669132
C -0.75983 4.883731 11.434879
C 0.246276 4.439276 12.307237
C 1.423074 4.346505 11.533707
C -3.122816 4.41319 7.087925
C -3.54652 5.755614 6.936598
C -4.913374 6.0725 6.883498
C -5.883315 5.057732 6.973848
C -5.475734 3.718441 7.116625
C -4.108853 3.39927 7.172456
C 1.30298 2.165797 6.016736
C 2.617277 2.598687 5.724944
C 3.542085 1.72037 5.134432
C 3.177311 0.397649 4.823422
C 1.871992 -0.04476 5.110218
C 0.945819 0.829963 5.700579
C -1.782401 8.793367 8.814209
C -2.36368 8.482828 10.065985
C -3.606851 9.02433 10.429283
C -4.289297 9.888691 9.554043
C -3.71636 10.213329 8.310792
C -2.473499 9.67219 7.944217
C 2.987638 8.483451 7.077143
C 3.620911 9.706662 7.406037
C 4.844505 10.061323 6.815830
C 5.45373 9.201693 5.882800
C 4.827141 7.989516 5.541610
C 3.603509 7.632058 6.130691
C -2.188855 5.066142 11.768434
C -2.529037 5.709462 12.984204
C -3.871567 5.841674 13.374697
C -4.898018 5.33189 12.558414
C -4.571156 4.683966 11.353178
C -3.22971 4.547236 10.961781
C 2.73614 3.843311 11.987691
C 3.221705 4.221099 13.263644
C 4.440482 3.716821 13.745588
C 5.192825 2.821935 12.961949
C 4.712988 2.431209 11.698561
C 3.493368 2.933361 11.214475
C 3.214411 7.534751 10.950286
C 4.458382 7.897943 11.769279
C 5.597298 7.621325 10.769254
C 5.096992 6.365083 10.052628
H -1.633772 2.301757 5.664913
H 0.573997 10.127612 7.630868
H 0.117627 4.134897 13.352104
H -2.798897 6.558025 6.835146
H -5.222622 7.123673 6.760456
H -6.956171 5.310218 6.927996
H -6.227323 2.914172 7.187294
H -3.795155 2.348989 7.294857
H 2.918763 3.630836 5.962713
H 4.561822 2.077277 4.912743
H 3.907777 -0.287954 4.361568
H 1.573301 -1.080472 4.877377
H -0.067449 0.466800 5.937741
H -1.830297 7.827967 10.772099
H -4.042706 8.770735 11.409456
H -5.266041 10.310907 9.842117
H -4.242647 10.890437 7.617011
H -2.034985 9.920592 6.963872
H 3.152575 10.380976 8.142642
H 5.326333 11.015049 7.088299
H 6.414766 9.479021 5.419004
H 5.291717 7.314972 4.803005
H 3.108311 6.694600 5.835317
H -1.728767 6.118134 13.622552
H -4.117554 6.347139 14.323221
H -5.952724 5.435496 12.864199
H -5.367271 4.272972 10.711187
H -2.989236 4.012554 10.029806
H 2.638872 4.927288 13.878533
H 4.804938 4.026285 14.738921
H 6.149941 2.424872 13.338375
H 5.289454 1.720031 11.083498
H 3.111419 2.594062 10.240319
H 2.377791 7.134522 11.563455
H 2.839901 8.401869 10.357583
H 4.548801 7.229166 12.652852
H 4.433434 8.948472 12.128501
H 6.581008 7.462723 11.259597
H 5.697716 8.464468 10.05032
H 5.441171 6.266887 9.00275
H 5.355249 5.434518 10.608295
H -1.937045 5.988601 9.095838
