18
1-naphthylnitrene triplet U-B3LYP/6-31G* optimized coordinates from ESI; DOI 10.1039/c0cp02809f (molecule 2)
C  -1.420643   0.884946   0.000000
C  -2.403900  -0.157277   0.000000
C  -2.025121  -1.498257   0.000000
C  -0.684274  -1.862063   0.000000
C   0.346272  -0.875193   0.000000
C   1.718119  -1.232366   0.000000
C   2.702383  -0.263493   0.000000
C   2.351047   1.101250   0.000000
C   1.018672   1.479587   0.000000
C   0.000000   0.507979   0.000000
N  -1.796638   2.140948   0.000000
H  -3.449666   0.131456   0.000000
H  -2.792465  -2.267615   0.000000
H  -0.401763  -2.911424   0.000000
H   1.983764  -2.286810   0.000000
H   3.749752  -0.552459   0.000000
H   3.128616   1.859905   0.000000
H   0.742894   2.529627   0.000000
