18
2-naphthylnitrene triplet U-B3LYP/6-31G* optimized coordinates from ESI; DOI 10.1039/c0cp02809f (molecule 3)
C   1.408040   0.753963   0.000000
C   2.210865  -0.420474   0.000000
C   1.543195  -1.711655   0.000000
C   0.183511  -1.784714   0.000000
C  -0.636844  -0.608449   0.000000
C  -2.045834  -0.675256   0.000000
C  -2.811682   0.477614   0.000000
C  -2.189660   1.746628   0.000000
C  -0.814695   1.846078   0.000000
C   0.000000   0.679346   0.000000
H   1.903532   1.720303   0.000000
N   3.530773  -0.343342   0.000000
H   2.160854  -2.603653   0.000000
H  -0.308019  -2.754953   0.000000
H  -2.525467  -1.651174   0.000000
H  -3.895853   0.409024   0.000000
H  -2.800031   2.645321   0.000000
H  -0.331811   2.820044   0.000000
