26
Pyracene radical cation P+ (SI: tetrahydropyracene); direct publisher-SI UB3LYP/6-31G* optimized 2-Au geometry, angstrom
C  -0.690628   0.000000   0.000000
C   0.690628   0.000000   0.000000
C  -1.434032   1.181938   0.000000
C   1.434032   1.181938   0.000000
C  -1.434032  -1.181938   0.000000
C   1.434032  -1.181938   0.000000
C  -0.705229   2.397285   0.000000
C   0.705229   2.397285   0.000000
C  -0.705229  -2.397285   0.000000
C   0.705229  -2.397285   0.000000
C  -2.895129   0.789515   0.000000
C   2.895129   0.789515   0.000000
C  -2.895129  -0.789515   0.000000
C   2.895129  -0.789515   0.000000
H  -1.224110   3.351403   0.000000
H   1.224110   3.351403   0.000000
H  -1.224110  -3.351403   0.000000
H   1.224110  -3.351403   0.000000
H  -3.418507   1.192363   0.876295
H   3.418507   1.192363   0.876295
H  -3.418507  -1.192363   0.876295
H   3.418507  -1.192363   0.876295
H  -3.418507   1.192363  -0.876295
H   3.418507   1.192363  -0.876295
H  -3.418507  -1.192363  -0.876295
H   3.418507  -1.192363  -0.876295
