57
[RuIII–OH2]3+ (Doublet); exact ESI M06-L ground-state geometry used for CASSCF/CASPT2
Ru  0.08735600 -0.50332600  0.15200400
N   2.09045200 -0.09617700  0.05134300
C   2.80409700 -0.60027500 -0.98478800
C   4.17044200 -0.36288500 -1.06950500
C   4.78885700  0.37980800 -0.06264300
C   4.03630100  0.88715900  0.99828400
C   2.66884000  0.64598400  1.02629600
N  -0.66841900  1.30616800 -0.39834600
C   0.08299500  2.38816800 -0.70010800
C  -0.47322100  3.60993900 -1.04377200
C  -1.86211200  3.72831800 -1.08704200
C  -2.64100900  2.61867900 -0.78268100
C  -2.03457800  1.41055000 -0.43575800
N  -1.96332000 -0.86983000  0.24355500
C  -2.54856700 -2.03936300  0.57914100
C  -3.92294500 -2.21148200  0.61079200
C  -4.73929400 -1.13042600  0.27789700
C  -4.14948700  0.07933300 -0.07371900
C  -2.76041400  0.19474700 -0.08616400
H   4.74561500 -0.75810500 -1.90394900
H   5.85956000  0.56717000 -0.10639100
H   4.50762200  1.47043900  1.78634600
H   1.16135400  2.24631600 -0.67367300
H   0.17618700  4.44935400 -1.27807100
H  -2.33165600  4.67178700 -1.35588700
H  -3.72467800  2.69377600 -0.81234600
H  -1.88179400 -2.86439800  0.81994900
H  -4.34153400 -3.17520800  0.88842800
H  -5.82242700 -1.22920600  0.28976900
H  -4.77517300  0.92738700 -0.33859700
N   0.45817100  0.38372800  2.14436100
C   0.72047000 -0.72548300  3.10400400
H   0.87774600 -0.31814400  4.11062300
H  -0.14294100 -1.39707200  3.13928500
H   1.61857600 -1.27331100  2.80910400
C  -0.64017400  1.21994700  2.69996500
H  -1.53505000  0.60507200  2.82862400
H  -0.34845400  1.61994600  3.67893200
H  -0.85445400  2.05659100  2.03131000
C   1.70095500  1.22258400  2.01762300
H   2.15369600  1.35709400  3.00932000
H   1.38699400  2.22255600  1.68663800
C   1.99718400 -1.44445600 -1.92744600
H   2.02220900 -2.49619200 -1.61424100
H   2.39894200 -1.41741100 -2.94892300
N   0.55267000 -1.01228500 -1.94168100
C   0.39653600  0.09313000 -2.92388500
H   0.64036200 -0.27192200 -3.92886700
H  -0.63656300  0.44891600 -2.92259900
H   1.07355700  0.91496200 -2.67626700
C  -0.30001300 -2.15287600 -2.38191000
H  -1.33623600 -1.81642700 -2.46977800
H   0.03503300 -2.51217900 -3.36339700
H  -0.22764700 -2.97373200 -1.66426000
O   0.79529900 -2.56476600  0.63211100
H   1.73208800 -2.71007800  0.85377900
H   0.30695000 -3.22132000  1.15794900
