55
[RuIV–O]2+ (Triplet); exact ESI M06-L ground-state geometry used for CASSCF/CASPT2
Ru  0.15558900 -0.55698300  0.15168000
O   0.48157800 -2.22138700  0.62014600
N   2.10313300 -0.06343400  0.04460100
C   2.83121700 -0.58469000 -0.96594600
C   4.18588200 -0.29000200 -1.05353500
C   4.76168500  0.51097700 -0.06644500
C   3.99082300  1.00560500  0.98759200
C   2.63628200  0.70297800  1.02044900
N  -0.69855800  1.39706800 -0.42197500
C  -0.00857600  2.50736200 -0.74515300
C  -0.61504600  3.70395800 -1.09312600
C  -2.00736200  3.75665600 -1.11431700
C  -2.73114000  2.61664200 -0.79033600
C  -2.06056400  1.44100900 -0.44482400
N  -1.93800100 -0.86045700  0.21725300
C  -2.48762800 -2.03912300  0.56581100
C  -3.86070200 -2.22921000  0.62494400
C  -4.69955000 -1.16318600  0.31290000
C  -4.13510100  0.05515300 -0.04459900
C  -2.74697400  0.19243000 -0.08691100
H   4.78661800 -0.69443400 -1.86445600
H   5.82338900  0.74181000 -0.11139900
H   4.43995300  1.61242700  1.77005800
H   1.07802000  2.41311500 -0.72762900
H  -0.00937800  4.57001400 -1.34455700
H  -2.52428300  4.67461500 -1.38322700
H  -3.81676300  2.64544900 -0.80843700
H  -1.77783400 -2.83168600  0.79712100
H  -4.25722000 -3.19914500  0.91191900
H  -5.78019600 -1.27610600  0.34790800
H  -4.77787500  0.89615600 -0.28847100
N   0.49457600  0.21977700  2.19679700
C   0.93450900 -0.88950900  3.08674800
H   1.17914300 -0.49181500  4.08014400
H   0.12950600 -1.62208700  3.17279200
H   1.80796900 -1.38578300  2.65829300
C  -0.64416600  0.91513000  2.83708700
H  -1.45763400  0.20043500  2.98826100
H  -0.34952600  1.32386300  3.81285300
H  -0.98930700  1.73325500  2.19817700
C   1.63163500  1.18891400  2.02792200
H   2.09793300  1.39087800  3.00252000
H   1.19726700  2.13931700  1.68502800
C   2.06318700 -1.54028000 -1.83282500
H   2.11250200 -2.53526600 -1.36931200
H   2.48955100 -1.62272700 -2.84210300
N   0.60517100 -1.17785100 -1.91835400
C   0.43104700 -0.09152400 -2.90839000
H   0.73747000 -0.43336700 -3.90568300
H  -0.62062000  0.20591000 -2.94379600
H   1.04125300  0.77253600 -2.62765500
C  -0.16189600 -2.36648300 -2.36085900
H  -1.21309300 -2.08802800 -2.47501600
H   0.21528700 -2.73023800 -3.32570400
H  -0.07028800 -3.15330300 -1.60809200
