55
[RuV–O]3+ (Doublet); exact ESI M06-L ground-state geometry used for CASSCF/CASPT2
Ru  0.15547900 -0.63115700  0.14760200
O   0.15791500 -2.30558800  0.33673500
N   2.07934500 -0.09587200  0.10225100
C   2.83118500 -0.55452200 -0.93980200
C   4.19080000 -0.28296300 -0.95716600
C   4.75314400  0.43483200  0.10323500
C   3.96209000  0.86898800  1.17272200
C   2.60429400  0.59478700  1.15255000
N  -0.60388500  1.34195800 -0.37935500
C   0.18807600  2.40591300 -0.65693900
C  -0.31909100  3.65407500 -0.97457700
C  -1.70362700  3.82042600 -1.02893800
C  -2.52404100  2.73325400 -0.75397200
C  -1.95894400  1.49882100 -0.42974100
N  -1.99668800 -0.80147100  0.18458000
C  -2.62216200 -1.95124600  0.51110200
C  -4.00673200 -2.05437200  0.54187600
C  -4.77471900 -0.93635500  0.22838600
C  -4.12902200  0.24989000 -0.10512400
C  -2.73496200  0.30065100 -0.11848200
H   4.81114600 -0.64518100 -1.77413100
H   5.82042200  0.64881100  0.10202700
H   4.40206500  1.41195300  2.00634300
H   1.26255500  2.23615800 -0.61984000
H   0.36122000  4.47712900 -1.17785700
H  -2.13772400  4.78456700 -1.28525700
H  -3.60367100  2.84707300 -0.79425200
H  -1.98314500 -2.80092000  0.74109000
H  -4.46406800 -3.00571200  0.80243900
H  -5.86125700 -0.98463900  0.24136600
H  -4.71298700  1.13265800 -0.35042600
N   0.40282300  0.11448200  2.19609800
C   0.75178200 -1.08518800  3.03062400
H   0.94831200 -0.76122100  4.05937600
H  -0.08709800 -1.78449300  3.02975000
H   1.64068200 -1.57904500  2.62980000
C  -0.75471700  0.81062100  2.81616800
H  -1.59281000  0.11487400  2.90072200
H  -0.48390400  1.15492000  3.82196100
H  -1.04068200  1.67544600  2.21201400
C   1.58751900  1.04578700  2.15678700
H   2.01645300  1.13114300  3.16405700
H   1.21423000  2.04556600  1.89151700
C   2.09178500 -1.44154100 -1.89489600
H   2.14145400 -2.47589400 -1.52340300
H   2.54287800 -1.44106700 -2.89594900
N   0.63707400 -1.06708200 -1.99057900
C   0.48899300  0.09069700 -2.91030400
H   0.78718900 -0.20934500 -3.92219000
H  -0.55511100  0.41195100 -2.93599900
H   1.12688900  0.91828400 -2.58975600
C  -0.13795400 -2.21284800 -2.54904200
H  -1.18743100 -1.92184700 -2.64153400
H   0.24558700 -2.46664600 -3.54456200
H  -0.04843600 -3.08126300 -1.89343500
