55
[RuVI–O]4+ (Singlet); exact ESI M06-L ground-state geometry used for CASSCF/CASPT2
Ru  0.19624100 -0.59316200  0.25579200
O   0.14387200 -2.15770400  0.80808700
N   2.09710400 -0.07431400  0.05325200
C   2.82505500 -0.71779500 -0.92252400
C   4.18802700 -0.49118300 -1.00761300
C   4.79580300  0.37864300 -0.09096700
C   4.03698300  1.00521700  0.91175400
C   2.67462700  0.77511100  0.96654900
N  -0.65245300  1.25998300 -0.54834200
C   0.09354000  2.29867700 -0.97271600
C  -0.46031300  3.49518200 -1.44072000
C  -1.85024700  3.63342200 -1.48357300
C  -2.63383400  2.56871300 -1.05683500
C  -2.02851900  1.38869200 -0.58627200
N  -1.99997400 -0.80298900  0.32460400
C  -2.60901100 -1.91761200  0.75368300
C  -4.01329600 -2.04463100  0.79545100
C  -4.80940500 -0.98288100  0.36656600
C  -4.17985400  0.17068100 -0.08605500
C  -2.76788200  0.24585600 -0.10749600
H   4.78193400 -1.00421100 -1.76293200
H   5.86877900  0.56302800 -0.15045200
H   4.51370700  1.66199700  1.63806200
H   1.17439800  2.16992400 -0.95779200
H   0.20056700  4.29346800 -1.77612700
H  -2.31074400  4.55113600 -1.84783800
H  -3.71716900  2.65522500 -1.08641900
H  -1.97146100 -2.73695900  1.08311100
H  -4.44780600 -2.97001400  1.17338900
H  -5.89626300 -1.05210300  0.38562900
H  -4.78013700  1.00859700 -0.43264300
N   0.50955500  0.53081200  2.13952500
C   0.86591800 -0.51808100  3.16911500
H   1.09949600 -0.01148500  4.11333100
H   0.01422300 -1.18293200  3.32674300
H   1.73688200 -1.09261500  2.84368300
C  -0.62920900  1.33848500  2.65148700
H  -1.47181900  0.68180800  2.88042700
H  -0.32824300  1.84342700  3.57915000
H  -0.91526400  2.10263800  1.92410100
C   1.70547300  1.41663600  1.90732000
H   2.17111100  1.65245000  2.87425600
H   1.34736700  2.37372300  1.50096500
C   2.05470100 -1.73213100 -1.70483000
H   2.10865100 -2.70240200 -1.18688500
H   2.47086600 -1.88631600 -2.70950700
N   0.59837400 -1.35201100 -1.81567500
C   0.42662900 -0.34816300 -2.90140400
H   0.68476200 -0.81249400 -3.86169300
H  -0.61660100 -0.02660100 -2.94973700
H   1.08830600  0.50757000 -2.74305300
C  -0.21950400 -2.56119000 -2.14710600
H  -1.26842400 -2.27273500 -2.25179100
H   0.12003500 -2.96960600 -3.10774600
H  -0.10508100 -3.32402400 -1.37420700
