57
[RuII–OH2]2+ (Singlet); exact ESI M06-L ground-state geometry used for CASSCF/CASPT2
Ru  0.10003800 -0.47651300  0.16025100
N   2.04978900 -0.05955000  0.03255600
C   2.77017500 -0.60460300 -0.97722800
C   4.12784900 -0.33218600 -1.08994900
C   4.73725900  0.47462900 -0.12816000
C   3.98404500  1.00038400  0.92279400
C   2.62378100  0.72621300  0.97575700
N  -0.63412300  1.30589200 -0.45377300
C   0.11336300  2.37144700 -0.82445400
C  -0.43274600  3.58411800 -1.20838100
C  -1.81930200  3.72480000 -1.22309400
C  -2.59901300  2.63721100 -0.85747300
C  -2.00043700  1.43494800 -0.47744600
N  -1.95523000 -0.82773900  0.24684200
C  -2.56558300 -1.97813400  0.59529800
C  -3.94219500 -2.12682400  0.64365700
C  -4.74565100 -1.03755000  0.31187400
C  -4.13399300  0.15136200 -0.06035400
C  -2.74125400  0.23915800 -0.08882100
H   4.70534200 -0.75409000 -1.90940600
H   5.80063300  0.69001300 -0.19504700
H   4.44857500  1.62360200  1.68357800
H   1.19076900  2.21770200 -0.81399700
H   0.22411500  4.40099800 -1.49429000
H  -2.28320000  4.66202900 -1.51856200
H  -3.68235900  2.71983300 -0.86735400
H  -1.90821300 -2.81372600  0.82968400
H  -4.37217500 -3.08164000  0.93316000
H  -5.82929400 -1.11528500  0.33768300
H  -4.74183800  1.01048700 -0.33102300
N   0.46639900  0.38639300  2.17997500
C   0.84411000 -0.64332800  3.17119600
H   1.05372400 -0.18661700  4.14861400
H   0.01953800 -1.35322600  3.29269000
H   1.74568300 -1.16770900  2.84000200
C  -0.65291600  1.17212600  2.74567200
H  -1.50265100  0.50649900  2.92290500
H  -0.36463400  1.63898100  3.69789200
H  -0.94899400  1.95589100  2.04326000
C   1.64123900  1.29683100  1.96041000
H   2.11911200  1.54396900  2.91976600
H   1.23761700  2.23853200  1.56205500
C   1.98643400 -1.55448700 -1.84327300
H   2.07512400 -2.57180500 -1.43891900
H   2.38647600 -1.59562100 -2.86666700
N   0.52045400 -1.22509400 -1.87469500
C   0.29625200 -0.19281700 -2.91158400
H   0.55927700 -0.58202100 -3.90469100
H  -0.75696100  0.10182300 -2.91324700
H   0.91317300  0.68572700 -2.70135900
C  -0.24002100 -2.43714100 -2.25286600
H  -1.29963200 -2.17907700 -2.33326500
H   0.10176800 -2.82961700 -3.22081300
H  -0.10921300 -3.20529400 -1.48690500
O   0.77443500 -2.55255900  0.75626200
H   0.27820400 -3.03539200  1.43612000
H   1.70348000 -2.63416600  1.02919500
