11
3,3-Difluoro-2-methylpropenyl radical conformer 19, source CASSCF(3,3)/6-31G* Cs geometry from RSC SI for 10.1039/A902739D
C  -0.274239   0.000000  -0.707071
C  -0.265804   0.000000   0.779863
C   1.079295   0.000000  -1.377637
C  -1.444452   0.000000  -1.358566
F   0.279569  -1.075792   1.326251
F   0.279569   1.075792   1.326251
H   1.650676  -0.875723  -1.087415
H   1.650676   0.875723  -1.087415
H  -2.381292   0.000000  -0.832133
H  -1.488333   0.000000  -2.432599
H   0.976134   0.000000  -2.455727
