42
Auramine-O cation S0; exact SA-CASSCF(10,8)/6-31G coordinates transcribed from source ESI section 4.2
C -0.68237929 2.69029657 -0.99310943
C -0.65758398 1.46880595 -0.35370414
C -0.06630470 1.30784417 0.91822595
C 0.50932742 2.46077434 1.50782155
C 0.50645663 3.67855638 0.86818142
C -0.10109590 3.83897960 -0.41123438
H -1.14374966 0.63740791 -0.82323665
H 1.01632142 2.38860966 2.45123237
H 0.98601857 4.50826437 1.33998950
C -0.09012347 0.04418096 1.60918206
C -0.07480284 -1.22840628 0.93807662
C 0.59701149 -1.40905099 -0.28914732
C -0.69410947 -2.36481446 1.49956469
C 0.65880397 -2.62720398 -0.90590686
H 1.11175557 -0.58184074 -0.73520623
C -0.65962583 -3.58497914 0.88681757
H -1.25741674 -2.27261530 2.40885561
C 0.02877615 -3.76684518 -0.34307415
H 1.20821825 -2.71411341 -1.81746681
H -1.17586631 -4.40352480 1.33841473
N -0.13079375 0.05419228 2.94472682
H 0.02959290 -0.76949776 3.47572168
H -0.31445093 0.88804785 3.45177218
N 0.07828957 -4.97219178 -0.94839720
C 0.76169848 -5.13470999 -2.23187933
H 0.65528627 -6.15443817 -2.56003331
H 0.33074976 -4.49317997 -2.99037420
H 1.81967454 -4.91793663 -2.14705882
C -0.54798996 -6.14413734 -0.33542880
H -0.13806032 -6.34010042 0.64741715
H -1.62112248 -6.02177532 -0.25183405
H -0.35790312 -7.00624739 -0.95143492
H -1.17052244 2.75922674 -1.94072575
N -0.11585566 5.03658875 -1.03366659
C -0.71474997 5.17711609 -2.36130860
H -0.59370961 6.19311378 -2.69593018
H -0.23086357 4.52870057 -3.08107536
H -1.77456939 4.95368138 -2.34292768
C 0.46203813 6.22118242 -0.39698760
H -0.01407346 6.42997553 0.55278426
H 1.52781280 6.10754556 -0.24015001
H 0.30918462 7.07282007 -1.03745697
