12
para-benzoquinone radical anion, MRMP2/d-aug-cc-pVTZ 2B2g equilibrium geometry from exact ESI of DOI 10.1039/c5cp06476g
C -1.4607214803  0.0000000000  0.0000000000
C  1.4607214803  0.0000000000  0.0000000000
O -2.7331514884  0.0000000000  0.0000000000
O  2.7331514884  0.0000000000  0.0000000000
C -0.6896293788 -1.2219863021  0.0000000000
C  0.6896293788 -1.2219863021  0.0000000000
C -0.6896293788  1.2219863021  0.0000000000
C  0.6896293788  1.2219863021  0.0000000000
H -1.2514284403 -2.1512250120  0.0000000000
H  1.2514284403 -2.1512250120  0.0000000000
H -1.2514284403  2.1512250120  0.0000000000
H  1.2514284403  2.1512250120  0.0000000000
