12
neutral para-benzoquinone, MRMP2/d-aug-cc-pVTZ 1Ag equilibrium geometry from exact ESI of DOI 10.1039/c5cp06476g
C -1.4340538629  0.0000000000  0.0000000000
C  1.4340538629  0.0000000000  0.0000000000
O -2.6674929619  0.0000000000  0.0000000000
O  2.6674929619  0.0000000000  0.0000000000
C -0.6762877384 -1.2635547696  0.0000000000
C  0.6762877384 -1.2635547696  0.0000000000
C -0.6762877384  1.2635547696  0.0000000000
C  0.6762877384  1.2635547696  0.0000000000
H -1.2605122338 -2.1756256174  0.0000000000
H  1.2605122338 -2.1756256174  0.0000000000
H -1.2605122338  2.1756256174  0.0000000000
H  1.2605122338  2.1756256174  0.0000000000
