12
cyclopropylketene CK_S0; source-explicit ESI geometry; CAS(8,7)/6-31G*; DOI 10.1039/c5cp06833a
O   0.123855000   1.656248000   0.888660000
C   0.567285000   0.750117000   0.321854000
C  -0.255582000  -2.355940000  -1.219949000
C   1.076466000  -0.274623000  -0.334765000
C  -0.864087000  -1.962906000   0.088746000
C   0.590125000  -1.673818000  -0.142727000
H  -0.513677000  -1.776254000  -2.088310000
H  -0.083804000  -3.400997000  -1.410598000
H  -1.553975000  -1.136812000   0.093829000
H  -1.114310000  -2.739751000   0.789676000
H   1.889801000  -0.058725000  -1.002607000
H   1.277258000  -2.322068000   0.377120000
