12
2-cyclopentenone CPO_S0; source-explicit ESI geometry; CAS(8,7)/6-31G*; DOI 10.1039/c5cp06833a
O   0.044410000   1.743774000  -0.043270000
C  -0.004657000   0.521077000  -0.015645000
C  -1.275513000  -0.316229000   0.068218000
C   1.145884000  -0.409564000  -0.057256000
C  -0.796434000  -1.782972000   0.073879000
C   0.711786000  -1.677851000  -0.007602000
H  -1.823835000  -0.052270000   0.965068000
H  -1.914613000  -0.088622000  -0.777071000
H  -1.100479000  -2.310022000   0.972884000
H  -1.191216000  -2.346113000  -0.765989000
H   2.163468000  -0.074988000  -0.117910000
H   1.342681000  -2.547672000  -0.022661000
