95
W2282184765-f; exact Cartesian coordinates from Table S3 of doi:10.1021/jacs.5b12790; representative doublet geometry
Rh    -0.162305    -0.034800     1.008676
C      1.710924     0.114223    -1.250939
C      2.869325     0.685286    -2.074093
C      3.124080    -0.200046    -3.304840
H      3.409177    -1.222659    -3.006844
H      3.949410     0.229012    -3.899719
H      2.230687    -0.275713    -3.944469
C      4.135004     0.726047    -1.184255
H      4.411740    -0.286399    -0.841431
H      4.005348     1.368671    -0.295434
H      4.983554     1.129640    -1.763599
C      2.492293     2.147938    -2.499372
H      2.476712     2.792747    -1.599956
H      3.318641     2.521278    -3.132459
C      1.173379     2.261754    -3.228922
C      1.100860     2.116983    -4.628881
H      2.021217     1.981980    -5.209733
C     -0.139028     2.167926    -5.286010
H     -0.183144     2.067569    -6.377247
C     -1.322543     2.348823    -4.552410
H     -2.286806     2.390778    -5.073552
C     -1.280907     2.496600    -3.151237
C     -0.023171     2.474921    -2.512731
H      0.024742     2.647664    -1.429007
C     -2.548664     2.621198    -2.337482
H     -2.359556     3.236400    -1.437659
H     -3.331592     3.144915    -2.916306
C     -3.153388     1.241441    -1.893840
C     -3.650298     0.434384    -3.103945
H     -4.081695    -0.528766    -2.784822
H     -4.434526     1.005337    -3.630674
H     -2.835637     0.217764    -3.814022
C     -4.316075     1.493476    -0.902477
H     -3.989735     2.048451    -0.005916
H     -5.103405     2.086559    -1.399970
H     -4.767866     0.539558    -0.576948
C     -2.059844     0.463351    -1.159804
O     -1.693340    -0.687679    -1.635764
Rh    -0.365728    -1.797853    -0.675324
O     -1.838616    -2.583436     0.381238
C     -2.245773    -2.026341     1.493375
C     -3.450105    -2.678196     2.169250
C     -3.810209    -1.950469     3.475581
H     -4.078942    -0.893508     3.300223
H     -4.684724    -2.439289     3.937824
H     -2.984347    -1.982512     4.208003
C     -4.632830    -2.606414     1.173682
H     -4.911964    -1.558222     0.964572
H     -4.379559    -3.099189     0.220468
H     -5.514519    -3.110443     1.605674
C     -3.097177    -4.181515     2.441234
H     -3.036683    -4.699872     1.468589
H     -3.948475    -4.619884     2.993651
C     -1.805911    -4.380131     3.201879
C     -1.763677    -4.388040     4.611583
H     -2.696055    -4.314794     5.184991
C     -0.538341    -4.520733     5.284837
H     -0.518578    -4.548124     6.381250
C      0.660480    -4.635471     4.561320
H      1.609844    -4.759563     5.097479
C      0.646450    -4.630796     3.150865
C     -0.595109    -4.519971     2.494141
H     -0.623703    -4.550420     1.397625
C      1.919131    -4.700934     2.336880
H      1.709108    -5.176973     1.363235
H      2.677979    -5.323255     2.845793
C      2.577086    -3.305170     2.061695
C      3.123332    -2.690100     3.362421
H      3.626866    -1.723602     3.176972
H      3.878830    -3.365161     3.800280
H      2.332993    -2.547278     4.121543
C      3.720994    -3.478447     1.034114
H      3.337322    -3.886346     0.085259
H      4.480149    -4.172998     1.434102
H      4.218934    -2.513888     0.826139
C      1.518604    -2.405891     1.421502
O      0.987977    -2.850860     0.315270
O      1.111020    -0.943549    -1.695919
N      0.146093     1.385717     2.408442
S     -1.221359     2.142824     2.923494
O     -1.914147     2.893797     1.839896
O     -2.021598     1.187100     3.752993
O     -0.671022     3.335782     3.898516
C     -0.095776     2.919134     5.158673
H     -0.814928     2.306267     5.728114
H      0.119294     3.853073     5.697942
H      0.839418     2.357139     4.988570
N      1.329896     0.686172    -0.117247
H      1.851068     1.515634     0.180639
N     -1.505234     0.955456    -0.065114
H     -1.846929     1.856477     0.316978
N      1.161903    -1.241418     1.924470
H      1.606787    -0.962630     2.802345
N     -1.653046    -0.954344     1.970731
H     -2.017862    -0.515684     2.832917
