30
W2282184765-a; exact Cartesian coordinates from Table S3 of doi:10.1021/jacs.5b12790; representative doublet geometry
Rh     4.848146    11.136930     3.938447
Rh     6.321302    10.144448     5.458385
O      5.372895    12.948820     4.693704
O      6.781210    11.998682     6.150796
O      3.380218    10.957266     5.328717
O      4.790138    10.009254     6.783337
O      7.790513    10.320440     4.069109
O      6.380544    11.267904     2.614009
O      4.389294     9.283310     3.248172
O      5.798975     8.331596     4.702883
C      6.224998    13.023717     5.638867
C      3.634433    10.440891     6.465921
C      7.537509    10.839105     2.933482
C      8.648092    10.972356     1.944656
C      4.949077     8.257458     3.757049
H      9.081438    11.971256     2.043021
H      8.263847    10.868729     0.931444
H      9.423814    10.236802     2.146272
C      6.587059    14.375227     6.161069
H      7.309428    14.291476     6.968812
H      5.685236    14.879549     6.512170
H      7.000658    14.974660     5.348054
C      2.526487    10.339995     7.461839
H      2.875772     9.867159     8.375859
H      1.704797     9.766253     7.029829
H      2.147165    11.340540     7.678022
C      4.591557     6.914048     3.211906
H      5.057071     6.126984     3.799227
H      4.928589     6.851124     2.175012
H      3.506873     6.799496     3.209930
