91
W2282184765-e; exact Cartesian coordinates from Table S3 of doi:10.1021/jacs.5b12790; representative doublet geometry
Rh    -0.169501    -0.195238     0.919822
O      1.374795     0.612168    -0.150154
C      1.721686     0.063023    -1.257656
C      2.889310     0.693683    -2.013661
C      3.184816    -0.102217    -3.294972
H      3.477024    -1.139712    -3.061736
H      4.020252     0.377579    -3.834374
H      2.310203    -0.142188    -3.963884
C      4.117715     0.687141    -1.072655
H      4.406296    -0.345188    -0.806626
H      3.914713     1.245912    -0.144571
H      4.976726     1.154449    -1.584648
C      2.499764     2.179969    -2.335228
H      2.447325     2.734739    -1.382688
H      3.334806     2.607652    -2.920663
C      1.195578     2.330349    -3.082564
C      1.142081     2.288929    -4.496664
H      2.072097     2.199996    -5.071179
C     -0.087171     2.390131    -5.166678
H     -0.115096     2.377037    -6.262907
C     -1.278668     2.517566    -4.437653
H     -2.236507     2.601329    -4.965550
C     -1.255376     2.559102    -3.022499
C     -0.008831     2.483896    -2.369342
H      0.026172     2.552195    -1.275080
C     -2.528410     2.627501    -2.212377
H     -2.336713     3.147139    -1.257101
H     -3.304065     3.202138    -2.750908
C     -3.150682     1.222824    -1.888099
C     -3.657861     0.521012    -3.158369
H     -4.096044    -0.461865    -2.918197
H     -4.441181     1.140538    -3.629084
H     -2.849689     0.358457    -3.890711
C     -4.292275     1.401976    -0.857996
H     -3.917167     1.837473     0.081931
H     -5.067695     2.064877    -1.279702
H     -4.767309     0.431482    -0.627699
C     -2.063920     0.381640    -1.224516
O     -1.551898     0.850213    -0.146353
O     -1.712065    -0.728053    -1.750192
Rh    -0.371518    -1.870700    -0.782799
O     -1.909714    -2.675336     0.261769
C     -2.281771    -2.127278     1.357254
O     -1.690882    -1.120584     1.882107
C     -3.485130    -2.697050     2.101433
C     -3.796422    -1.833320     3.335081
H     -4.028392    -0.796209     3.042827
H     -4.669429    -2.254674     3.863482
H     -2.942871    -1.787909     4.030445
C     -4.683630    -2.709520     1.125278
H     -4.955979    -1.682395     0.825043
H     -4.461066    -3.295633     0.218440
H     -5.560092    -3.155968     1.626259
C     -3.128077    -4.172292     2.502041
H     -3.080203    -4.776767     1.579190
H     -3.973774    -4.552053     3.104721
C     -1.828872    -4.303685     3.259076
C     -1.772483    -4.177433     4.668022
H     -2.699253    -4.036649     5.237045
C     -0.543993    -4.256675     5.340608
H     -0.512647    -4.173976     6.433558
C      0.643672    -4.453862     4.619496
H      1.600109    -4.529707     5.151203
C      0.616577    -4.580692     3.209256
C     -0.627574    -4.516191     2.554003
H     -0.665325    -4.644847     1.465179
C      1.883547    -4.741792     2.403014
H      1.668163    -5.309581     1.480304
H      2.637875    -5.314855     2.973247
C      2.563315    -3.386037     1.996289
C      3.103682    -2.637021     3.225809
H      3.575628    -1.684981     2.931300
H      3.865817    -3.257373     3.728833
H      2.303854    -2.407427     3.949312
C      3.698379    -3.671600     0.985643
H      3.311792    -4.171688     0.083091
H      4.453323    -4.325586     1.456584
H      4.203009    -2.736421     0.683899
C      1.504822    -2.543909     1.285927
O      1.184339    -1.421208     1.810986
O      0.991225    -2.990303     0.201965
O      1.155393    -0.975393    -1.740438
N     -0.098248     1.118254     2.248862
S     -1.434987     1.488599     3.203333
O     -2.696112     1.595926     2.456217
O     -1.292192     0.603082     4.383046
O     -1.064735     3.029786     3.605702
C      0.032200     3.223988     4.536956
H     -0.140954     2.649451     5.461146
H      0.034043     4.303071     4.747773
H      0.986371     2.924343     4.070122
