17
W2284091302-b; exact CAS(4,4) Ox1 oxaziridine coordinates from SI of doi:10.1007/s12039-015-0941-8
C    -4.938447000   -0.217350000   -0.158331000
C    -3.834215000    0.494364000    0.109010000
C    -2.481281000    0.049399000   -0.243401000
C    -1.380112000    0.737799000    0.012597000
C    -0.039954000    0.243104000   -0.360933000
N     1.043492000    0.599131000    0.475255000
C     2.168333000   -0.272864000    0.502058000
O     0.886407000    1.162687000   -0.824983000
F     2.044815000   -1.051722000    1.553814000
F     3.268369000    0.426205000    0.616395000
F     2.291650000   -1.045447000   -0.560166000
H    -4.891661000   -1.170940000   -0.654831000
H    -5.914764000    0.138510000    0.113662000
H    -3.915791000    1.445348000    0.607516000
H    -2.407276000   -0.904136000   -0.742823000
H    -1.405563000    1.693078000    0.506220000
H    -0.001237000   -0.710129000   -0.856883000
