36
W2282184765-b; exact Cartesian coordinates from Table S3 of doi:10.1021/jacs.5b12790; representative doublet geometry
C      2.253528     0.148891     1.420306
C      3.512098     0.244073     2.237816
C      0.865788    -2.232483    -1.086242
C      1.322980    -3.502491    -1.742153
H      3.328839     0.900282     3.107016
H      4.335620     0.653485     1.635207
H      3.778063    -0.751995     2.627669
H      0.930020    -3.544051    -2.772181
H      0.981055    -4.377778    -1.171575
H      2.424616    -3.502387    -1.812678
O      2.238419     0.721589     0.271337
O      1.263086    -0.482230     1.930561
O      1.179992    -1.121880    -1.641459
O     -0.112427     2.307435     0.041820
Rh     0.545209     0.616740    -0.849161
Rh    -0.478041    -0.621392     0.886296
O     -1.196025     0.486491    -1.886071
O      0.198399    -2.309709     0.006638
C     -0.823294     2.226892     1.107694
O     -2.172387    -0.714563    -0.226936
O     -1.085908     1.121312     1.696350
C     -2.181784    -0.160739    -1.385116
C     -1.377637     3.492956     1.692273
C     -3.429060    -0.281913    -2.215470
H     -1.514534     3.381170     2.778606
H     -0.715816     4.342134     1.462629
H     -2.365066     3.691495     1.237756
H     -3.235827    -0.967980    -3.059409
H     -4.260585    -0.671428    -1.610543
H     -3.688874     0.700156    -2.642940
O      1.578369     1.867767    -2.401682
H      2.468625     2.099821    -2.078778
H      1.117158     2.711809    -2.557865
O     -1.490857    -1.859271     2.461233
H     -0.997344    -2.668938     2.684858
H     -2.371536    -2.148097     2.159894
