17
W2284091302-a; exact CAS(4,4) ground-state nitrone coordinates from SI of doi:10.1007/s12039-015-0941-8
C    -3.508565000   -0.508117000    0.007889000
C    -2.367736000    0.201175000    0.005400000
C    -1.036735000   -0.409105000    0.005592000
C     0.096746000    0.285805000    0.003140000
C     1.394274000   -0.363264000    0.003442000
N     2.494782000    0.350380000    0.000995000
C     3.805574000   -0.283142000    0.001215000
O     2.566322000    1.601980000   -0.001747000
F     3.699149000   -1.593215000    0.004225000
F     4.464480000    0.082636000    1.063159000
F     4.462546000    0.077904000   -1.063548000
H    -3.506295000   -1.584215000    0.010202000
H    -4.468494000   -0.026246000    0.007661000
H    -2.405795000    1.277279000    0.003116000
H    -1.003774000   -1.487458000    0.007887000
H     0.097794000    1.358933000    0.000828000
H     1.492554000   -1.426351000    0.005640000
