31
W2282184765-c; exact Cartesian coordinates from Table S3 of doi:10.1021/jacs.5b12790; representative doublet geometry
Rh     0.016133     0.025609     0.008177
Rh    -1.534824     0.997053    -1.541845
O     -1.069367     2.820905    -0.817386
C     -0.201434     2.910689     0.119793
O      0.399581     1.918234     0.651272
C      0.150527     4.289227     0.618146
H      0.720037     4.221297     1.556689
H     -0.769630     4.878646     0.761629
H      0.763000     4.802532    -0.144825
O     -2.989254     0.817236    -0.128096
C     -2.679919     0.309519     1.005691
O     -1.523524    -0.108876     1.351336
C     -3.778179     0.186390     2.035770
H     -3.925893    -0.877654     2.286659
H     -4.714628     0.615367     1.650864
H     -3.472845     0.702514     2.961332
O     -0.018862     1.140621    -2.894417
C      1.144379     0.725477    -2.556853
O      1.462716     0.218068    -1.428874
C      2.249342     0.845249    -3.580365
H      3.041304     1.505985    -3.187755
H      1.855406     1.248803    -4.524229
H      2.702551    -0.146226    -3.747768
O     -1.963717    -0.847814    -2.228994
C     -1.363175    -1.853809    -1.712933
O     -0.502360    -1.782504    -0.773103
C     -1.690948    -3.224876    -2.246592
H     -2.080437    -3.853426    -1.427140
H     -0.768288    -3.703504    -2.616886
H     -2.433306    -3.151543    -3.055078
Cl     1.534773    -0.926117     1.525499
