68
L1-(OH2)2, exact source PBE-VDW10/ZORA/def2-TZVP/COSMO optimized coordinates
Ni  0.030546 -0.026018  0.039613
N  -0.032121 -0.039436  2.205284
N   2.050539 -0.054772 -0.016296
N   0.343662  2.026218  0.168977
N  -1.900284  0.566379 -0.208877
O   0.078840 -0.301509 -2.189851
O  -0.168595 -2.141814 -0.249581
O   0.638600  4.132609  2.601679
O  -3.143155  2.461912  3.456555
O   2.819859  2.091701  4.417591
O   0.102500  2.699595  4.365408
O   3.656430  3.079999  2.561869
O  -2.127479  4.339388  2.698832
C   2.595877  1.146978  0.290750
C  -0.988353  2.271607  2.323559
C  -2.076864  1.875321  0.092559
C   1.635450  2.154670  0.910762
C   0.316544  2.817232  2.981030
C  -0.907796  2.543183  0.793506
C   4.751880  0.396679 -0.459307
C   1.493199  1.927752  2.446264
C   0.502277  2.666557 -1.161394
C   4.190689 -0.848771 -0.738231
C   3.943653  1.408826  0.062828
C  -0.245312 -1.436790  2.646190
C  -1.158986  0.788405  2.688745
C   1.223873  0.460391  2.820042
C   2.790838  2.432113  3.112183
C  -2.913596 -0.119060 -0.768863
C  -4.144503  0.470592 -1.045346
C  -2.213911  3.008402  2.899742
C  -3.273511  2.533960 -0.168285
C   2.830039 -1.033505 -0.510468
C  -4.326246  1.819357 -0.743961
C   3.988149  2.542679  5.166400
C  -3.228514  5.138924  3.222214
H  -0.138309  4.696534  2.801092
H   0.964922  2.759536  4.827392
H   2.037395  3.168704  0.775501
H  -0.965656  3.632247  0.648362
H   5.809416  0.584148 -0.647617
H   0.672977  3.748309 -1.041697
H  -0.401236  2.506998 -1.759454
H   1.355538  2.222196 -1.685701
H   4.787986 -1.667397 -1.138027
H   4.349703  2.390790  0.297160
H  -0.268969 -1.493432  3.747767
H   0.568425 -2.066863  2.269133
H  -1.206374 -1.794609  2.258745
H  -1.234149  0.705453  3.784462
H  -2.088356  0.393327  2.266360
H   2.050981 -0.180786  2.493688
H   1.145634  0.371377  3.914812
H  -2.721769 -1.168218 -0.995488
H  -4.938699 -0.123328 -1.495932
H  -3.374574  3.594656  0.065812
H   2.332827 -1.980435 -0.722683
H  -5.272886  2.315308 -0.959881
H   4.893907  2.107510  4.729180
H   3.829218  2.176255  6.183852
H   4.044370  3.637443  5.144589
H  -4.168402  4.825245  2.753024
H  -2.982543  6.169892  2.954052
H  -3.290758  5.017375  4.310245
H  -0.317601 -2.267257 -1.207256
H  -0.601121  0.126662 -2.740789
H  -0.824503 -2.703285  0.200645
H   0.915938 -0.161196 -2.668665
