13
Ni(edt)2 (1H), exact SI omega-B97XD/6-31++G** geometry used for CASSCF/CASSCF-PT2
Ni     0.000000     0.000000     0.000270
S      1.480312    -1.552479     0.000021
S      1.480312     1.552479    -0.000025
S     -1.480312    -1.552479     0.000018
S     -1.480312     1.552479    -0.000016
C      2.940065    -0.686315    -0.000395
C      2.940065     0.686315    -0.000417
C     -2.940065    -0.686315    -0.000393
C     -2.940065     0.686315    -0.000407
H      3.867687    -1.251927    -0.000647
H      3.867687     1.251927    -0.000685
H     -3.867687    -1.251927    -0.000646
H     -3.867687     1.251927    -0.000671
