74
L3-OH2, exact source PBE-VDW10/ZORA/def2-TZVP/COSMO optimized coordinates
Ni  0.090850 -0.029908  0.028155
N   0.176055 -0.049144  2.193373
N   2.118068  0.005608 -0.116686
N   0.388981  2.052408  0.154116
N  -1.881024  0.614404 -0.173697
O   0.069771 -0.258908 -2.163894
N  -0.393118 -1.989617  0.259554
O   3.747861  3.212727  2.417562
O  -2.054255  4.247367  2.969800
O   3.048704  2.163251  4.296205
O  -3.017853  2.250415  3.409938
O   0.683401  4.138222  2.646173
O   0.292642  2.622097  4.378580
C  -2.033800  1.914352  0.164315
C   2.656748  1.210825  0.187041
C   3.992733  1.493330 -0.084204
C  -2.920350 -0.042724 -0.717820
C   0.064035 -1.478878  2.592254
C  -0.834941  2.546537  0.840972
C   1.703301  2.200392  0.848670
C  -3.230124  2.595669 -0.038557
C  -4.152711  0.566629 -0.939446
C   4.238949 -0.747239 -0.933586
C   4.794041  0.500561 -0.652239
C   2.890471 -0.953222 -0.656738
C  -4.309914  1.908555 -0.596375
C  -0.566848 -2.357135  1.547551
C  -1.202840 -3.550284  1.890361
C  -0.860530  2.222927  2.364986
C  -0.979544  0.725630  2.707293
C   0.485313  2.718509 -1.169022
C   1.632661  1.969883  2.389964
C   1.433353  0.495521  2.769025
C  -1.421571 -4.039510 -0.451837
C  -0.806769 -2.821254 -0.719325
C  -1.637492 -4.403947  0.877931
C   2.939268  2.520244  2.999967
C  -2.036059  3.022590  2.954914
C   0.447713  2.798148  2.989500
C   4.234460  2.652172  4.991592
C  -4.179141  2.943319  3.955821
H   4.394575  2.477290  0.149866
H  -2.752816 -1.088026 -0.980263
H   1.085788 -1.857252  2.751542
H  -0.460599 -1.572722  3.555140
H  -0.896600  3.642005  0.746473
H   2.083709  3.221567  0.701929
H  -3.309951  3.649757  0.230362
H  -4.967285 -0.007068 -1.379946
H   4.831162 -1.550263 -1.370885
H   5.841562  0.704956 -0.875327
H   2.399302 -1.903959 -0.870291
H  -5.257974  2.419559 -0.766678
H  -1.345576 -3.803741  2.941359
H  -1.035661  0.621913  3.802203
H  -1.894417  0.298770  2.284268
H   0.641179  3.801714 -1.040370
H  -0.437246  2.552411 -1.735725
H   1.325448  2.297581 -1.733028
H   2.270224 -0.109077  2.401171
H   1.405417  0.398519  3.864679
H  -1.734082 -4.679026 -1.276492
H  -0.635953 -2.474039 -1.738373
H  -2.137259 -5.341089  1.124774
H   5.134037  2.267914  4.497349
H   4.147117  2.259013  6.007512
H   4.240436  3.748651  4.990766
H   0.908422 -0.123786 -2.641071
H  -0.597276  0.223802 -2.684684
H  -0.155808  4.622708  2.829920
H   1.162718  2.744369  4.811652
H  -3.876870  3.546586  4.819969
H  -4.868290  2.148504  4.251269
H  -4.623724  3.585159  3.185274
