69
L1-O2CCH3, exact source PBE-VDW10/ZORA/def2-TZVP/COSMO optimized coordinates
Ni  0.022981  0.054877  0.018921
N  -0.015595  0.038792  2.180659
N   2.071436  0.029395 -0.102685
N   0.359130  2.103132  0.163835
N  -1.918300  0.686898 -0.116107
O  -0.044783 -0.448144 -2.107057
O  -0.296956 -1.956924 -0.515366
O  -2.163272  3.046986  4.306322
O  -2.556387  4.112053  2.357054
O   0.637287  4.205010  2.623058
O   0.565069  2.668067  4.378544
O   3.657196  1.388306  3.476068
O   3.298862  3.561716  2.970912
C  -0.857655  2.651453  0.838849
C   0.471729  2.701489 -1.189186
C  -1.946354  3.201406  3.108985
C   0.490474  2.852815  2.985704
C   2.620757  1.226461  0.202406
C  -3.206412  2.704705 -0.207189
C   3.971314  1.492929 -0.001436
C   4.218027 -0.754538 -0.822303
C  -1.087148  0.895083  2.735979
C   4.785211  0.483456 -0.520179
C   1.673954  2.219524  0.849576
C  -2.053623  2.007835  0.145636
C   2.854310 -0.939126 -0.606743
C  -0.268806 -1.367552  2.561300
C  -0.874584  2.379867  2.375302
C   1.286722  0.471339  2.734493
C  -4.260834  2.012034 -0.805073
C   1.595053  1.936767  2.381324
C   2.937180  2.391013  2.978522
C  -2.936449  0.018952 -0.684310
C  -4.131151  0.642717 -1.033342
C  -3.537661  4.950373  3.032830
C   4.953788  1.746314  4.036450
C  -0.244561 -1.657589 -1.760515
C  -0.443712 -2.723459 -2.804744
H  -0.893853  3.740616  0.696943
H   1.577658  4.438036  2.806170
H  -0.307556  2.910586  4.766040
H   0.657803  3.785877 -1.117883
H  -0.454623  2.522999 -1.745812
H   1.293542  2.221233 -1.731948
H  -3.272415  3.775157 -0.020584
H   4.375968  2.477304  0.237722
H   4.817110 -1.570052 -1.226366
H  -1.112615  0.794966  3.833399
H  -2.049437  0.543142  2.347360
H   5.846714  0.666167 -0.690296
H   2.070060  3.240523  0.727584
H   2.361145 -1.885463 -0.831908
H  -0.289430 -1.479062  3.659835
H   0.523522 -1.999521  2.143057
H  -1.230319 -1.684787  2.142372
H   2.062620 -0.195017  2.344779
H   1.277550  0.367614  3.831619
H  -5.170506  2.540544 -1.092549
H  -2.771876 -1.045049 -0.858494
H  -4.933560  0.062963 -1.488901
H  -4.334419  4.326235  3.453931
H  -3.926747  5.612347  2.254646
H  -3.047648  5.524784  3.828005
H   5.579710  2.204207  3.260509
H   5.383527  0.802041  4.379598
H   4.817622  2.444803  4.870655
H  -1.461308 -2.632703 -3.214648
H  -0.327052 -3.725179 -2.375638
H   0.259833 -2.579781 -3.635129
