66
L1-O2NO, exact source PBE-VDW10/ZORA/def2-TZVP/COSMO optimized coordinates
Ni  0.020896  0.022255 -0.011562
N  -0.027219  0.006283  2.128294
N   2.063711  0.013656 -0.150276
N   0.325877  2.063351  0.103860
N  -1.920685  0.605636 -0.174242
O  -0.038403 -0.550428 -2.150877
O  -0.265856 -2.004101 -0.551970
O   0.533291  2.642481  4.317247
O   3.245057  3.573025  2.901093
O  -2.257766  2.875723  4.208290
O  -2.613674  4.102364  2.341212
O   3.627595  1.406618  3.421115
O   0.575292  4.181576  2.561369
O  -0.336581 -2.673097 -2.648581
N  -0.217422 -1.773165 -1.822686
C  -2.086913  1.920742  0.102205
C   1.271629  0.456970  2.680249
C  -1.108129  0.853656  2.689650
C  -0.262560 -1.403836  2.511825
C  -0.912680  2.335926  2.316849
C   2.598363  1.220006  0.148253
C  -0.897243  2.591599  0.777357
C   2.897604  2.398327  2.918004
C  -2.032819  3.207243  2.920013
C   1.560414  1.925303  2.322872
C   1.638359  2.203081  0.790237
C   0.443130  2.831838  2.923279
C   3.945103  1.501168 -0.056927
C   4.219723 -0.747557 -0.866162
C   2.859161 -0.949128 -0.647745
C  -3.271247  2.584693 -0.204503
C  -4.154349  0.504207 -1.032498
C  -2.933655 -0.088151 -0.721964
C   4.770809  0.499175 -0.571539
C  -4.319820  1.865358 -0.781073
C   0.426853  2.654952 -1.254219
C  -3.281617  3.655322  4.894099
C   4.921586  1.780750  3.978187
H  -0.285890  2.976876  4.736887
H   2.055711 -0.201650  2.294052
H   1.261213  0.354380  3.776956
H  -1.115985  0.750446  3.785929
H  -2.069260  0.485766  2.313623
H  -0.280413 -1.512591  3.610113
H   0.539710 -2.027332  2.098758
H  -1.222664 -1.733572  2.098597
H  -0.960427  3.679463  0.634109
H   2.017810  3.229306  0.662808
H   4.337591  2.491527  0.177188
H   4.828036 -1.557919 -1.266372
H   2.383794 -1.906532 -0.863849
H  -3.365435  3.647631  0.010277
H  -4.950398 -0.095174 -1.473111
H  -2.749473 -1.146756 -0.908085
H   5.829652  0.694577 -0.743580
H  -5.254704  2.367207 -1.032988
H   1.514110  4.425642  2.740245
H   0.596142  3.741863 -1.188292
H  -0.499351  2.462306 -1.807052
H   1.256862  2.186936 -1.795893
H  -2.998291  4.714517  4.907283
H  -3.317826  3.244877  5.906381
H  -4.243329  3.527713  4.383065
H   5.364641  0.841513  4.318172
H   4.777942  2.475713  4.814053
H   5.538572  2.248419  3.200936
