83
L4-NCCH3, exact source PBE-VDW10/ZORA/def2-TZVP/COSMO optimized coordinates
Ni -0.076272  0.014172  0.076648
N  -0.098157  0.000390  2.249765
N   2.232830  0.009418 -0.097734
N   0.394980  2.067282  0.249208
N  -2.057302  0.875945 -0.008552
N  -0.077621 -0.083249 -1.934677
N  -0.370207 -2.004980  0.339781
O   0.700260  2.482966  4.493025
O  -2.013682  3.093446  4.452240
O   0.854944  4.102929  2.820891
O  -2.284660  4.280671  2.552154
O   3.458985  3.272006  3.100402
O   3.723708  1.046594  3.392286
C  -0.461201 -1.375572  2.687265
C  -0.028080 -0.032678 -4.535563
C  -0.442881 -2.932695 -0.636375
C  -0.056729 -0.065467 -3.094519
C  -0.271625 -3.776233  1.955955
C  -0.320095 -2.421179  1.620966
C  -1.095008  0.934313  2.833157
C  -2.014027  2.202090  0.272432
C   1.263042  0.332969  2.745296
C   3.989727  1.667771 -0.022945
C   2.685793  1.243846  0.217959
C  -3.174299  0.357553 -0.575488
C  -0.442749 -4.296714 -0.380764
C  -4.187651  2.550914 -0.675262
C  -3.240035 -1.112701 -0.839905
C  -4.255804  1.183289 -0.910108
C  -0.757933  2.694637  0.969103
C   3.037709  2.124675  3.021945
C   1.712726  2.149329  0.931615
C   0.623198  2.747695  3.113361
C  -1.774836  3.281861  3.265014
C   1.651183  1.789171  2.443790
C   4.433304 -0.507555 -0.909574
C  -3.046943  3.070463 -0.066266
C   2.631648 -2.248916 -0.986262
C   3.102020 -0.869394 -0.655100
C  -0.333221 -4.728704  0.943005
C  -0.775891  2.397023  2.498954
C   0.528080  2.747379 -1.067677
C   4.884621  0.769736 -0.600397
C  -3.183262  5.182145  3.261691
C   5.065651  1.286469  3.908917
H  -1.522634 -1.366804  2.978629
H   0.104436 -1.655296  3.589002
H   0.383797  0.928699 -4.873913
H  -1.046571 -0.148489 -4.931203
H   0.603221 -0.848281 -4.914829
H  -0.492448 -2.555243 -1.656297
H  -0.203520 -4.070103  3.003736
H  -1.118413  0.816164  3.926935
H  -2.082171  0.663051  2.443018
H   1.969094 -0.364507  2.284170
H   1.300724  0.184176  3.835336
H   4.289399  2.682488  0.238881
H  -0.509454 -5.000939 -1.209201
H  -5.010870  3.206877 -0.960698
H  -2.997335 -1.685659  0.064159
H  -2.520520 -1.401215 -1.618709
H  -4.242682 -1.396772 -1.178612
H  -5.139625  0.737798 -1.366920
H  -0.128263  2.805248  4.914912
H   1.809110  4.265051  3.011747
H  -0.689369  3.786063  0.857613
H   2.082429  3.185755  0.872613
H   5.103482 -1.242821 -1.354970
H  -2.949986  4.133870  0.142036
H   1.839221 -2.217885 -1.745951
H   2.224540 -2.745378 -0.095590
H   3.457739 -2.854875 -1.374934
H  -0.301851 -5.792367  1.182469
H   1.324676  2.270545 -1.648215
H   0.769737  3.812196 -0.919554
H  -0.411613  2.662381 -1.622508
H   5.914431  1.063245 -0.805942
H  -2.643326  5.672558  4.080339
H  -4.038730  4.621222  3.655494
H  -3.502358  5.910536  2.511573
H   5.011774  1.918319  4.803272
H   5.676124  1.773924  3.138664
H   5.456616  0.295154  4.150154
