19
cis-S,S'-interligand ethylene adduct 2H, exact SI omega-B97XD/6-31++G** geometry used for CASSCF/CASSCF-PT2
Ni     0.031480    -0.409365    -0.363003
S      1.426442     1.341951    -0.454885
S      1.676905    -1.790339     0.051497
S     -1.585202     1.105446    -0.641947
S     -1.410552    -1.935781     0.245638
C      2.905095     0.663010     0.221926
C      2.963245    -0.674752     0.369429
C     -2.942315     0.347354     0.197884
C     -2.831776    -0.964770     0.471378
C      0.507287     2.059313     0.975737
C     -0.906634     2.400695     0.496911
H      0.492417     1.313913     1.773481
H      1.025043     2.957294     1.323658
H     -0.915017     3.337069    -0.064864
H     -1.589651     2.492899     1.343575
H      3.748198     1.329213     0.359098
H      3.895634    -1.122621     0.709990
H     -3.863342     0.912603     0.278497
H     -3.700107    -1.491730     0.863663
