77
L2-NCCH3, exact source PBE-VDW10/ZORA/def2-TZVP/COSMO optimized coordinates
Ni -0.185536  0.040237  0.068034
N  -0.142437  0.043817  2.310308
N   1.891630 -0.005644 -0.053399
N   0.174544  2.100493  0.225760
N  -2.138357  0.710650  0.044921
N  -0.092269  0.424221 -1.983662
N  -0.529600 -1.896041 -0.136659
O   0.573602  4.216191  2.649909
O  -2.634871  4.147765  2.520879
O   0.564715  2.701683  4.426029
O   3.609929  1.370841  3.382409
O   3.239981  3.548299  2.901973
O  -2.155851  3.116080  4.469172
C   0.226112  2.699670 -1.145228
C   0.232151  1.696985 -2.271757
C  -3.182204  0.060372 -0.495679
C   2.653523 -0.976217 -0.582884
C   1.190461  0.480537  2.785168
C  -1.181323  0.930565  2.880222
C  -0.162597 -0.479377 -2.978732
C   1.519976  2.203693  0.862738
C  -4.475754  2.074986 -0.572151
C   1.497603  1.934868  2.396642
C  -4.376309  0.704523 -0.806899
C  -1.020355 -4.428022 -0.482962
C  -2.240828  2.033367  0.311782
C  -3.392186  2.749683 -0.006767
C   2.437966  1.207639  0.184042
C  -1.011873  2.661675  0.957546
C  -0.747412 -3.025062 -0.294413
C   3.768295  1.487490 -0.113693
C   0.517248  2.103418 -3.577169
C   0.090937 -0.147627 -4.304136
C   3.997522 -0.777782 -0.891255
C   4.562373  0.475798 -0.658767
C   0.430710  2.871024  3.037123
C  -1.995534  3.248213  3.261108
C  -0.964096  2.404375  2.492034
C  -0.385130 -1.328895  2.806619
C   4.938363  1.716517  3.872809
C   2.872555  2.380136  2.927511
C   0.444971  1.168952 -4.606784
C  -3.579345  5.005913  3.225310
H   1.100380  3.362322 -1.228597
H  -0.652701  3.347698 -1.276424
H  -3.039021 -1.003231 -0.690077
H   2.161031 -1.932597 -0.763330
H   1.939758 -0.202121  2.372402
H   1.235542  0.398576  3.883374
H  -1.172443  0.851063  3.979615
H  -2.161297  0.584772  2.531328
H  -0.424458 -1.496776 -2.688768
H   1.913413  3.222372  0.723396
H  -5.384217  2.619430 -0.832169
H  -5.200104  0.139347 -1.241754
H  -1.663564 -4.791768  0.330959
H  -0.078017 -4.992712 -0.480856
H  -1.532856 -4.581211 -1.443189
H  -3.434913  3.820709  0.181563
H  -1.037966  3.749999  0.814799
H   4.172610  2.482818  0.074890
H   0.791017  3.140374 -3.775405
H   0.020357 -0.911879 -5.077444
H   4.581252 -1.594450 -1.314660
H   5.606925  0.669767 -0.903412
H   1.520118  4.446899  2.801236
H  -0.285834  2.960068  4.850586
H   0.384723 -2.000147  2.409295
H  -1.370985 -1.668497  2.470202
H  -0.351011 -1.351186  3.910171
H   5.377467  0.767793  4.190854
H   4.852946  2.414529  4.714132
H   5.525019  2.170249  3.064423
H   0.666756  1.463640 -5.632980
H  -3.998285  5.656985  2.453556
H  -3.049366  5.590010  3.986838
H  -4.359958  4.394515  3.692477
