31
Exact source S0-SPc geometry optimized with state-specific DMRG-CASSCF CAS(22,20), M=128, 6-31G(d); SI energy -742.9911020095 Eh; DOI 10.1021/ct400707k
C      -0.010511000     -0.037179000      0.011490000
C       0.000052000     -0.035370000      1.549528000
N       1.431883000     -0.056520000     -0.319204000
C      -0.714440000     -1.182650000     -0.653918000
C       1.321511000      0.621227000      1.870937000
C       2.115271000      0.591957000      0.719307000
C      -1.390836000     -1.012175000     -1.800342000
C       1.811281000      1.164960000      3.047150000
C       3.405489000      1.102186000      0.718141000
C      -1.517042000      0.322773000     -2.386148000
C       3.112758000      1.690777000      3.062068000
C       3.895665000      1.657297000      1.909405000
C      -1.089366000      1.409549000     -1.614298000
C      -2.050332000      0.566473000     -3.658349000
O      -0.616196000      1.236848000     -0.359733000
C      -1.198473000      2.714611000     -2.093896000
C      -2.159079000      1.865272000     -4.148676000
C      -1.735059000      2.939318000     -3.360286000
H      -1.818001000      3.945184000     -3.730329000
H      -0.865358000      0.488679000      1.931215000
H      -0.022646000     -1.055341000      1.922108000
H       1.643095000      0.218830000     -1.255761000
H      -0.575940000     -2.154847000     -0.218848000
H      -1.843875000     -1.846515000     -2.305644000
H       1.205039000      1.193041000      3.935581000
H       4.015366000      1.077330000     -0.167492000
H       3.505728000      2.122937000      3.964537000
H       4.890813000      2.064387000      1.929428000
H      -2.380785000     -0.265407000     -4.255504000
H      -0.870531000      3.526403000     -1.471697000
H      -2.569944000      2.040043000     -5.126264000
