103
Exact 100 K X-ray cation [Dy2(L)(OAc)4]+ converted from publisher CIF fractional coordinates; riding H retained; PF6 and SQUEEZE solvent omitted; DOI 10.1021/acs.inorgchem.5b01673
Dy -11.2751427765 -2.5189923200 -12.9092877694  # Dy1
Dy -10.0303400127 -2.2996438400 -16.4869722901  # Dy2
O  -12.2765492698 -2.4947374400 -10.7593585781  # O1AC
O  -13.1468739391 -1.1812829600 -12.2808002336  # O2AC
O  -10.2653881073 -0.4713883200 -13.1763848548  # O3AC
O  -9.4893379595 -0.3613625600 -15.2654078169  # O4AC
O  -11.9173228006 -1.7860731200 -14.9964896150  # O5AC
O  -11.8820403696 -0.7088400800 -16.9048173518  # O6AC
O  -11.9152043362 -3.7596821600 -16.8712278698  # O7AC
O  -10.9651077594 -2.8576818400 -18.6369014815  # O8AC
O  -9.7257920168 -3.3607069600 -14.4056384866  # O9PH
N  -10.9412158021 -4.9135465600 -12.0574099440  # N1
N  -13.1800246750 -4.1164749600 -13.4683705323  # N1PY
N  -7.4492917425 -2.2739828800 -16.2320159813  # N2
N  -9.2247275208 -2.7095161600 -11.4285177156  # N2PY
N  -8.9099705302 -4.5034984800 -17.1184950201  # N3PY
N  -8.7627455678 -0.9392614400 -18.2488013225  # N4PY
C  -8.7070485274 -4.1890638400 -14.0731835538  # C1
C  -8.9735883192 -5.4283476000 -13.4718104190  # C2
C  -7.9192407088 -6.2688319200 -13.1150739330  # C3
H  -8.1145300332 -7.1147648000 -12.7296042756  # H3
C  -6.5926171885 -5.9051844800 -13.3075052422  # C4
C  -6.3509923595 -4.6618582400 -13.8769076652  # C5
H  -5.4513406449 -4.3887272000 -14.0104562080  # H5
C  -7.3750782909 -3.8027433600 -14.2579257045  # C6
C  -5.4644275542 -6.7989240800 -12.8516190805  # C7
H  -5.1398872830 -6.4960896000 -11.9788995885  # H7A
H  -4.7330375044 -6.7597296000 -13.5025670531  # H7B
H  -5.7873823152 -7.7211368000 -12.7781673820  # H7C
C  -10.3859052938 -5.7876010400 -13.1407719101  # C8
H  -10.4230049181 -6.7333656000 -12.8489885789  # H8A
H  -10.9458823625 -5.6963816000 -13.9517757877  # H8B
C  -12.2534396461 -5.4540085600 -11.6587877786  # C9
H  -12.5199430352 -5.0495848000 -10.7951738691  # H9A
H  -12.1712512646 -6.4310584000 -11.5236204657  # H9B
C  -13.3249849709 -5.1898412800 -12.6719355867  # C10
C  -14.4511842487 -5.9927129600 -12.7160470750  # C11
H  -14.5214793698 -6.7509416000 -12.1488704611  # H11
C  -15.4725909961 -5.6805632000 -13.5934205314  # C12
H  -16.2613229892 -6.2096008000 -13.6219513564  # H12
C  -15.3304714819 -4.5880390400 -14.4313364638  # C13
H  -16.0165328066 -4.3500600000 -15.0444456826  # H13
C  -14.1601345187 -3.8493197600 -14.3524214158  # C14
H  -14.0443564828 -3.1197400000 -14.9513663952  # H14
C  -10.0604020659 -4.9221588000 -10.8617457941  # C15
H  -9.6822791935 -5.8299592000 -10.7506576882  # H15A
H  -10.6063526456 -4.7226712000 -10.0606568842  # H15B
C  -8.9288453890 -3.9303451200 -10.9386373793  # C16
C  -7.6755107285 -4.2458343200 -10.4297364931  # C17
H  -7.4912918477 -5.1216464000 -10.1112434534  # H17
C  -6.7005535351 -3.2687844800 -10.3941235484  # C18
H  -5.8331842456 -3.4659872000 -10.0606568842  # H18
C  -7.0049772495 -2.0026094400 -10.8510214415  # C19
H  -6.3595811959 -1.3058968000 -10.8113615712  # H19
C  -8.2636586263 -1.7663880000 -11.3676114862  # C20
H  -8.4620396716 -0.8963760000 -11.6956148010  # H20
C  -7.0566481808 -2.4439428000 -14.8030465743  # C21
H  -7.5245194149 -1.7628728000 -14.2593421285  # H21A
H  -6.0830137534 -2.2831224000 -14.7166447141  # H21B
C  -6.7908772122 -3.3100880800 -17.0683131435  # C22
H  -5.9076410722 -3.5222304000 -16.6733332111  # H22A
H  -6.6332294445 -2.9351920000 -17.9703728456  # H22B
C  -7.5713045857 -4.5804813600 -17.2057062654  # C23
C  -6.9170251942 -5.7682674400 -17.5148913764  # C24
H  -5.9682597479 -5.7965648000 -17.5575864408  # H24
C  -7.6622870680 -6.9108832000 -17.7591233326  # C25
H  -7.2339700454 -7.7264096000 -17.9906074733  # H25
C  -9.0316030201 -6.8437428800 -17.6626041585  # C26
H  -9.5674293987 -7.6121656000 -17.8246835263  # H26
C  -9.6126956305 -5.6369747200 -17.3240788374  # C27
H  -10.5571226148 -5.6032288000 -17.2318089351  # H27
C  -6.9365660681 -0.9552556000 -16.6688815930  # C28
H  -5.9475916735 -0.9789832000 -16.7036851526  # H28A
H  -7.2037969257 -0.2618824000 -16.0136843486  # H28B
C  -7.4801377267 -0.6033840800 -18.0239946089  # C29
C  -6.6996002932  0.0379641600 -18.9788666893  # C30
H  -5.7889448780  0.2390336000 -18.7999925806  # H30
C  -7.2714042624  0.3812234400 -20.1980030072  # C31
H  -6.7594413612  0.8260720000 -20.8639246043  # H31
C  -8.5991526956  0.0639766400 -20.4270589926  # C32
H  -9.0198942566  0.2987920000 -21.2463590675  # H32
C  -9.2986629957 -0.6019780000 -19.4375856989  # C33
H  -10.2038256705 -0.8331024000 -19.6053307624  # H33
C  -13.0948540471 -1.5844764000 -11.0885759705  # C34
C  -13.9860186294 -0.9663284800 -10.0560029198  # C35
H  -13.6111520495 -1.1231064000 -9.1642628778  # H35A
H  -14.8780712477 -1.3691704000 -10.1112434534  # H35B
H  -14.0524968919 -0.0017576000 -10.2164635173  # H35C
C  -9.9052637287  0.1703114400 -14.2043039412  # C36
C  -10.0159668348  1.6549561600 -14.1565502198  # C37
H  -9.2807571513  2.0546344000 -14.6660581449  # H37A
H  -9.9699248532  1.9562088000 -13.2253526538  # H37B
H  -10.8723784665  1.9316024000 -14.5466738416  # H37C
C  -12.4567094540 -0.9615829600 -15.8230741558  # C38
C  -13.7746100442 -0.3444896000 -15.4805019091  # C39
H  -14.4635891687 -0.6872216000 -16.0885524710  # H39A
H  -13.7129575479  0.6292208000 -15.5725694651  # H39B
H  -14.0112844669 -0.5712200000 -14.5567911554  # H39C
C  -11.9054128664 -3.5292608000 -18.1156574724  # C40
C  -12.9949618854 -4.0827290400 -18.9841276925  # C41
H  -13.7191465027 -4.4273944000 -18.4195815802  # H41A
H  -12.6365383877 -4.8087936000 -19.5365330283  # H41B
H  -13.3424802688 -3.3728344000 -19.5648615070  # H41C
