16
(NH3BH3)2+ cation; verbatim MP2/6-311++G(d,p) coordinates from Table S3 of DOI 10.1063/1.4945624
B  1.106852 -0.833739 -0.287361
H  1.173895  0.351450 -0.386501
H  0.244314 -1.476829 -0.798693
N  1.362660 -1.303233  1.218061
H  2.187770 -0.872871  1.637431
H  0.563657 -1.026992  1.794785
H  1.454223 -2.315485  1.312158
H  2.241877 -1.259183 -0.960280
B  4.197182 -2.007607 -2.063084
H  4.127753 -3.192754 -1.965105
H  3.062956 -1.580623 -1.389799
N  3.942314 -1.536179 -3.568063
H  4.740787 -1.813438 -4.145032
H  3.116377 -1.964546 -3.987850
H  3.852721 -0.523666 -3.661215
H  5.060994 -1.366732 -1.551124
