28
cis bridged azobenzene S0, CASSCF(6,5)/6-31G; verbatim Table S2 coordinates from DOI 10.1039/c6ra03788g ESI
N 1.70768642 1.06604894 0.31455858
N 1.68094222 -0.13012873 0.72264833
C 2.90555618 1.66980959 -0.21554228
C 3.44932023 2.75300898 0.45323068
C 3.40359467 1.24419744 -1.44178315
C 4.54545962 3.40763244 -0.08488377
C 4.49137332 1.92622472 -1.97658546
C 5.06605060 2.99340858 -1.30290673
C 2.86519140 -0.95657843 0.83904662
C 3.17293083 -1.27680650 2.17913109
C 3.58232086 -1.49976623 -0.20257170
C 4.22583456 -2.11011330 2.47730054
C 4.65380828 -2.36368480 0.13173104
C 4.97764431 -2.66410096 1.42505345
C 2.76128820 0.07174073 -2.14359044
C 3.30748423 -1.29885117 -1.68403170
H 4.24072921 -1.47828725 -2.20519585
H 2.61837707 -2.06911905 -2.02190177
H 3.01120695 3.07848097 1.37649948
H 4.97935289 4.24008851 0.43375332
H 4.88727420 1.62059325 -2.92699752
H 5.90656442 3.50505437 -1.73032500
H 2.55713306 -0.86343779 2.95365662
H 4.46123559 -2.34506612 3.49683538
H 5.22797172 -2.79113012 -0.66853569
H 5.79808633 -3.32199267 1.63708762
H 2.92958622 0.15313421 -3.21109940
H 1.68851863 0.10674450 -2.00296024
