24
(NH3BH3)3+ cation; verbatim MP2/6-311++G(d,p) coordinates from Table S3 of DOI 10.1063/1.4945624
B  1.377309 -1.478479  1.152229
H  0.818930 -0.442841  0.963048
H  0.806593 -2.522813  1.208196
N  2.444568 -1.344002  2.336908
H  3.054366 -0.532639  2.227135
H  1.955686 -1.230760  3.227277
H  3.038571 -2.169273  2.427089
H  2.172645 -1.610829  0.053164
B  4.471126 -1.619420 -0.561615
H  4.890233 -2.568247  0.033341
H  3.122536 -1.635116 -0.218310
N  4.473124 -1.831302 -2.125115
H  5.424080 -1.755032 -2.492511
H  4.117171 -2.745953 -2.405253
H  3.895053 -1.141323 -2.623249
H  4.787916 -0.507748 -0.257137
B  1.904324 -1.305729 -3.658846
H  2.533019 -0.286832 -3.428682
H  2.528370 -2.076884 -4.350665
N  0.612601 -0.846216 -4.522592
H  0.029111 -0.185500 -4.012062
H  0.884974 -0.399230 -5.396730
H  0.027493 -1.645336 -4.762052
H  1.490769 -1.817694 -2.643367
