27
4H-pyrene+ S0; verbatim CASSCF(12,10)/cc-pVDZ coordinates from Table S2 of DOI 10.1039/c6cp00327c
C -0.114116  3.551687  0.000000
C  1.117048  2.862969  0.000000
C  1.207142  1.458716  0.000000
C  0.000000  0.698684  0.000000
C -1.271850  1.406962  0.000000
C -1.294851  2.840783  0.000000
C  2.473263  0.776758  0.000000
C  0.050123 -0.722438  0.000000
C  1.325224 -1.379163  0.000000
C  2.523899 -0.585970  0.000000
C  1.360389 -2.787013  0.000000
H  2.325481 -3.297148  0.000000
C  0.181298 -3.522519  0.000000
C -1.151208 -1.495264  0.000000
C -2.476950 -0.789899  0.000000
C -2.443043  0.681629  0.000000
H -3.401428  1.210364  0.000000
H -3.098191 -1.108562  0.864145
H  3.389483  1.369871  0.000000
H -0.122338  4.642279  0.000000
H  2.044471  3.442090  0.000000
H -2.258885  3.353596  0.000000
H  3.486410 -1.101256  0.000000
H  0.223201 -4.613236  0.000000
C -1.070764 -2.880707  0.000000
H -1.983630 -3.480725  0.000000
H -3.098191 -1.108562 -0.864145
