27
2H-pyrene+ S0; verbatim CASSCF(12,10)/cc-pVDZ coordinates from Table S2 of DOI 10.1039/c6cp00327c
C  0.000000  0.000000  3.533510
C  0.000000  1.214823  2.849471
C  0.000000  1.243522  1.453908
C  0.000000  0.000000  0.734469
C  0.000000 -1.243522  1.453908
C  0.000000 -1.214823  2.849471
C  0.000000  2.480089  0.720347
C  0.000000  0.000000 -0.669824
C  0.000000  1.261108 -1.384862
C  0.000000  2.493815 -0.632820
C  0.000000  1.251804 -2.754946
H  0.000000  2.186532 -3.305385
C  0.000000  0.000000 -3.526143
C  0.000000 -1.261108 -1.384862
C  0.000000 -2.493815 -0.632820
C  0.000000 -2.480089  0.720347
H  0.000000 -3.408927  1.278790
H  0.000000 -3.428771 -1.180265
H  0.000000  3.408927  1.278790
H  0.000000  0.000000  4.617129
H  0.000000  2.146773  3.402124
H  0.000000 -2.146773  3.402124
H  0.000000  3.428771 -1.180265
H -0.855463  0.000000 -4.226450
C  0.000000 -1.251804 -2.754946
H  0.000000 -2.186532 -3.305385
H  0.855463  0.000000 -4.226450
