27
1H-pyrene+ S0; verbatim CASSCF(12,10)/cc-pVDZ coordinates from Table S2 of DOI 10.1039/c6cp00327c
C  1.243985  2.870638  0.000000
C -0.085683  3.534585  0.000000
C -1.244886  2.835476  0.000000
C -2.458836  0.665320  0.000000
C -1.244865  1.392449  0.000000
C  0.000000  0.674129  0.000000
C  1.234130  1.373500  0.000000
C  2.443478  0.649273  0.000000
C  2.440793 -0.734684  0.000000
C  1.222248 -1.468080  0.000000
C -0.006906 -0.749272  0.000000
C -1.242851 -1.460581  0.000000
C -2.458746 -0.716412  0.000000
C  1.191887 -2.884480  0.000000
C -0.018087 -3.575527  0.000000
C -1.225991 -2.871921  0.000000
H  1.831082  3.234150  0.867659
H  1.831082  3.234150 -0.867659
H -0.100608  4.626813  0.000000
H -2.206105  3.352413  0.000000
H -3.403416  1.211384  0.000000
H -3.407553 -1.258028  0.000000
H -2.173143 -3.415912  0.000000
H -0.023469 -4.666073  0.000000
H  2.134844 -3.435736  0.000000
H  3.387403 -1.279656  0.000000
H  3.391867  1.190022  0.000000
