16
(NH3BH3)2 neutral dimer; verbatim MP2/6-311++G(d,p) coordinates from Table S3 of DOI 10.1063/1.4945624
B  0.936592 -0.804570 -0.806023
H  1.513645  0.069158 -1.421845
H -0.115173 -0.431654 -0.349148
N  1.908631 -1.167954  0.453632
H  2.826339 -1.493161  0.133585
H  2.057677 -0.356046  1.048245
H  1.503575 -1.901881  1.030045
H  0.829671 -1.833473 -1.442897
B  4.367775 -2.034285 -1.544195
H  5.419466 -2.407374 -2.001098
H  3.790309 -2.908003 -0.928792
N  3.396061 -1.669947 -2.803826
H  3.801834 -0.936411 -3.380233
H  3.246223 -2.481702 -3.398449
H  2.478661 -1.343864 -2.483782
H  4.475050 -1.005660 -0.906891
