18
N1-deprotonated 9-methylguanine; verbatim B3LYP/6-311++G** Fig. S3 tautomer-2 geometry from DOI 10.1039/c6cp01350c ESI (no CASSCF Cartesian table supplied for the N1 surface)
C -1.215741 1.349489 0.002854
C 0.199142 0.997443 -0.004794
C -1.575130 -0.992345 -0.019999
C 2.339021 0.920473 -0.002249
N -2.063336 0.239389 -0.003031
N 1.349304 1.774809 0.000900
N 1.916554 -0.401424 -0.017656
N -0.292521 -1.413890 -0.015404
C 0.534460 -0.354985 -0.011446
N -2.530246 -2.026166 -0.077554
H -2.196488 -2.887764 0.331510
H -3.427070 -1.724106 0.276058
O -1.657698 2.504770 0.020725
H 3.392157 1.168766 -0.005602
C 2.724184 -1.597864 0.024555
H 2.821923 -1.988549 1.044487
H 2.256312 -2.369390 -0.589789
H 3.720857 -1.379401 -0.366779
