20
N7-protonated 9-methylguanine; verbatim B3LYP/6-31+G* Fig. 1a geometry from DOI 10.1039/c6cp01350c ESI (CASSCF diagnostics used this B3LYP reaction path)
C 1.157636 1.402851 -0.000001
C -0.214588 0.968754 -0.000004
H 2.995888 0.484355 0.000003
C 1.592661 -1.058927 0.000013
C -2.414343 0.793099 -0.000015
N 2.004303 0.258586 0.000009
N -1.406254 1.668030 -0.000014
N -1.921147 -0.459926 -0.000007
N 0.312687 -1.418746 0.000011
C -0.529914 -0.378916 0.000000
N 2.537684 -2.014621 0.000011
H 2.240963 -2.981834 0.000041
H 3.528673 -1.818999 0.000065
O 1.595249 2.536931 -0.000006
H -3.464266 1.047256 -0.000022
C -2.693968 -1.710054 -0.000005
H -2.442270 -2.286751 -0.892086
H -2.442288 -2.286738 0.892091
H -3.756874 -1.466608 -0.000017
H -1.497623 2.679768 -0.000020
