18
N10-deprotonated 9-methylguanine; verbatim CASSCF(10,8)/6-31+G* Fig. 3b geometry from DOI 10.1039/c6cp01350c ESI
C 1.245765 1.282418 -0.000430
C -0.153949 0.987242 -0.000565
H 2.978969 0.226177 0.000624
C 1.542260 -1.211402 0.000076
C -2.263967 1.011124 0.000241
N 1.988882 0.114272 -0.000059
N -1.267668 1.810052 0.000186
N -1.900141 -0.320763 -0.000945
N 0.206515 -1.446349 -0.000595
C -0.532555 -0.345837 -0.000657
N 2.463579 -2.109818 0.000425
H 2.020569 -3.009767 0.000220
O 1.804198 2.361539 0.000634
H -3.296871 1.301983 0.000472
C -2.772256 -1.464359 0.000786
H -3.404713 -1.474988 -0.882235
H -2.156234 -2.350979 0.002619
H -3.405264 -1.471610 0.883436
