15
2-nitrophenol | PubChem CID 6947 3D conformer | GENERATED structure, NOT the geometry used in the referenced paper
O       0.333300    -2.157800     0.000900
O       2.255700     1.439800    -0.000200
O       2.364000    -0.752700    -0.000200
N       1.704600     0.313700    -0.000200
C       0.284300     0.243500     0.000100
C      -0.368700    -0.989000    -0.000400
C      -0.456500     1.425400     0.000500
C      -1.762700    -1.039700    -0.000600
C      -1.850500     1.374800     0.000300
C      -2.503600     0.142100    -0.000200
H       0.015300     2.404600     0.000800
H      -2.285300    -1.992600    -0.000700
H      -2.427900     2.294700     0.000700
H      -3.588900     0.102900    -0.000200
H      -0.290600    -2.903900     0.000700
