121
Exact publisher-CIF experimental molecule C used for CASSCF, DOI 10.1021/acs.inorgchem.5b00229; 0.5-occupancy disorder conformer 2 selected; formula=C42H69Mn1N2O5Si2
Mn     2.266789480    -1.684096020    17.211781933
Si     2.803404797    -7.942052253    16.280759599
Si     1.763938223    -6.484228618    13.675624224
O      0.454996272    -1.530592448    16.977175819
N      2.534481311    -1.939663690    15.178460408
O      2.537020124     0.427498242    17.148247061
O      2.142514498    -0.488061261    19.058405517
C      4.820878105    -1.203467202    15.291548368
O      2.258509199    -7.226593401    14.974902080
C      7.072251601    -0.417427802    15.032474132
N      1.875026738    -3.334404645    18.396326913
C     -0.284218977    -2.484608397    18.980272017
C      6.553543889    -1.363286906    18.682131031
C     -0.456762999    -1.615946963    17.919301335
C      1.474293726    -2.333032134    14.284037450
H      1.736198732    -2.123168493    13.373165334
H      0.681201630    -1.815781742    14.489651923
C     -1.284230086    -2.623988290    19.936379317
H     -1.144744210    -3.187898201    20.660142262
C      8.184408744     0.138644704    14.220296963
C      3.628467208    -1.578071466    14.623301331
H      3.642393674    -1.559039394    13.693923912
C     -2.021989069    -0.696065420    15.373794158
H     -2.796409965    -1.263138161    15.419029342
H     -1.238880938    -1.234650537    15.231920171
H     -2.120259357    -0.076900613    14.650031212
C      7.218693446    -0.670229987    16.383361221
H      8.051287423    -0.489184145    16.757579562
C     -3.149291161     0.854494804    16.854218364
H     -3.199065742     1.539747857    16.181859037
H     -3.154377545     1.261194881    17.723967586
H     -3.905317074     0.269217826    16.769916430
C     -2.567867525    -1.101183676    18.772601399
H     -3.359048519    -0.615189483    18.710917057
C      5.599336003    -0.483053514    19.477859042
H      4.699731972    -0.802713096    19.364771082
H      5.658706931     0.421934148    19.161212753
H      5.834897043    -0.512711527    20.407236460
C      2.796837681    -4.429799079    18.525864031
H      2.770281720    -4.772792811    19.434680002
H      3.699044405    -4.119563308    18.346979439
C      2.390023454     0.504442198    18.394270768
C      6.365844744    -2.801634550    19.056349372
H      6.607806248    -2.927392556    19.975446067
H      6.921664309    -3.350991335    18.499134150
H      5.446715001    -3.045865517    18.928868398
C     -3.557989302    -2.131316500    20.855476012
C     -1.647033763    -0.891382318    17.804157230
C      0.829087958    -3.361574955    19.099528411
H      0.779610993    -4.016028348    19.757494725
C     -0.762800650     1.078406328    16.580751115
H      0.050760267     0.638968850    16.319620734
H     -0.639607632     1.499661330    17.434051179
H     -0.987973721     1.744854079    15.924840946
C      2.165607663    -4.671413792    13.800843438
H      2.969323034    -4.581273948    14.335441068
H      2.377528038    -4.352232509    12.910532769
C      8.627926782     1.426374868    14.798073633
H      7.929220034     2.076122545    14.701434830
H      9.413703758     1.729778535    14.337497213
H      8.828561830     1.306702174    15.729507196
C     -2.446578999    -1.960732711    19.837684370
C      1.143296013    -3.775184795    14.368339384
H      1.010580585    -4.008249240    15.301829092
H      0.305068847    -3.927939841    13.905706819
C      7.950791571    -0.970510147    19.029619490
H      8.099750717    -0.057716220    18.772601399
H      8.568787428    -1.539045329    18.564930781
H      8.081526036    -1.059352040    19.975446067
C      2.507946620     1.846473658    19.072798530
H      3.243633725     2.332882068    18.692411754
H      2.660921902     1.717398314    20.012456672
H      1.696483586     2.341808219    18.945317556
C      2.434378983    -5.539594529    17.551251428
H      1.574602323    -5.904235000    17.814437954
H      2.324224484    -5.145565137    16.671221483
C      2.652727430    -7.199913169    12.275184047
H      3.595518308    -7.064533324    12.392384297
H      2.367331968    -6.775602338    11.463006878
H      2.470214899    -8.141578995    12.223780429
C      3.385580374    -6.642836949    17.442275758
H      3.519259983    -7.035352799    18.318193413
H      4.238466673    -6.300557667    17.135910193
C      9.368660980    -0.791949222    14.300486608
H      9.678042638    -0.838785009    15.207246434
H     10.074225139    -0.461332925    13.737102951
H      9.107073359    -1.666936317    14.004401766
C      7.845282319     0.326405667    12.803613243
H      7.681228442    -0.529724425    12.398552731
H      8.573807253     0.757787151    12.353317547
H      7.058191083     0.869313425    12.731648178
C      1.448053957    -8.918157447    17.018709943
H      0.731505180    -8.330423307    17.269559600
H      1.771918384    -9.378482494    17.795932651
H      1.129384404    -9.557622336    16.377192787
C      4.201157632    -9.037978264    15.848763591
H      3.877674276    -9.781743067    15.334727408
H      4.614505255    -9.359378159    16.652716181
H      4.845287930    -8.548377081    15.332671263
O      4.068807762    -1.948257684    17.407526912
C      5.854215927    -0.702006805    14.512269515
H      5.705602465    -0.556043940    13.607565833
C      5.013245837    -1.421043084    16.650660036
C      6.264986232    -1.156751783    17.220212127
C     -1.880169402     0.066764994    16.673277628
C     -4.615556096    -1.060346162    20.740331907
H     -4.168850499    -0.233429924    20.941834091
H     -5.016974382    -1.000873230    19.868526541
H     -5.295476610    -1.223124286    21.396242076
C      0.016945752    -6.727165968    13.438961965
H     -0.129729757    -7.567548985    12.996890848
H     -0.336768973    -6.015353051    12.902308190
H     -0.423983783    -6.735199002    14.292262029
C     -4.206041059    -3.456490981    20.604626355
H     -4.586942642    -3.442113522    19.722540265
H     -3.573764455    -4.174887470    20.668366841
H     -4.902392914    -3.582239006    21.252311945
C     -2.980258792    -2.013081489    22.243373706
H     -2.311658819    -2.693628826    22.354405521
H     -2.583311225    -1.149809081    22.374966969
H     -3.680891871    -2.145059954    22.884890862
