14
3,5-dimethylisoxazole ground-state reactant | VERBATIM CASSCF(14,11)/6-311G(d) geometry from the Supporting Information of 10.1021/acs.jpca.5b07312; atomic numbers mapped to element symbols and coordinates unchanged
N      0.000000     0.000000     0.000000
O      0.000000     0.000000     1.411469
C      1.255219     0.000000     1.844019
C      2.105882     0.001200     0.792565
C      1.250054    -0.003519    -0.352548
H      3.174935     0.002720     0.813526
C      1.632647    -0.009425    -1.804656
H      1.238083     0.863124    -2.310592
H      1.243664    -0.889435    -2.302074
H      2.709749    -0.006830    -1.914966
C      1.452406     0.002541     3.322470
H      0.990159     0.875194     3.769091
H      2.507761     0.009729     3.560316
H      1.004123    -0.877441     3.769200
