38
Zm-b model S0/S1 conical intersection; exact source coordinates from RSC ESI Figure SI-4; SA-CAS(8,7)/6-31G
C   2.56328800  -1.34134800   0.02202500
C   2.37718300   1.24550400   0.11493200
C   1.49567500   2.33226800   0.12359400
C   1.96005100   3.62635300  -0.01411500
C   3.32167600   3.86334900  -0.15395600
C   4.20584100   2.79702000  -0.15991100
C   3.74399700   1.49526800  -0.02789500
H   0.44541900   2.15673600   0.23305700
H   1.26679000   4.44493200  -0.01087100
H   3.68590500   4.86743900  -0.25662700
H   5.25863300   2.97148700  -0.26769200
N   3.80361500  -1.41235700  -0.38361300
N   4.12046400  -2.74550000  -0.50718900
N   3.07259700  -3.47142100  -0.17318200
N   2.08095900  -2.59872100   0.16231200
C   0.79140800  -3.12925000   0.57889100
H   0.85156700  -4.19919900   0.47075100
H   0.59535000  -2.87796700   1.60920000
H   0.00306200  -2.73999600  -0.04212000
H   4.43567800   0.68258300  -0.05291200
C   1.79524700  -0.10840200   0.25030400
N   0.56479100  -0.25735700   0.76935800
O  -0.64616800  -0.30386100   0.08035400
C  -1.75957900   0.05537600   0.92921500
H  -1.83052800  -0.65032100   1.74287200
H  -1.58869500   1.04104900   1.33673300
C  -3.01214700   0.02911300   0.10553200
C  -3.03407400  -0.15387100  -1.26041400
C  -5.30829700   0.23201000   0.23278100
C  -4.28188200  -0.14052100  -1.88740600
H  -2.13064300  -0.29961500  -1.81116500
C  -5.42961400   0.05163000  -1.15443000
H  -4.34582100  -0.28040000  -2.94927700
H  -6.39422100   0.06450500  -1.62123200
N  -4.11974600   0.21593100   0.82899400
N  -6.39309100   0.42913100   1.03250900
H  -6.24936500   0.55012000   2.00459200
H  -7.31353400   0.45460400   0.67264700
