27
trans-MTAI S0-min; exact source coordinates from RSC ESI Table 7S; SA3-CASSCF(12,10)/6-31G*
C   0.0544038497   0.0554497516   0.0000253141
C  -0.6970951794  -1.1152518390   0.0000258311
C  -0.1009631911  -2.3624324416   0.0000540782
C   1.2986041821  -2.4319708770   0.0001158851
C   2.0663516046  -1.2751324583   0.0001219536
C   1.4459368503  -0.0210708290   0.0000669821
N   2.3276967284   1.0903156887   0.0000966714
N   1.7750380562   2.2048988004  -0.0001129565
C   2.6635528758   3.2928410304  -0.0001040718
N   3.9598145897   3.2909584820  -0.0001519621
C   4.3154147433   4.6212781944  -0.0001301275
C   3.2122670272   5.3955390137  -0.0000731519
H  -0.4318423961   1.0108495504   0.0000175510
H  -1.7707108848  -1.0424775289   0.0000094079
H   1.7845591658  -3.3919051222   0.0001702852
H   3.1394128156  -1.3199957577   0.0001860091
H   5.3413447744   4.9224846331  -0.0001782682
H   3.0933915598   6.4585658110  -0.0000498007
N   2.1371359687   4.5517618830  -0.0000724629
C   0.7455785500   4.9484324447   0.0001420412
H   0.5205715046   5.5343399016   0.8832933258
H   0.5213516055   5.5373898745  -0.8811631644
H   0.1284203329   4.0657534062  -0.0016574596
C  -0.9231188848  -3.6297791541  -0.0001086980
H  -0.7085407960  -4.2342927627  -0.8763709892
H  -0.7061830194  -4.2360854167   0.8743192315
H  -1.9846275329  -3.4116969783   0.0015290452
