29
Oxybenzone S0-ENOL; exact CASSCF(10,8)/6-31G* coordinates from publisher Supporting Information
C -2.208878000 -0.995125000 0.839541000
C -3.329753000 -1.800651000 0.881526000
C -4.436385000 -1.505603000 0.089347000
C -4.418650000 -0.381416000 -0.732667000
C -3.298397000 0.443770000 -0.757658000
C -2.178480000 0.129477000 0.016372000
H -1.364866000 -1.227618000 1.462662000
H -3.346438000 -2.657456000 1.530891000
H -5.303725000 -2.140214000 0.118325000
H -5.272650000 -0.143743000 -1.340858000
H -3.284423000 1.326873000 -1.367957000
C -1.019515000 1.083761000 0.001767000
O -1.262444000 2.269903000 0.016976000
C 0.372804000 0.592076000 -0.028278000
C 0.701315000 -0.729440000 -0.394461000
C 1.429355000 1.464406000 0.265717000
C 1.987076000 -1.186188000 -0.433997000
C 2.750582000 1.001666000 0.259598000
C 3.030288000 -0.304774000 -0.086202000
H 2.184335000 -2.196733000 -0.730685000
H 3.544999000 1.680374000 0.500759000
O 4.329008000 -0.651006000 -0.079843000
C 4.715753000 -1.950758000 -0.431812000
H 5.791465000 -1.975341000 -0.346545000
H 4.434586000 -2.185879000 -1.452397000
H 4.288858000 -2.687429000 0.239834000
H -0.087579000 -1.401050000 -0.671815000
O 1.260213000 2.742041000 0.574701000
H 0.341948000 2.982119000 0.451493000
