32
W2511157305-a exact source CASSCF(4,3)/6-31G npi*/pipi* conical-intersection geometry from ACS Supporting Information pp. 28-29
C  3.566550  -1.721105   0.251812
C  2.334065  -2.370973   0.109650
C  1.141606  -1.654218  -0.023700
C  1.200879  -0.221898  -0.038065
C  2.445036   0.398238   0.121479
C  3.626508  -0.343207   0.267933
C -0.111329  -2.282660  -0.130347
C -0.012779   0.508400  -0.217711
C -1.281325  -0.125374  -0.211042
C -1.322087  -1.571862  -0.202646
C -2.568130  -2.209779  -0.267160
H -2.601088  -3.282192  -0.286705
C -3.756034  -1.478213  -0.303108
C -3.731675  -0.095468  -0.272346
C -2.502981   0.571056  -0.223685
H -0.150460  -3.355762  -0.116250
H  4.461437  -2.304257   0.352813
H  2.299487  -3.443716   0.105483
H  2.501492   1.465042   0.161082
H  4.562321   0.164832   0.388706
H -4.693599  -1.998960  -0.349326
H -4.643511   0.468300  -0.285236
H -2.508654   1.640877  -0.181350
C  0.075641   1.998647  -0.404646
H -0.798514   2.348746  -0.959749
H  0.924221   2.245938  -1.038492
N  0.235194   2.679335   0.853637
H -0.258933   2.283972   1.620864
C  0.357635   4.117791   0.850030
H -0.524738   4.628980   0.456411
H  1.204278   4.416593   0.241817
H  0.529610   4.470765   1.857356
