47
CASSCF/6-31G(d) cis-stable fluorene motor; E = -959.62387532330342 Eh; source DOI 10.1063/1.4972825, SI pp. S15-S16
C   -0.51675838   -0.70411644    0.08505350
C    0.76112670   -0.23975025    0.00363925
C    2.01377724   -1.05245782    0.01618378
C    2.24335139   -2.43082784    0.19985010
C    3.52873763   -2.90119431    0.24200064
C    4.62466487   -2.02964695    0.12621663
C    4.42335007   -0.68330653   -0.02439461
C    3.11241039   -0.19664093   -0.07435213
C    2.62294571    1.18127894   -0.21941610
C    3.33097200    2.36670376   -0.45229198
C    2.63003493    3.52314857   -0.66586852
C    1.22383857    3.50964354   -0.67777203
C    0.52662126    2.35521631   -0.44533308
C    1.22997552    1.16592823   -0.16816049
H   -0.54357272    2.36511558   -0.49282466
H    0.68981017    4.41999755   -0.88517164
H    3.15274380    4.44516349   -0.84895034
H    4.40616124    2.36697354   -0.47910339
H    5.25989739   -0.01144942   -0.09842949
H    5.62383971   -2.42547603    0.16666294
H    3.70408580   -3.95415411    0.37391618
H    1.43480253   -3.12306451    0.31514371
C   -1.78607835    0.05792800    0.25928162
C   -2.12158695    1.09977988    1.14464989
C   -1.18693193    1.65753222    2.19727531
C   -3.43752746    1.56874306    1.08396197
C   -4.37962326    1.01252817    0.21907604
C   -4.07688542   -0.07470485   -0.57930817
C   -5.12136680   -0.72680369   -1.45500582
C   -2.77317389   -0.55969800   -0.52026405
C   -2.21326076   -1.81052792   -1.16143608
C   -0.96392368   -2.11536618   -0.29604271
C   -1.32614681   -2.98589003    0.91403588
H   -0.48320636   -3.10928667    1.58532220
H   -1.64459436   -3.97244084    0.58984312
H   -2.13666606   -2.54388409    1.48368405
H   -0.21437215   -2.61549927   -0.89250935
H   -2.91959205   -2.63399206   -1.16305632
H   -4.79807250   -0.77395965   -2.49053073
H   -5.32788796   -1.74418768   -1.13437641
H   -6.05414922   -0.17597405   -1.42350934
H   -5.37766735    1.41599735    0.20910496
H   -3.74000863    2.36477925    1.74241182
H   -0.81280360    2.63974565    1.93281142
H   -0.33223802    1.01449897    2.35715751
H   -1.71472505    1.75078619    3.14058966
H   -1.92232824   -1.63096119   -2.19399973
