15
VERBATIM source geometry: gas-phase S0 minimum from RSC ESI for DOI 10.1039/c7cp00478h; CASSCF(16,12)/6-31G*; ESI does not print a unit label
C -0.62381240 -1.40786975 0.00333213
C -1.03407674 -0.00169719 0.01376184
C 1.34066278 0.64641257 0.01435211
C 0.69925072 -1.67006952 -0.00152393
H 1.09030081 -2.66794996 -0.00943762
N -0.00100328 0.89922249 0.01953390
H -0.25133154 1.86611524 0.02629325
N 1.65147165 -0.67134968 0.00283579
H 2.61989942 -0.89914426 0.00017224
S -2.59680793 0.52130500 0.01885195
S 2.49323539 1.87098403 0.02170996
C -1.65159221 -2.50704426 -0.00156743
H -2.28652295 -2.44836972 0.87402792
H -2.29224002 -2.43538310 -0.87197784
H -1.16564770 -3.47577691 -0.01036426
