27
-7.1948287911809018e+02 frame 1   xyz file generated by TeraChem
     C    53.2575768721   24.9519300550  -34.8768681011
     C    52.4836456719   23.7709257551  -34.3864466717
     N    52.4407637099   23.3786102969  -33.1808018449
     N    51.7299739335   22.9875807882  -35.2436432207
     C    51.1387743579   21.9773556469  -34.4891692617
     O    50.4116908213   21.1214200922  -34.9550757670
     C    51.6115380641   22.2486522375  -33.1546437479
     C    51.5502838637   23.1371056371  -36.6601567452
     C    51.2624929203   21.4742686039  -32.0630613452
     C    51.5949212783   21.5449833573  -30.6985759578
     C    51.0601946347   20.5727412711  -29.8021534978
     C    52.4456721864   22.5327616513  -30.1135664322
     C    51.3270770800   20.5627576459  -28.4763722314
     C    52.7283767773   22.5471023196  -28.7914511441
     C    52.1905190757   21.5601965812  -27.8641032827
     O    52.4467377685   21.5706709489  -26.6661257877
     H    50.9066956174   19.8149898816  -27.8260795464
     H    52.8656686530   23.2817575586  -30.7582356886
     H    53.3721556563   23.3007125509  -28.3707788954
     H    50.4125286939   19.8126199628  -30.2120656200
     H    50.6066735008   20.6629487585  -32.3363709892
     H    50.8947424839   22.3419818679  -36.9819498822
     H    52.4915135534   23.0558280123  -37.1965885393
     H    51.0937570512   24.0908530188  -36.9096240620
     H    53.9974617219   24.6633628071  -35.6193133284
     H    53.7638610332   25.4056395630  -34.0362619313
     H    52.6067030191   25.6922431304  -35.3355164781
