12
-4.0994350202018296e+02 frame 10   xyz file generated by TeraChem
     C    -0.0037610233    0.0001657350    0.0016418939
     C     1.1203682584    0.0006287977    2.2204662293
     C     2.4049650507   -0.0049801607    1.5068279553
     C     2.4173516963   -0.0074707364    0.1659576437
     N     0.0021507192    0.0022307336    1.3662371462
     N     1.2490552699   -0.0049409126   -0.5683358189
     O    -1.0000442574    0.0025184531   -0.6567353058
     O     0.9946731782    0.0036171418    3.4072918298
     H    -0.8967128881    0.0063762962    1.7988218550
     H     3.3059978614   -0.0068594584    2.0851563377
     H     3.3223757619   -0.0115070910   -0.4084755695
     H     1.2646553727   -0.0066527983   -1.5629481966
