14
-2.3183135092328354e+02 frame 9   xyz file generated by TeraChem
     C     0.1565990929    0.0293895514   -0.0178918379
     C     0.1460540572    0.0396982327    1.3169248278
     C    -0.1459478746    1.2599291618    2.0537630293
     C    -0.1565889679    2.4460269618    1.4413811874
     C     0.1881590712    2.5507501775   -0.0268919838
     C    -0.1882333869    1.2800279073   -0.7941914725
     H     0.3398764394   -0.8814872933   -0.5606288853
     H     0.3337111363   -0.8634703581    1.8714811340
     H    -0.3335523997    1.1896619692    3.1112735972
     H    -0.3398955864    3.3504472929    1.9948001957
     H    -0.3010406840    3.4094374053   -0.4749488935
     H     1.2608267106    2.7284179858   -0.1122143255
     H    -1.2609067604    1.2727732433   -0.9911210308
     H     0.3009371522    1.2767617625   -1.7627555422
