51
-8.4381437841188904e+02 frame 270   xyz file generated by TeraChem
     C    -0.1183390274   -0.8502988160   -2.1964494441
     C     0.9966074807    0.0400096595   -1.7167791988
     C     2.1816430917   -0.5270546988   -1.1627378355
     C     3.5624347691   -0.2089773356   -1.7286618731
     C     3.6190002845    1.1129208045   -2.4888686493
     O     4.8390198549    1.2440712721   -3.2333928327
     C     2.4052548022    1.2586276679   -3.3979260668
     C     1.1306010827    1.3150317187   -2.5426897722
     C     2.0346065216   -1.4173883078   -0.0834053319
     C     0.9414659952   -1.5059659991    0.7534300784
     C    -0.0187806787   -0.4333079436    0.8521137069
     C     0.0016166818    0.7733257017    0.1390314093
     H     1.0030074478    1.1328141413   -0.0276145555
     C    -1.0367691906    1.8783133827    0.3380190853
     C    -1.9972317902    1.6768018877    1.5314543198
     C    -2.3824887424    0.2014019920    1.6646098107
     C    -3.1319797897   -0.2765469028    0.4051573762
     C    -1.0844395788   -0.6016469730    1.9057388920
     H    -0.6073761293   -0.1382207424    2.7734989900
     C    -1.5630067742   -1.9929825542    2.3575036355
     C    -2.8867485093   -1.6965146399    3.1168475437
     C    -3.1688399344   -0.1765912021    2.9468235255
     H    -2.6877150030    0.3490964390    3.7701867014
     C    -4.6546689185    0.1797860672    2.9795433830
     H     0.2192425340   -1.1759082902   -3.1810747735
     H    -0.2465178694   -1.7196877752   -1.5780090456
     H    -1.0437954899   -0.3117425347   -2.3112793020
     H     3.8887352226   -0.9906480170   -2.4263350913
     H     4.3113775240   -0.1794021155   -0.9450794762
     H     3.6421541209    1.9398014976   -1.7940439135
     H     5.0600016726    0.4626109839   -3.7299221884
     H     2.3709371226    0.4317371954   -4.1037236941
     H     2.4858474611    2.1693103050   -3.9775432339
     H     0.2524089249    1.4572400134   -3.1562544576
     H     1.2003357096    2.1607897240   -1.8804752275
     H     2.8832072323   -2.0466855184    0.1459266089
     H     0.9152891366   -2.2698228839    1.5001653966
     H    -1.6423130318    1.9939519692   -0.5622105375
     H    -0.5329774749    2.8337400166    0.4653445752
     H    -2.8779327691    2.3017437216    1.4065286262
     H    -1.5110927451    1.9936859952    2.4511414301
     H    -2.4996768368   -0.2253990169   -0.4695194719
     H    -3.4804122829   -1.2975406411    0.5007733086
     H    -3.9980737712    0.3491965902    0.2211324186
     H    -0.8380227749   -2.4849177583    2.9919729150
     H    -1.7308370594   -2.6432918826    1.5082524398
     H    -2.8132997703   -1.9598712222    4.1658236618
     H    -3.7039237583   -2.2803524911    2.7074879030
     H    -5.2135338551   -0.3554530518    2.2208266917
     H    -4.8120204216    1.2424021537    2.8269119690
     H    -5.0831382955   -0.0784595391    3.9428354216
