20
-5.6676087697116532e+02 frame 0   xyz file generated by TeraChem
     O     0.0067312486    0.0360456416   -0.0009833206
     O    -0.0062805654   -1.0001509167    1.9532481851
     O    -0.0088331397    6.3567893812    6.1812679032
     C     0.0000819180    0.0227925570    1.3344477362
     C     0.0025117104    1.3664597437    1.8999944089
     C    -0.0062736395    1.5421230431    3.2904475196
     C    -0.0070005544    2.7344429870    3.9622874220
     C     0.0105816502    4.0485155060    3.3165578445
     C     0.0096918783    5.2280789655    4.0582795274
     C    -0.0069781760    5.2405005008    5.4206138835
     C    -0.0246736653    4.0035181132    6.1566242013
     C    -0.0237517033    2.7350257218    5.4151486033
     H     0.0051393523   -0.8680348009   -0.2979946757
     H     0.0094476228    2.1849683720    1.2099588595
     H    -0.0150372459    0.6394685489    3.8746870648
     H     0.0252361217    4.1088782650    2.2479421971
     H     0.0234211468    6.1650487262    3.5254029444
     H    -0.0374270024    4.0201798237    7.2272934719
     H    -0.0365681890    1.8072000948    5.9508596660
     H     0.0029812319    7.1331497261    5.6379165577
