10
-1.5491896202364211e+02 frame 5   xyz file generated by TeraChem
     C    -1.8362263631   -0.0000013414   -0.1005767725
     C    -0.6000102602    0.0000012047    0.4020478240
     C     0.5997519337    0.0000013810   -0.4004473266
     C     1.8367797447   -0.0000011542    0.1000266822
     H    -2.7037271897   -0.0000016135    0.5333259888
     H    -2.0130585706   -0.0000031124   -1.1622141451
     H    -0.4668198711    0.0000027212    1.4719964900
     H     0.4645551092    0.0000026513   -1.4701665953
     H     2.0154116643   -0.0000032028    1.1613679582
     H     2.7031455698   -0.0000016436   -0.5354020814
