24
W2622612188-a | 34-L-L-endo conical intersection | CASSCF/6-31G(d) | source SI DOI 10.1246/bcsj.20170118
C  -0.084555   0.030243   0.072734
C  -0.025723   0.159478   1.434451
C   1.254848   0.112389   2.069196
C   2.440175  -0.020320   1.256395
C   2.337954  -0.085407  -0.188384
N   1.039893  -0.096737  -0.696587
O   3.288750  -0.152675  -0.931608
H   0.964668  -0.212166  -1.685120
H  -1.019379  -0.001170  -0.464384
H  -0.929312   0.199196   2.017579
H   1.358757   0.363011   3.117998
H   3.381447   0.334437   1.613891
C   2.345543  -1.910501   1.928302
C   1.235484  -2.128620   2.808575
H   2.299389  -2.408683   0.970556
H   3.327457  -1.915449   2.381354
H   1.342124  -2.033040   3.859912
C  -0.022202  -2.600991   2.339959
O  -0.299042  -2.881682   1.207443
O  -0.922392  -2.656323   3.328950
C  -2.196603  -3.152660   2.994733
H  -2.777050  -3.114032   3.903223
H  -2.126951  -4.170783   2.640087
H  -2.658570  -2.544261   2.232143
