34
VERBATIM from Supporting Information section 9 for DOI 10.1021/jacs.7b04561; molecule 3'; triplet-state B3LYP/def2-SVP optimized geometry; reported E=-1597.66642032 Ha; Unicode minus normalized to ASCII
C      0.016675     0.008960    -0.000004
C      1.418770    -0.003397    -0.000008
C      2.116103     1.257683    -0.000001
C      1.358675     2.438334     0.000003
C     -0.059462     2.436736     0.000005
C     -0.736905     1.210074     0.000004
N      2.085288    -1.195441    -0.000020
C      3.439035    -1.119050    -0.000013
C      4.134923     0.137778    -0.000004
N      3.480307     1.325935     0.000000
C      4.210911    -2.303634    -0.000037
C      5.644972    -2.326287    -0.000042
C      6.327416    -1.094910    -0.000033
C      5.548730     0.110226    -0.000017
S      3.536723    -3.909697    -0.000160
C      5.150022    -4.603129     0.000053
C      6.147566    -3.672321    -0.000004
C      7.735668    -0.809555    -0.000008
C      7.997877     0.529381     0.000018
S      6.555769     1.531862    -0.000032
C     -0.816066     3.737815     0.000007
C     -2.240755     1.155751     0.000012
H     -0.489619    -0.959373    -0.000007
H      1.907882     3.382992     0.000004
H      5.262162    -5.687183     0.000128
H      7.208226    -3.925477     0.000042
H      8.511808    -1.575561     0.000003
H      8.977248     1.007415     0.000047
H     -1.472114     3.824027     0.883548
H     -1.472118     3.824028    -0.883531
H     -0.134359     4.600106     0.000006
H     -2.664346     1.664124     0.883459
H     -2.604794     0.118685     0.000012
H     -2.664355     1.664127    -0.883429
