48
VERBATIM from Supporting Information section 9 for DOI 10.1021/jacs.7b04561; molecule 1; triplet-state B3LYP/def2-SVP optimized geometry; reported E=-2700.61517341 Ha; Unicode minus normalized to ASCII
C     -0.706372    -0.000031    -6.391555
C     -1.408008    -0.000015    -5.196098
C     -0.718604     0.000021    -3.959997
C      0.718598     0.000040    -3.960000
C      1.407996     0.000023    -5.196104
C      0.706354    -0.000012    -6.391558
N     -1.418401     0.000036    -2.791127
C     -0.726183     0.000071    -1.662909
C      0.726186     0.000092    -1.662911
N      1.418400     0.000075    -2.791132
C     -1.421866     0.000087    -0.389432
C     -0.683343     0.000131     0.861972
C      0.683350     0.000150     0.861971
C      1.421871     0.000126    -0.389435
C     -2.798186     0.000061    -0.192097
C     -3.188792     0.000079     1.157687
S     -1.777978     0.000147     2.245399
S      1.777988     0.000198     2.245398
C      3.188799     0.000163     1.157683
C      2.798191     0.000138    -0.192101
C     -4.503992     0.000052     1.689575
C      4.503997     0.000169     1.689573
C      4.904703     0.000282     3.027888
C      6.309342     0.000138     3.190575
C      7.009181    -0.000085     1.998611
S      5.917660     0.000170     0.638348
C     -4.904703     0.000098     3.027888
C     -6.309342     0.000011     3.190570
C     -7.009177    -0.000105     1.998603
S     -5.917651    -0.000008     0.638344
C      8.489366    -0.000402     1.790952
C     -8.489362    -0.000259     1.790940
H     -1.247217    -0.000059    -7.341254
H     -2.499688    -0.000030    -5.167129
H      2.499676     0.000039    -5.167141
H      1.247194    -0.000024    -7.341260
H     -3.504067     0.000025    -1.023325
H      3.504072     0.000124    -1.023329
H      4.192481     0.000374     3.854335
H      6.808762     0.000101     4.161164
H     -4.192484     0.000163     3.854338
H     -6.808767    -0.000001     4.161157
H      8.822999    -0.888116     1.227140
H      9.004467    -0.000484     2.762649
H      8.823367     0.887142     1.227094
H     -9.004464    -0.000288     2.762636
H     -8.823089    -0.887934     1.227124
H     -8.823267     0.887324     1.227084
