50
VERBATIM from Supporting Information section 9 for DOI 10.1021/jacs.7b04561; molecule 2'; triplet-state B3LYP/def2-SVP optimized geometry; reported E=-2884.86833952 Ha; Unicode minus normalized to ASCII
C      1.404074    -0.000099    -4.956353
C      0.721472    -0.000066    -3.728972
C     -0.721474    -0.000057    -3.728971
C     -1.404076    -0.000085    -4.956353
C     -0.709716    -0.000118    -6.178263
C      0.709714    -0.000124    -6.178263
N      1.434777    -0.000038    -2.562982
C      0.721003    -0.000001    -1.429620
C     -0.721002     0.000011    -1.429619
N     -1.434778    -0.000017    -2.562981
C      1.379450     0.000048    -0.168393
C      0.706108     0.000108     1.101272
C     -0.706106     0.000119     1.101272
C     -1.379449     0.000072    -0.168392
S      3.101974     0.000092     0.002222
C      2.949657     0.000115     1.780267
C      1.628718     0.000147     2.183168
C     -1.628714     0.000172     2.183169
C     -2.949654     0.000168     1.780270
S     -3.101973     0.000146     0.002225
C      4.137149     0.000145     2.583890
C     -4.137146     0.000231     2.583893
C      5.462138     0.000180     2.166083
C      6.388165     0.000091     3.238983
C      5.792624     0.000004     4.483877
S      4.055989     0.000289     4.337022
S     -4.055989     0.000303     4.337025
C     -5.792624    -0.000031     4.483877
C     -6.388163     0.000256     3.238982
C     -5.462135     0.000414     2.166084
C     -6.448736    -0.000429     5.827339
C      6.448732    -0.000207     5.827341
H      2.494448    -0.000102    -4.939612
H     -2.494451    -0.000078    -4.939612
C     -1.443023    -0.000140    -7.408002
C      1.443020    -0.000150    -7.408002
H      1.331557     0.000186     3.232580
H     -1.331552     0.000215     3.232581
H      5.749298     0.000179     1.113432
H      7.471488     0.000013     3.107587
H     -7.471486     0.000229     3.107583
H     -5.749293     0.000524     1.113433
H     -7.542057    -0.000547     5.709674
H     -6.168308     0.887545     6.418448
H     -6.168074    -0.888598     6.418044
H      6.168075    -0.888298     6.418165
H      6.168296     0.887844     6.418329
H      7.542053    -0.000332     5.709678
N      2.059814    -0.000172    -8.392244
N     -2.059816    -0.000158    -8.392245
