48
VERBATIM from Supporting Information section 9 for DOI 10.1021/jacs.7b04561; molecule 1'; triplet-state B3LYP/def2-SVP optimized geometry; reported E=-2700.60631437 Ha; Unicode minus normalized to ASCII
C      1.401169    -0.000039     5.781179
C      0.720695    -0.000036     4.551832
C     -0.720697    -0.000091     4.551831
C     -1.401172    -0.000146     5.781178
C     -0.697880    -0.000148     6.995643
C      0.697876    -0.000094     6.995644
N      1.437074     0.000020     3.381318
C      0.722485     0.000020     2.247260
C     -0.722484    -0.000036     2.247259
N     -1.437075    -0.000090     3.381316
C      1.378335     0.000082     0.988749
C      0.705651     0.000095    -0.281747
C     -0.705649     0.000041    -0.281747
C     -1.378333    -0.000021     0.988749
S      3.105859     0.000181     0.814537
C      2.949911     0.000201    -0.961791
C      1.629019     0.000171    -1.363814
C     -1.629015     0.000045    -1.363815
C     -2.949908    -0.000008    -0.961793
S     -3.105857    -0.000057     0.814534
C      4.135910     0.000285    -1.771007
C     -4.135907    -0.000003    -1.771009
C      5.461492     0.000442    -1.360422
C      6.383996     0.000276    -2.438930
C      5.784296     0.000003    -3.680185
S      4.047411     0.000463    -3.524252
S     -4.047410    -0.000007    -3.524254
C     -5.784296    -0.000003    -3.680185
C     -6.383993     0.000035    -2.438928
C     -5.461489     0.000034    -1.360423
C     -6.433773    -0.000028    -5.027359
C      6.433769    -0.000440    -5.027360
H      2.493021     0.000004     5.754328
H     -2.493023    -0.000187     5.754326
H     -1.247089    -0.000190     7.940317
H      1.247084    -0.000095     7.940319
H      1.331344     0.000198    -2.413243
H     -1.331339     0.000092    -2.413244
H      5.752622     0.000503    -0.308926
H      7.468000     0.000191    -2.311628
H     -7.467997     0.000056    -2.311625
H     -5.752618     0.000055    -0.308926
H     -7.527846    -0.000019    -4.914770
H     -6.151529    -0.888084    -5.617748
H     -6.151518     0.887998    -5.617786
H      6.151679     0.887512    -5.617977
H      6.151357    -0.888569    -5.617559
H      7.527842    -0.000612    -4.914775
