34
VERBATIM from Supporting Information section 9 for DOI 10.1021/jacs.7b04561; molecule 3; triplet-state B3LYP/def2-SVP optimized geometry; reported E=-1597.66547085 Ha; Unicode minus normalized to ASCII
C     -3.973141     2.560073    -0.002838
C     -2.571508     2.680408    -0.001724
C     -1.721539     1.562128    -0.001350
C     -2.310059     0.252776    -0.002160
C     -3.710419     0.144964    -0.003221
C     -4.551435     1.272517    -0.003576
N     -0.363783     1.736167    -0.000258
C      0.384709     0.622031    -0.000031
C     -0.209399    -0.698408    -0.000891
N     -1.539423    -0.878044    -0.001931
C      1.810540     0.732452     0.001085
C      2.659603    -0.443802     0.001329
C      2.095659    -1.695977     0.000482
C      0.652279    -1.839060    -0.000638
C      2.579970     1.928876     0.002065
C      3.931377     1.699067     0.002989
S      4.365145    -0.001804     0.002767
S      2.893389    -3.266684     0.000585
C      1.331184    -4.068157    -0.000946
C      0.264544    -3.207445    -0.001413
C     -4.840817     3.790716    -0.003205
C     -6.047443     1.102919    -0.004775
H     -2.100347     3.666325    -0.001129
H     -4.133490    -0.862594    -0.003779
H      2.119401     2.916182     0.002059
H      4.727243     2.443757     0.003836
H      1.300179    -5.157745    -0.001382
H     -0.780757    -3.514696    -0.002320
H     -5.502035     3.820946     0.880132
H     -5.501361     3.820906    -0.887037
H     -4.235064     4.708130    -0.002977
H     -6.508870     1.576336    -0.888692
H     -6.510306     1.576516     0.878303
H     -6.329341     0.040432    -0.004887
