50
VERBATIM from Supporting Information section 9 for DOI 10.1021/jacs.7b04561; molecule 2; triplet-state B3LYP/def2-SVP optimized geometry; reported E=-2884.87678224 Ha; Unicode minus normalized to ASCII
C      0.714516    -0.000019     5.641854
C      1.406575    -0.000020     4.429648
C      0.719537     0.000004     3.197406
C     -0.719538     0.000031     3.197406
C     -1.406575     0.000029     4.429649
C     -0.714516     0.000005     5.641854
N      1.423985     0.000004     2.033523
C      0.724168     0.000033     0.901616
C     -0.724168     0.000061     0.901616
N     -1.423986     0.000059     2.033523
C      1.415069     0.000031    -0.366872
C      0.684928     0.000064    -1.619187
C     -0.684928     0.000093    -1.619188
C     -1.415070     0.000091    -0.366873
C      2.798250    -0.000007    -0.562953
C      3.185233    -0.000007    -1.907384
S      1.780979     0.000070    -2.997066
S     -1.780981     0.000148    -2.997068
C     -3.185233     0.000125    -1.907384
C     -2.798250     0.000114    -0.562954
C      4.504912    -0.000056    -2.440180
C     -4.504911     0.000138    -2.440180
C     -4.903205     0.000209    -3.776812
C     -6.307249     0.000103    -3.940380
C     -7.005087    -0.000036    -2.746219
S     -5.914824     0.000156    -1.389194
C      4.903205    -0.000077    -3.776812
C      6.307249    -0.000082    -3.940381
C      7.005088    -0.000068    -2.746219
S      5.914825    -0.000153    -1.389193
C     -8.485238    -0.000252    -2.538764
C      8.485238    -0.000027    -2.538765
C      1.443034    -0.000041     6.875475
H      2.496925    -0.000039     4.410957
H     -2.496925     0.000049     4.410958
C     -1.443034     0.000006     6.875475
H      3.502223    -0.000044     0.269776
H     -3.502224     0.000113     0.269775
H     -4.191208     0.000269    -4.603631
H     -6.807424     0.000071    -4.910269
H      4.191209    -0.000055    -4.603632
H      6.807425    -0.000065    -4.910269
H     -8.816903    -0.887973    -1.974518
H     -9.000224    -0.000321    -3.510211
H     -8.817158     0.887368    -1.974508
H      9.000224     0.000010    -3.510212
H      8.817058    -0.887700    -1.974534
H      8.817006     0.887640    -1.974494
N     -2.053950     0.000007     7.863182
N      2.053950    -0.000059     7.863183
