11
VERBATIM computational geometry from official RSC ESI: 1-pyrazoline reactant, CASSCF(4,4)/6-31+G*
N    0.056333       -1.117680    0.605127
N    0.056333       -1.117680    -0.605127
C    -0.094863       0.269143    -1.183589
C    0.112021       1.212155    0.000000
C    -0.094863       0.269143    1.183589
H    0.622453       0.379476    1.985095
H    -1.090569       0.318327    1.610838
H    -0.583060       2.041984    0.000000
H    1.117584       1.617017    0.000000
H    0.622453       0.379476    -1.985095
H    -1.090569       0.318327    -1.610838
