9
VERBATIM radical 2a coordinates from official RSC ESI; optimized at UB3LYP/cc-pVTZ (main text: 3-dehydropyridazine; ESI appendix mislabels 2-dehydropyridazine)
N  -1.23989000  -0.64640600   0.00000000
C  -0.17312800  -1.33376700   0.00000000
C   1.13046900  -0.84452100   0.00000000
C   1.20139900   0.53177300   0.00000000
C   0.00000000   1.25656600   0.00000000
N  -1.20462500   0.70795700   0.00000000
H   2.00242100  -1.48184300   0.00000000
H   2.15103200   1.05114700   0.00000000
H   0.00570800   2.33953400   0.00000000
