12
VERBATIM benzene coordinates from the official AIP SI model geometry; the noninteracting rare-gas spectator at z=100 A is deliberately excluded
C   1.396000000   0.000000000   0.000000000
C   0.698000000   1.208971464   0.000000000
C   0.698000000  -1.208971464   0.000000000
C  -0.698000000   1.208971464   0.000000000
C  -0.698000000  -1.208971464   0.000000000
C  -1.396000000   0.000000000   0.000000000
H   1.241000000   2.149475052   0.000000000
H   1.241000000  -2.149475052   0.000000000
H  -1.241000000   2.149475052   0.000000000
H  -1.241000000  -2.149475052   0.000000000
H  -2.482000000   0.000000000   0.000000000
H   2.482000000   0.000000000   0.000000000
