21
Verbatim computational geometry: structure 16 reactant, (10,8)CASSCF/6-31G**, official SI pp. S2-S3, DOI 10.1021/acs.joc.7b02316
C -1.460238  0.086781 -0.916888
H -1.286239  0.321419 -1.954741
C -2.617927 -0.501717 -0.581644
H -3.310933 -0.708260 -1.382237
C -0.354173  0.505986  0.008028
H -0.453498  0.061208  0.984080
O  0.875272 -0.024140 -0.600406
C  1.896783 -0.295861  0.204775
O  1.879619 -0.128944  1.391028
C -0.230423  2.017460  0.130752
H  0.601522  2.282524  0.771975
H -0.078867  2.467267 -0.845117
H -1.138925  2.428387  0.558750
C  3.070974 -0.840223 -0.564115
H  3.881509 -1.053336  0.117573
H  2.781875 -1.743926 -1.088035
H  3.393360 -0.117873 -1.305266
C -3.093150 -0.912137  0.786474
H -3.998190 -0.371590  1.050933
H -3.339589 -1.970172  0.798577
H -2.362238 -0.732706  1.564241
