54
Verbatim publisher ESI geometry: 11t-methyl-s0048; geometry supplied for vertical-excitation calculations
C -1.182732 -4.849629 0.526983
C -0.750144 -5.982826 1.472811
C -0.228625 -5.465678 2.806172
C 1.020842 -4.634794 2.553618
C 0.863276 -3.632566 1.436952
C -0.163086 -3.695733 0.549073
C -2.561902 -4.307413 0.942486
C 1.982060 -2.623440 1.397802
C -0.375685 -2.671575 -0.471969
C -0.213271 -1.332962 -0.316749
C -0.456860 -0.356798 -1.351989
C -0.283432 0.973102 -1.031259
C -0.888406 -0.831671 -2.711433
C -0.471177 2.073754 -1.899434
C -0.283450 3.381163 -1.508041
C -0.462663 4.505439 -2.351859
C -0.884112 4.297567 -3.782683
C -0.238190 5.772061 -1.808151
C -0.370949 6.973494 -2.500578
N -0.155733 8.163232 -1.969366
C -0.287199 9.433068 -2.673245
C -1.298578 -5.452883 -0.885595
H 0.045139 -6.566292 0.987974
H -1.599376 -6.660918 1.614991
H -0.001157 -6.295656 3.481196
H -0.989852 -4.851768 3.301764
H 1.869808 -5.290813 2.308063
H 1.324385 -4.090380 3.457437
H -2.874889 -3.488867 0.284602
H -2.552439 -3.922746 1.966481
H -3.315885 -5.099133 0.877409
H 2.102875 -2.147488 0.424203
H 2.920893 -3.123077 1.659160
H 1.829351 -1.840386 2.151157
H -0.762059 -3.025082 -1.425853
H 0.090277 -0.943819 0.651875
H 0.027042 1.204280 -0.013858
H -1.041645 -0.020660 -3.420514
H -0.139483 -1.509660 -3.130773
H -1.827240 -1.388753 -2.632502
H -0.777405 1.878822 -2.923607
H 0.021688 3.571162 -0.481209
H -1.848068 3.782391 -3.818019
H -0.151873 3.673687 -4.302457
H -0.985382 5.222701 -4.345832
H 0.062790 5.826149 -0.764137
H -0.667606 6.993629 -3.545500
H 0.668682 9.960624 -2.677370
H -0.591243 9.238065 -3.701718
H -1.043336 10.054148 -2.188984
H -1.822312 -4.795844 -1.586541
H -1.875888 -6.381516 -0.831795
H -0.312432 -5.692377 -1.297260
H 0.123603 8.204259 -0.995015
