57
Verbatim publisher ESI geometry: 11t-dimethyl-s0048; geometry supplied for vertical-excitation calculations
C -1.166113 -4.850731 0.531299
C -0.732453 -5.985829 1.474172
C -0.213225 -5.471201 2.809435
C 1.034656 -4.636473 2.561260
C 0.876883 -3.633006 1.445218
C -0.146093 -3.697572 0.554757
C -2.544384 -4.308480 0.950126
C 1.992567 -2.619968 1.410937
C -0.356075 -2.672407 -0.467994
C -0.213139 -1.333984 -0.302435
C -0.451214 -0.352003 -1.335831
C -0.298725 0.975923 -1.004381
C -0.854897 -0.824531 -2.704709
C -0.486541 2.082210 -1.869200
C -0.321531 3.387090 -1.466641
C -0.502106 4.518602 -2.305387
C -0.898379 4.310679 -3.743355
C -0.301430 5.781317 -1.746288
C -0.442279 6.986379 -2.442656
N -0.257009 8.186749 -1.928762
C 0.126997 8.364375 -0.529138
C -1.285004 -5.450641 -0.882313
H 0.064353 -6.566366 0.988248
H -1.580527 -6.666019 1.613722
H 0.014943 -6.302555 3.482599
H -0.976661 -4.860404 3.305439
H 1.886022 -5.289918 2.317299
H 1.333700 -4.092848 3.467052
H -2.857904 -3.488788 0.293993
H -2.532714 -3.925301 1.974705
H -3.298904 -5.099794 0.885459
H 2.109536 -2.136257 0.440716
H 2.933762 -3.118391 1.666495
H 1.839026 -1.842816 2.170198
H -0.720195 -3.027012 -1.430215
H 0.070867 -0.948264 0.673716
H -0.007119 1.204483 0.019241
H -1.007136 -0.011507 -3.411809
H -0.090518 -1.490489 -3.115525
H -1.787472 -1.394330 -2.644207
H -0.774437 1.889636 -2.899110
H -0.034513 3.573762 -0.433872
H -1.852781 3.779356 -3.795371
H -0.148277 3.700233 -4.253677
H -1.006353 5.235443 -4.305564
H -0.017817 5.818838 -0.699646
H -0.725086 6.985428 -3.490528
H -0.638537 7.944503 0.129194
H 1.085200 7.874752 -0.334762
H 0.224865 9.429507 -0.325861
H -1.808195 -4.790383 -1.580616
H -1.864079 -6.378273 -0.829972
H -0.299804 -5.690958 -1.295846
C -0.425498 9.398524 -2.727957
H -0.711225 9.131886 -3.745047
H -1.205046 10.024830 -2.286725
H 0.513677 9.957164 -2.751801
