18
Verbatim computational geometry: structure 21 reactant, (10,8)CASSCF/6-31G**, official SI pp. S12-S13, DOI 10.1021/acs.joc.7b02316
C -1.944985 -0.524615 -0.354850
H -2.026686 -0.708734 -1.414141
C -2.850268 -1.034220  0.487980
H -2.791687 -0.868819  1.550370
H -3.673020 -1.629743  0.134921
C -0.798884  0.344158  0.072865
H -0.720762  0.366471  1.149584
O  0.406796 -0.305400 -0.459115
C  1.551608 -0.109263  0.187719
O  1.659606  0.570572  1.167980
C -0.885177  1.757590 -0.481862
H -0.030617  2.344017 -0.167319
H -0.917695  1.739188 -1.566498
H -1.786343  2.241707 -0.120282
C  2.685586 -0.850848 -0.467982
H  3.598704 -0.672650  0.081105
H  2.468665 -1.912557 -0.489063
H  2.800945 -0.517063 -1.492818
