9
VERBATIM radical 2b coordinates from official RSC ESI; optimized at UB3LYP/cc-pVTZ (main text: 4-dehydropyridazine; ESI appendix mislabels 3-dehydropyridazine)
N  -1.17217900   0.66501600   0.00000000
C  -0.02707600   1.37853400   0.00000000
C   1.17681000   0.71944800   0.00000000
C   1.23945400  -0.63992700   0.00000000
C   0.00000000  -1.29726400   0.00000000
N  -1.15417800  -0.64117900   0.00000000
H   2.16242800  -1.20513300   0.00000000
H  -0.06572500  -2.37861200   0.00000000
H  -0.14733500   2.45214000   0.00000000
