12
Verbatim computational geometry: chair transition structure 24, (10,8)CASSCF/6-31G**, official SI pp. S24-S25, DOI 10.1021/acs.joc.7b02316
O  1.048612  1.106624 -0.272045
C -1.037441  1.195870  0.250085
H -0.815721  1.255157  1.299055
C -1.439941  0.000031 -0.321493
H -1.741860  0.000113 -1.353696
C -1.037505 -1.195905  0.249922
H -1.206030 -2.131783 -0.246130
C  1.369686  0.000037  0.223297
O  1.048713 -1.106658 -0.271835
H -1.205969  2.131854 -0.245762
H  1.878016  0.000150  1.187813
H -0.815830 -1.255415  1.298886
