57
Verbatim publisher ESI geometry: 11c-dimethyl-s0048; M06-2X/6-31+G(d,p) optimized lowest-energy conformer
C -1.147583 -5.008710 0.265151
C -0.711879 -6.206147 1.126525
C -0.142454 -5.782105 2.473241
C 1.115865 -4.959744 2.236253
C 0.946721 -3.888059 1.187524
C -0.103021 -3.879166 0.326564
C -2.501594 -4.465174 0.755295
C 2.083383 -2.897856 1.178268
C -0.319352 -2.790710 -0.627255
C -0.146453 -1.467983 -0.383395
C -0.385146 -0.416325 -1.346868
C -0.201615 0.884592 -0.922759
C -0.822291 -0.801797 -2.732293
C -0.373734 2.032092 -1.740709
C -0.258995 3.382414 -1.472431
C 0.018654 4.068971 -0.257066
C 0.210173 3.315463 1.027126
C 0.093148 5.462270 -0.326963
C 0.361399 6.299615 0.760874
N 0.442420 7.614861 0.703706
C 0.249150 8.335994 -0.553623
C -1.318691 -5.520355 -1.177505
H 0.057263 -6.773179 0.583529
H -1.570408 -6.875796 1.251907
H 0.086908 -6.656334 3.089209
H -0.877451 -5.186382 3.027293
H 1.944455 -5.614750 1.926939
H 1.454358 -4.478174 3.163082
H -2.815880 -3.601760 0.158279
H -2.453113 -4.144753 1.800180
H -3.274395 -5.236085 0.665654
H 2.180127 -2.357305 0.236244
H 3.020770 -3.430489 1.371037
H 1.971862 -2.166801 1.989074
H -0.713512 -3.079905 -1.599350
H 0.167154 -1.152159 0.608930
H 0.107110 1.002374 0.107766
H -0.971782 0.047216 -3.394976
H -0.080871 -1.462601 -3.190424
H -1.766162 -1.353879 -2.682545
H -0.629665 1.829011 -2.776841
H -0.414893 4.030726 -2.330570
H 1.102458 2.685643 0.958574
H -0.648524 2.662410 1.204616
H 0.322445 3.958680 1.897387
H -0.062864 5.916882 -1.299488
H 0.525993 5.883417 1.749651
H 0.996336 8.022830 -1.288006
H -0.753054 8.146945 -0.948002
H 0.361371 9.402504 -0.365610
H -1.846519 -4.809120 -1.819987
H -1.916204 -6.437566 -1.163513
H -0.350927 -5.755338 -1.633054
C 0.728188 8.418707 1.890106
H 0.850103 7.767752 2.755336
H 1.647589 8.989202 1.735488
H -0.097631 9.110968 2.073087
