63
Verbatim publisher ESI geometry: 11t-n-butyl-s0048; M06-2X/6-31+G(d,p) reoptimized lowest-energy conformer
C -0.994813 -4.928497 0.302556
C -0.626993 -6.058996 1.278560
C -0.371393 -5.552380 2.691097
C 0.828947 -4.617453 2.666209
C 0.770201 -3.590352 1.562230
C -0.089809 -3.701370 0.517298
C -2.462332 -4.509679 0.502326
C 1.791501 -2.494675 1.731078
C -0.217881 -2.659543 -0.501869
C -0.208931 -1.320616 -0.285778
C -0.358085 -0.324156 -1.321772
C -0.362450 0.999380 -0.940817
C -0.505048 -0.777681 -2.747520
C -0.495575 2.117883 -1.799706
C -0.495596 3.416881 -1.347005
C -0.625711 4.559381 -2.179677
C -0.773241 4.375499 -3.667076
C -0.611685 5.813904 -1.572292
C -0.729446 7.030920 -2.245970
N -0.722490 8.208986 -1.655168
C -0.809201 9.501156 -2.337710
C -0.834647 -5.486010 -1.124282
H 0.281768 -6.559768 0.916026
H -1.428455 -6.806515 1.263872
H -0.187791 -6.386428 3.374461
H -1.250877 -5.018342 3.069599
H 1.757976 -5.195635 2.548032
H 0.935593 -4.084717 3.620257
H -2.732396 -3.694319 -0.178074
H -2.647465 -4.162778 1.523130
H -3.128971 -5.354335 0.297924
H 2.023033 -1.971108 0.803032
H 2.716613 -2.928310 2.125618
H 1.456082 -1.757481 2.471380
H -0.398286 -3.006450 -1.517398
H -0.112906 -0.948447 0.731308
H -0.253640 1.213586 0.120926
H -0.608813 0.045824 -3.451251
H 0.363801 -1.370749 -3.047327
H -1.388087 -1.416605 -2.847748
H -0.601893 1.940597 -2.866450
H -0.390495 3.589051 -0.277898
H -1.666607 3.783315 -3.884111
H 0.090366 3.835959 -4.065456
H -0.857839 5.311092 -4.215515
H -0.503063 5.850183 -0.490453
H -0.839391 7.069837 -3.326301
H -1.022067 9.299238 -3.391587
H -1.664253 10.048134 -1.926276
H -1.290341 -4.844079 -1.884287
H -1.336977 -6.456696 -1.187875
H 0.220635 -5.635257 -1.376193
H -0.612723 8.234270 -0.645815
C 0.472730 10.316022 -2.187851
H 0.689298 10.462810 -1.121365
H 1.311624 9.748502 -2.609023
C 0.359698 11.676770 -2.876446
H -0.487882 12.228878 -2.452433
H 0.135728 11.527714 -3.939969
C 1.637212 12.500317 -2.729565
H 1.540411 13.467650 -3.227154
H 1.864098 12.686849 -1.675503
H 2.492404 11.979882 -3.171264
