12
4-aminopyrimidine | PubChem CID 68958 3D conformer | GENERATED structure, NOT the geometry used in the referenced paper
N       0.321500     1.199400     0.000200
N       2.360400    -0.031200    -0.000500
N      -1.784900     0.028900    -0.000300
C       0.944200     0.002500     0.000400
C       0.280200    -1.207200     0.000400
C      -1.097500    -1.132100    -0.000200
C      -1.023800     1.139800     0.000000
H       0.793500    -2.160700     0.000300
H      -1.705400    -2.030700    -0.000500
H      -1.549800     2.086600     0.000000
H       2.759300    -0.444900     0.837800
H       2.758400    -0.443200    -0.840100
