52
W2800166850-b | verbatim official RSC ESI section 6.4 S0-Min QM2 G-T(loop)+Na2S2O8+3H2O CASSCF/AMBER Cartesian coordinates
N  -0.482580037  -6.486360496  2.622680203
C  -1.354710104  -5.362660386  2.722970209
H  -1.713280131  -5.132390393  3.721650288
C  -1.704070129  -4.591730353  1.669330130
C  -2.560700196  -3.339640259  1.757590137
H  -2.013790154  -2.477340190  1.378670107
H  -3.472990269  -3.430740266  1.175460090
H  -2.852010219  -3.162520242  2.788170212
C  -1.149460087  -4.965870384  0.332810026
O  -1.549300120  -4.487220344  -0.754000055
N  -0.091080007  -5.873690454  0.353850027
H  0.210590016  -6.200480477  -0.573460045
C  0.113590009  -6.855590534  1.389850108
O  0.741020057  -7.872230625  1.141990089
N  -6.016780458  -7.758920599  -1.212140095
C  -7.265590558  -8.210210630  -1.640560128
H  -7.881640614  -8.856360658  -1.025620080
N  -7.594790561  -7.794120623  -2.845050220
C  -6.468530503  -7.038750528  -3.255790251
C  -6.269230498  -6.242130484  -4.470920346
O  -6.983830555  -5.989570482  -5.436020440
N  -4.955970382  -5.641400428  -4.440560341
H  -4.814110371  -4.983100384  -5.172590396
C  -4.150050318  -5.553300406  -3.340250258
N  -3.043870236  -4.656690358  -3.338220254
H  -3.006170230  -4.010770311  -4.143690317
H  -2.170780169  -5.194280398  -3.235960249
N  -4.324010332  -6.246570493  -2.245210171
C  -5.513050444  -7.008120532  -2.267370172
O  -7.336030559  -5.313350433  1.644670126
S  -6.063540465  -4.651840358  1.685480127
O  -5.012830388  -5.332820399  2.387560185
O  -5.651250427  -4.155480317  0.384340029
O  -6.274370502  -3.222260247  2.507710191
O  -7.080250566  -3.411210265  3.881940299
S  -8.285840643  -2.295610176  3.686410285
O  -9.018460667  -2.758930211  2.534880194
O  -9.023500710  -2.401180186  4.915940378
O  -7.596790586  -1.052820082  3.492630270
Na  -7.190740553  0.892000068  2.473210189
Na  -3.614200276  -4.591530355  -0.992620079
H  -5.504730402  -7.865620619  -0.327730025
H  -0.378030029  -7.175720545  3.372600260
O  -7.957990625  -4.983460384  -1.152010087
H  -8.188290627  -5.890520460  -0.957860071
H  -7.181350567  -4.776620370  -0.639890051
O  -8.227800641  -4.400910338  -3.689230286
H  -7.889700618  -4.660110356  -2.821670217
H  -8.745630689  -3.619670281  -3.468230267
O  -6.003370472  -3.405390262  -4.830640371
H  -6.737470499  -4.011130310  -4.742850363
H  -6.371760495  -2.536080193  -4.933160377
