53
W2800166850-a | verbatim official RSC ESI section 6.1 S0-Min QM1 G-G(G-quartet)+Na2S2O8+3H2O CASSCF/AMBER Cartesian coordinates
N  2.745695525  -5.474150836  3.138661714
C  3.065746375  -5.262087483  1.791208641
H  3.812274512  -5.872104986  1.291133670
N  2.449947198  -4.246865587  1.241998070
C  1.609981356  -3.769542618  2.290061689
C  0.626589800  -2.663078658  2.238437930
O  0.355340290  -1.944331492  1.282274427
N  -0.032491695  -2.532599757  3.495420172
H  -0.746033302  -1.787938310  3.582976728
C  0.219569886  -3.354951537  4.588853274
N  -0.454718306  -3.021438576  5.768932039
H  -1.438457203  -2.768182256  5.693484169
H  -0.307100550  -3.728975498  6.455054952
N  1.043984838  -4.370286269  4.648776650
C  1.750933543  -4.518009554  3.429026874
N  -5.342699291  -1.272491755  6.597657213
C  -4.369268481  -2.265971276  6.730891715
H  -4.445303743  -3.064642125  7.463257576
N  -3.379353620  -2.137319275  5.863655931
C  -3.686341508  -0.943672104  5.160480302
C  -2.941306720  -0.264165897  4.065526614
O  -1.943513161  -0.615498171  3.454178574
N  -3.537522313  1.019505088  3.772704261
H  -3.282567307  1.403394977  2.857484991
C  -4.776305768  1.435180918  4.292702656
N  -5.380466460  2.639204091  3.772251074
H  -5.752142991  3.206685041  4.550301696
H  -4.742123590  3.204079680  3.192360727
N  -5.504623243  0.783254614  5.190381388
C  -4.849152478  -0.414880752  5.621142464
O  -7.495542785  -4.937280493  0.384347574
S  -6.239426865  -4.398594431  0.801569592
O  -5.496544665  -5.221675513  1.728873667
O  -5.408246784  -3.852868233  -0.244337027
O  -6.584117473  -3.001266435  1.660314431
O  -7.438587967  -3.348572226  2.955851618
S  -8.366295482  -2.001252866  3.292569726
O  -9.209414278  -1.858436562  2.122987213
O  -9.062416670  -2.391649280  4.477227540
O  -7.418390277  -0.936755562  3.465869798
Na  -7.053637290  1.212985133  3.285571791
Na  -3.321446209  -4.148434602  -1.258246256
H  2.797429110  -6.372932146  3.659606933
H  -6.005112418  -0.952636356  7.336456070
O  -4.708284769  -4.593934857  4.290910946
H  -4.887419481  -4.663454264  3.359153390
H  -5.366156608  -3.998454673  4.622529336
O  -3.185491572  -5.088358184  6.460453195
H  -3.387721240  -4.387355622  5.847220638
H  -3.525956123  -5.886215709  6.078523960
O  -1.093458466  -4.467050012  8.139396713
H  -1.781148008  -4.777685672  7.554038038
H  -1.286862812  -4.890990009  8.975293827
