22
W2808403817-a | BP86-D3/def2-TZVP source geometry; SI block is misheaded dye 4 but its C11H9NO composition/connectivity matches depicted dye 7
C  -1.7994634  -1.1400172  -0.3158570
C  -3.1779309  -1.1570619  -0.2988729
C  -3.9081511  -0.0001570   0.0002613
C  -3.1780948   1.1570820   0.2989601
C  -1.7996059   1.1402655   0.3155036
C   0.3242714   0.0001409   0.0000604
C   1.0464426  -1.1896304   0.2902131
C   2.4171230  -1.1935080   0.2995505
C   3.2060398  -0.0000583   0.0000160
C   2.4172910   1.1935289  -0.2993223
C   1.0465808   1.1898768  -0.2899487
H  -1.2105491  -1.9976156  -0.6238915
H  -3.6793208  -2.0885498  -0.5599194
H  -4.9960041  -0.0003393   0.0005291
H  -3.6795734   2.0884763   0.5599169
H  -1.2108005   1.9981066   0.6231044
H   0.5082227  -2.0943359   0.5810507
H   2.9708534  -2.0931916   0.5708004
H   2.9710328   2.0932432  -0.5704364
H   0.5085807   2.0947475  -0.5805457
O   4.4557600  -0.0001738  -0.0000717
N  -1.0797041   0.0001709  -0.0001009
