42
hexacene | PubChem CID 123044 3D conformer | GENERATED structure, NOT the geometry used in the referenced paper
C       0.000000     0.704100     0.000100
C       0.000100    -0.704100     0.000200
C       2.451800     0.704300    -0.000300
C       2.451800    -0.704300    -0.000600
C      -2.451900     0.704300     0.000200
C      -2.451800    -0.704400     0.000700
C      -1.225900     1.391000     0.000100
C      -1.225900    -1.391000     0.000800
C       1.225800     1.391000    -0.000200
C       1.225800    -1.391000    -0.000400
C       3.677300     1.392400     0.000000
C       3.677200    -1.392300    -0.001000
C      -3.677200     1.392300    -0.000400
C      -3.677200    -1.392400     0.000900
C       4.902800     0.705800     0.000000
C       4.902800    -0.705800    -0.000700
C      -4.902800     0.705800    -0.000300
C      -4.902800    -0.705900     0.000400
C       6.128100     1.392900     0.001100
C       6.128100    -1.392900    -0.001200
C      -6.128100     1.392900    -0.001000
C      -6.128100    -1.392900     0.000600
C       7.336300     0.695600     0.001500
C       7.336400    -0.695700    -0.000200
C      -7.336400     0.695700    -0.000700
C      -7.336400    -0.695500     0.000000
H      -1.225700     2.481200    -0.000200
H      -1.225700    -2.481200     0.001100
H       1.225600     2.481100    -0.000100
H       1.225700    -2.481200    -0.000400
H       3.677000     2.482500     0.000500
H       3.676900    -2.482400    -0.001400
H      -3.676900     2.482500    -0.000800
H      -3.676900    -2.482500     0.001500
H       6.151800     2.480800     0.001900
H       6.151600    -2.480700    -0.002000
H      -6.151600     2.480800    -0.001500
H      -6.151700    -2.480800     0.001300
H       8.276500     1.239300     0.002600
H       8.276500    -1.239300    -0.000300
H      -8.276600     1.239400    -0.001100
H      -8.276600    -1.239200     0.000200
