48
heptacene | PubChem CID 5460712 3D conformer | GENERATED structure, NOT the geometry used in the referenced paper
C       1.225900     0.704200    -0.001300
C       1.225900    -0.704000    -0.001000
C      -1.225900     0.704200    -0.000900
C      -1.225900    -0.704000    -0.000600
C       3.677700     0.704300    -0.001000
C       3.677700    -0.704300    -0.000900
C      -3.677800     0.704200    -0.000400
C      -3.677700    -0.704500     0.000000
C       0.000100     1.391000    -0.001200
C       0.000000    -1.390900    -0.000800
C       2.451700     1.391100    -0.001500
C       2.451700    -1.391000    -0.000900
C      -2.451800     1.391000    -0.000400
C      -2.451600    -1.391100    -0.000200
C       4.903100     1.392400     0.000000
C       4.903000    -1.392400    -0.000900
C      -4.903100     1.392300    -0.000300
C      -4.903000    -1.392400     0.000500
C       6.128700     0.705900     0.000800
C       6.128600    -0.705900    -0.000100
C      -6.128700     0.705800     0.000100
C      -6.128700    -0.705800     0.000600
C       7.354000     1.392800     0.002200
C       7.354000    -1.393000     0.000100
C      -7.354000     1.393000     0.000300
C      -7.354000    -1.392900     0.001500
C       8.562300     0.695600     0.002600
C       8.562200    -0.695600     0.001300
C      -8.562200     0.695600     0.000900
C      -8.562300    -0.695600     0.001500
H       0.000000     2.481200    -0.001200
H       0.000000    -2.481000    -0.000600
H       2.451700     2.481300    -0.001400
H       2.451500    -2.481200    -0.000700
H      -2.451700     2.481200    -0.000400
H      -2.451300    -2.481200     0.000000
H       4.902800     2.482600     0.000400
H       4.902800    -2.482500    -0.001200
H      -4.902700     2.482300    -0.000500
H      -4.902800    -2.482600     0.000900
H       7.377600     2.480700     0.003000
H       7.377600    -2.480800    -0.000700
H      -7.377600     2.480800     0.000000
H      -7.377600    -2.480800     0.002000
H       9.502400     1.239200     0.003700
H       9.502400    -1.239300     0.001500
H      -9.502400     1.239300     0.000900
H      -9.502500    -1.239200     0.002000
