30
tetracene | PubChem CID 7080 3D conformer | GENERATED structure, NOT the geometry used in the referenced paper
C       0.000000    -0.704600    -0.000100
C       0.000000     0.704500    -0.000200
C      -2.451100    -0.705800     0.000200
C      -2.451000     0.705800     0.000000
C       2.451100    -0.705800    -0.000100
C       2.451100     0.705700     0.000100
C       1.225400    -1.392400    -0.000300
C       1.225400     1.392300    -0.000100
C      -1.225500    -1.392300     0.000200
C      -1.225400     1.392300    -0.000200
C      -3.676400    -1.392900     0.000200
C      -3.676400     1.392800    -0.000100
C       3.676500    -1.392900    -0.000100
C       3.676400     1.392900     0.000300
C      -4.884700    -0.695500     0.000100
C      -4.884600     0.695700    -0.000100
C       4.884700    -0.695600    -0.000100
C       4.884600     0.695700     0.000400
H       1.225400    -2.482500    -0.000300
H       1.225300     2.482500    -0.000100
H      -1.225500    -2.482400     0.000300
H      -1.225400     2.482400    -0.000300
H      -3.700100    -2.480800     0.000300
H      -3.699900     2.480700    -0.000200
H       3.700100    -2.480700    -0.000300
H       3.699900     2.480700     0.000400
H      -5.824900    -1.239200     0.000200
H      -5.824800     1.239300    -0.000200
H       5.824900    -1.239200    -0.000200
H       5.824800     1.239400     0.000500
