18
5-diazo Meldrum's acid (DMA), S0 minimum; verbatim 3SA-CASSCF(12,11)/6-31G* Cartesian coordinates from official SI Table S2.1, DOI 10.1039/c8cp04164d
C   0.3927155331  -1.2849152413  -0.1947791176
C   1.0627727564   0.0000834295  -0.0491897620
C   0.3925131660   1.2850053964  -0.1944752009
C  -1.6060386279  -0.0001218473   0.0661102113
C  -2.9406011842  -0.0001956850  -0.6446028543
C  -1.7413695768  -0.0001773626   1.5822405441
O   0.9352045260   2.3452772058  -0.2010590641
O   0.9356210958  -2.3450757633  -0.2018168906
N   2.3913859313   0.0001618753   0.1118063328
N   3.5077916342   0.0002179324   0.2567565677
O  -0.9318093241   1.1663652008  -0.3651057421
O  -0.9316482835  -1.1664991066  -0.3651773031
H  -0.7736332185  -0.0001275627   2.0704785234
H  -2.2823260073   0.8825393289   1.8989181103
H  -2.2822089945  -0.8829828610   1.8988690223
H  -2.7781081308  -0.0001333965  -1.7141290671
H  -3.5027359849  -0.8837582195  -0.3710027746
H  -3.5028813100   0.8832486766  -0.3709195353
