36
pentacene | PubChem CID 8671 3D conformer | GENERATED structure, NOT the geometry used in the referenced paper
C       1.225900    -0.704300    -0.001500
C       1.225900     0.704300    -0.001300
C      -1.225900    -0.704300    -0.001700
C      -1.225900     0.704300    -0.001800
C       0.000000    -1.391000    -0.001900
C       0.000000     1.391100    -0.001700
C       3.677000    -0.705900    -0.000200
C       3.676900     0.705800     0.000500
C      -3.676900    -0.705900     0.000000
C      -3.676900     0.705800    -0.000700
C       2.451300    -1.392400    -0.001300
C       2.451300     1.392300    -0.000200
C      -2.451300    -1.392300    -0.000900
C      -2.451300     1.392300    -0.001800
C       4.902400    -1.392900     0.000500
C       4.902300     1.392900     0.001700
C      -4.902400    -1.392800     0.001800
C      -4.902300     1.392900     0.000300
C       6.110600    -0.695600     0.001900
C       6.110600     0.695600     0.002500
C      -6.110700    -0.695600     0.003200
C      -6.110600     0.695600     0.002400
H       0.000000    -2.481200    -0.001800
H       0.000000     2.481300    -0.001500
H       2.451100    -2.482500    -0.001600
H       2.451000     2.482400     0.000200
H      -2.451100    -2.482400    -0.000500
H      -2.451100     2.482300    -0.002000
H       4.926000    -2.480700     0.000100
H       4.925800     2.480800     0.002100
H      -4.925900    -2.480700     0.002500
H      -4.925900     2.480700    -0.000100
H       7.050800    -1.239300     0.002500
H       7.050700     1.239400     0.003600
H      -7.050900    -1.239200     0.004800
H      -7.050800     1.239300     0.003300
