17
VERBATIM CASSCF(10,10)/6-311+G(d,p) gas-phase optimized 12-pl geometry from ACS Supporting Information, p. S32 (angstrom)
C -1.71598 -1.29568 0.00082
C -0.32557 -1.14947 0.00090
C 0.25919 0.11983 0.00010
C -0.58429 1.24634 -0.00085
C -1.96549 1.09990 -0.00088
C -2.53969 -0.17537 -0.00005
H -2.14452 -2.28196 0.00143
H 0.28966 -2.02965 0.00159
H -0.15986 2.23473 -0.00168
H -2.59239 1.97354 -0.00163
H -3.60897 -0.28761 -0.00012
C 1.73462 0.28124 0.00033
C 2.36169 1.44550 0.00252
C 2.68318 -0.90606 -0.00171
H 2.52743 -1.51684 0.88087
H 2.52663 -1.51437 -0.88585
H 3.71613 -0.57520 -0.00167
