100
W2883168112-a | experimental 296 K X-ray molecular unit from CCDC 1843780; asymmetric unit completed by published inversion -x,-y,-z
C   0.16026162  0.75517649  5.29433269
C  -0.24275114 -0.02791780  6.41934765
C  -0.33542461  0.52345875  7.67100363
H  -0.64359099  0.00697945  8.38043930
C   0.02481159  1.84257480  7.89231805
H  -0.01842342  2.19713086  8.75052618
C   0.44373239  2.62427320  6.85091076
H   0.72131468  3.49670445  7.00951943
C   0.45447433  2.10779390  5.53777855
C   0.67960924  3.03885253  4.48038744
H   0.92397471  3.90290844  4.71891520
C   0.63592533  3.70050439  1.09796542
C   0.76229253  4.89957390  0.23115061
H   1.45661998  4.75579723 -0.41557930
H   0.98206721  5.66312573  0.77091189
H  -0.06932747  5.05730947 -0.22131442
C  -0.95405102 -2.18735963  7.18534144
H  -1.77699666 -1.85932548  7.58001882
H  -0.27391989 -2.22504866  7.87510471
C  -1.16793878 -3.53439348  6.59516966
H  -1.83318088 -3.47995377  5.90540639
H  -1.46264245 -4.14020974  7.27878530
H  -0.34331988 -3.85265640  6.21893515
C  -0.75537352 -2.53074857  2.91520270
H  -0.56685143 -2.19992264  3.79554227
H  -0.41581253 -3.42551406  2.83036550
H  -1.70460135 -2.53354035  2.77134832
C   4.70525169  0.31547114  2.95577701
H   5.18347463  1.07623119  2.61765776
H   5.08903126 -0.48856150  2.59921489
H   4.76405146  0.30151224  3.91357663
C   3.26754982  0.40620399  2.54388628
C  -3.64216095  0.45924781  0.62951657
H  -4.16742673  0.73982170  1.38075606
H  -3.84586011 -0.45506014  0.41926787
H  -3.84319771  1.01341614 -0.12787055
C  -2.19529378  0.57929435  0.96148819
Dy  0.52388103  0.58013188  1.97941156
H   0.76162433  4.62737535  2.68036351
H  -0.26216091 -1.98216380  1.22829502
N   0.57239987  2.78200877  3.22381336
N   0.72496728  3.87778242  2.38404809
O   0.21555997  0.22753007  4.12136627
O   0.45667504  2.55880596  0.61353275
O  -0.53511177 -1.32749139  6.12057318
O  -0.13729508 -1.70019402  1.95740308
O   2.78914229  1.46428861  2.12338889
O   2.55063544 -0.63512995  2.63364157
O  -1.85993356  1.00922847  2.07420791
O   1.32424658 -0.24009308 -0.11065721
C  -0.16026162 -0.75517649 -5.29433269
C   0.24275114  0.02791780 -6.41934765
C   0.33542461 -0.52345875 -7.67100363
H   0.64359099 -0.00697945 -8.38043930
C  -0.02481159 -1.84257480 -7.89231805
H   0.01842342 -2.19713086 -8.75052618
C  -0.44373239 -2.62427320 -6.85091076
H  -0.72131468 -3.49670445 -7.00951943
C  -0.45447433 -2.10779390 -5.53777855
C  -0.67960924 -3.03885253 -4.48038744
H  -0.92397471 -3.90290844 -4.71891520
C  -0.63592533 -3.70050439 -1.09796542
C  -0.76229253 -4.89957390 -0.23115061
H  -1.45661998 -4.75579723  0.41557930
H  -0.98206721 -5.66312573 -0.77091189
H   0.06932747 -5.05730947  0.22131442
C   0.95405102  2.18735963 -7.18534144
H   1.77699666  1.85932548 -7.58001882
H   0.27391989  2.22504866 -7.87510471
C   1.16793878  3.53439348 -6.59516966
H   1.83318088  3.47995377 -5.90540639
H   1.46264245  4.14020974 -7.27878530
H   0.34331988  3.85265640 -6.21893515
C   0.75537352  2.53074857 -2.91520270
H   0.56685143  2.19992264 -3.79554227
H   0.41581253  3.42551406 -2.83036550
H   1.70460135  2.53354035 -2.77134832
C  -4.70525169 -0.31547114 -2.95577701
H  -5.18347463 -1.07623119 -2.61765776
H  -5.08903126  0.48856150 -2.59921489
H  -4.76405146 -0.30151224 -3.91357663
C  -3.26754982 -0.40620399 -2.54388628
C   3.64216095 -0.45924781 -0.62951657
H   4.16742673 -0.73982170 -1.38075606
H   3.84586011  0.45506014 -0.41926787
H   3.84319771 -1.01341614  0.12787055
C   2.19529378 -0.57929435 -0.96148819
Dy -0.52388103 -0.58013188 -1.97941156
H  -0.76162433 -4.62737535 -2.68036351
H   0.26216091  1.98216380 -1.22829502
N  -0.57239987 -2.78200877 -3.22381336
N  -0.72496728 -3.87778242 -2.38404809
O  -0.21555997 -0.22753007 -4.12136627
O  -0.45667504 -2.55880596 -0.61353275
O   0.53511177  1.32749139 -6.12057318
O   0.13729508  1.70019402 -1.95740308
O  -2.78914229 -1.46428861 -2.12338889
O  -2.55063544  0.63512995 -2.63364157
O   1.85993356 -1.00922847 -2.07420791
O  -1.32424658  0.24009308  0.11065721
