18
naphthalene | PubChem CID 931 3D conformer | GENERATED structure, NOT the geometry used in the referenced paper
C       0.000000     0.707600     0.000100
C       0.000000    -0.707600     0.000000
C       1.225000     1.394400     0.000000
C       1.225000    -1.394400     0.000100
C      -1.225000     1.394300     0.000000
C      -1.225000    -1.394300     0.000000
C       2.432700     0.695900    -0.000100
C       2.432700    -0.695800     0.000000
C      -2.432700     0.695800     0.000000
C      -2.432700    -0.695800    -0.000100
H       1.248900     2.482100    -0.000100
H       1.248900    -2.482200     0.000100
H      -1.249000     2.482100     0.000100
H      -1.248900    -2.482200    -0.000100
H       3.373200     1.239100    -0.000100
H       3.373300    -1.239000    -0.000100
H      -3.373200     1.239000     0.000000
H      -3.373300    -1.239000    -0.000100
