24
anthracene | PubChem CID 8418 3D conformer | GENERATED structure, NOT the geometry used in the referenced paper
C      -1.225100    -0.706100     0.000100
C      -1.225000     0.706000     0.000100
C       1.225100    -0.706100     0.000100
C       1.225100     0.706100     0.000200
C       0.000000    -1.393800     0.000000
C       0.000000     1.393700     0.000100
C      -2.450500    -1.393000     0.000000
C      -2.450400     1.393000    -0.000100
C       2.450500    -1.392900     0.000000
C       2.450500     1.392900     0.000000
C      -3.658800    -0.695500    -0.000100
C      -3.658700     0.695600    -0.000100
C       3.658700    -0.695600    -0.000200
C       3.658700     0.695600    -0.000200
H       0.000000    -2.483900    -0.000100
H       0.000000     2.483800     0.000000
H      -2.474400    -2.480900     0.000000
H      -2.474200     2.480800    -0.000100
H       2.474300    -2.480800     0.000000
H       2.474200     2.480800     0.000000
H      -4.599100    -1.239100    -0.000200
H      -4.598900     1.239400    -0.000300
H       4.598900    -1.239300    -0.000400
H       4.598900     1.239300    -0.000300
