12
W2898095970-a | triplet 2,4,6-tribromophenyl nitrene 1a | exact UB3LYP/def2-TZVP coordinates from official ACS SI, DOI 10.1021/acs.jpca.8b09014
C   0.000000001  -0.000000010   1.338246727
C  -1.220372667  -0.000000004   0.577333155
C  -1.220814114   0.000000000  -0.798737170
C  -0.000000002   0.000000000  -1.479146946
C   1.220814118   0.000000000  -0.798737169
C   1.220372673  -0.000000001   0.577333158
Br -2.871833288   0.000000014   1.517592537
H  -2.153971496   0.000000004  -1.341833847
N  -0.000000001  -0.000000014   2.654420583
Br -0.000000025  -0.000000005  -3.382998969
H   2.153971503   0.000000002  -1.341833842
Br  2.871833299   0.000000015   1.517592565
