98
CCDC 1813488; official RSC CIF data_1; complete C34H40Cl2Dy2N4O16 dimer including 2 lattice MeOH; symmetry mate -x,-y,z translated by +a,+b
Dy  4.59322258  10.13761225  5.06003072
Cl  0.14640828  16.43481274  4.60289252
O   6.82502920  10.13016854  4.54204800
O   2.83497440  11.30881711  5.62456944
O   5.63193660  11.44788747  6.91999938
O   4.71473900  9.56244918  7.42340970
O   5.43574460  10.86600690  8.99420130
O   9.23083360  9.92464941  5.55927750
O   3.49834860  9.68227482  3.04317216
H   3.83800600  9.22294320  2.40350040
N   4.85575200  12.23310852  3.82478292
N   5.27020760  10.63906440  7.81326882
C   10.43128340  9.87472206  6.33331818
H   10.45429917  9.04821563  6.84052300
H   10.45513299  10.62897000  6.94199046
H   11.19914210  9.91199510  5.74136631
C   8.96597440  11.10021156  4.85242128
C   9.88071960  12.10783626  4.62531888
H   10.74705442  12.05206287  4.98727279
C   9.51408580  13.20986904  3.85695576
H   10.12500316  13.90772631  3.71006782
C   8.24006400  13.26978186  3.31001748
H   7.99573139  14.00950548  2.78282765
C   7.31428300  12.24400176  3.53333484
C   7.68336920  11.15649330  4.32062316
C   5.97404640  12.25126392  2.86149024
H   5.90058476  13.05119084  2.30067979
H   5.90417752  11.46744084  2.27635144
C   4.05259100  13.24436430  3.77368488
H   4.27704691  13.92555491  3.16526809
C   2.84233160  13.44770478  4.55056434
C   2.17895740  14.67137874  4.31589186
H   2.55158732  15.30683590  3.73212514
C   0.98096000  14.92918542  4.94988606
C   0.41690800  14.00507556  5.80246632
H  -0.39602581  14.19536231  6.23363915
C   1.04962720  12.79955700  6.02199864
H   0.64911349  12.17107152  6.59416421
C   2.27950580  12.48546858  5.41260720
C   2.18508840  10.06535376  2.67507702
H   1.62957075  10.12094559  3.46844979
H   1.81469017  9.40823721  2.06600731
H   2.21145170  10.93200178  2.23855782
O   7.84400140  9.68227482  10.45049544
H   7.70053600  9.15032160  9.79379100
C   8.55519740  10.78249206  9.88841700
H   7.93688605  11.35582144  9.40772638
H   9.23175325  10.45288077  9.27705734
H   8.97981820  11.28980840  10.59810254
Dy  7.66877742  8.01778775  5.06003072
Cl  12.11559172  1.72058726  4.60289252
O   5.43697080  8.02523146  4.54204800
O   9.42702560  6.84658289  5.62456944
O   6.63006340  6.70751253  6.91999938
O   7.54726100  8.59295082  7.42340970
O   6.82625540  7.28939310  8.99420130
O   3.03116640  8.23075059  5.55927750
O   8.76365140  8.47312518  3.04317216
H   8.42399400  8.93245680  2.40350040
N   7.40624800  5.92229148  3.82478292
N   6.99179240  7.51633560  7.81326882
C   1.83071660  8.28067794  6.33331818
H   1.80770083  9.10718437  6.84052300
H   1.80686701  7.52643000  6.94199046
H   1.06285790  8.24340490  5.74136631
C   3.29602560  7.05518844  4.85242128
C   2.38128040  6.04756374  4.62531888
H   1.51494558  6.10333713  4.98727279
C   2.74791420  4.94553096  3.85695576
H   2.13699684  4.24767369  3.71006782
C   4.02193600  4.88561814  3.31001748
H   4.26626861  4.14589452  2.78282765
C   4.94771700  5.91139824  3.53333484
C   4.57863080  6.99890670  4.32062316
C   6.28795360  5.90413608  2.86149024
H   6.36141524  5.10420916  2.30067979
H   6.35782248  6.68795916  2.27635144
C   8.20940900  4.91103570  3.77368488
H   7.98495309  4.22984509  3.16526809
C   9.41966840  4.70769522  4.55056434
C   10.08304260  3.48402126  4.31589186
H   9.71041268  2.84856410  3.73212514
C   11.28104000  3.22621458  4.94988606
C   11.84509200  4.15032444  5.80246632
H   12.65802581  3.96003769  6.23363915
C   11.21237280  5.35584300  6.02199864
H   11.61288651  5.98432848  6.59416421
C   9.98249420  5.66993142  5.41260720
C   10.07691160  8.09004624  2.67507702
H   10.63242925  8.03445441  3.46844979
H   10.44730983  8.74716279  2.06600731
H   10.05054830  7.22339822  2.23855782
O   4.41799860  8.47312518  10.45049544
H   4.56146400  9.00507840  9.79379100
C   3.70680260  7.37290794  9.88841700
H   4.32511395  6.79957856  9.40772638
H   3.03024675  7.70251923  9.27705734
H   3.28218180  6.86559160  10.59810254
