16
W2898095970-b | triplet 3,5-diazido-2,4,6-tribromophenyl nitrene 1d-prime, most stable C2 conformer | exact UB3LYP/def2-TZVP coordinates from official ACS SI, DOI 10.1021/acs.jpca.8b09014
C   0.859295000   0.436618000  -1.534079000
C  -0.406159000  -0.069261000  -1.977786000
N  -0.716659000  -0.099843000  -3.258206000
C   1.173231000   0.516373000  -0.183428000
C  -0.983180000  -0.560751000   0.362033000
C  -1.324724000  -0.540162000  -0.983370000
C   0.256014000  -0.008215000   0.756856000
Br -3.037377000  -1.100246000  -1.586484000
Br  2.100606000   0.938920000  -2.881494000
Br  0.704186000   0.024481000   2.594506000
N   2.396327000   0.981249000   0.332539000
N   2.912169000   2.021813000  -0.082953000
N   3.516157000   2.945909000  -0.307213000
N  -1.842267000  -0.984076000   1.395146000
N  -2.425080000  -2.068569000   1.326668000
N  -3.010536000  -3.024314000   1.438724000
