14
W2897859045-b | Cu(I)-phenylacetylide 10 | exact SA-CASSCF(14,13) S0-MIN coordinates from official ACS SI, DOI 10.1021/jacs.8b10387
Cu  2.900209127  -0.302011055   1.462606323
C  -2.659906304   2.310692834  -1.285107404
C  -1.607222893   1.557230365  -0.807794447
C  -0.547032123   2.174373959  -0.098885643
C  -0.589131031   3.537177184   0.102878862
C  -1.662759384   4.301543181  -0.384765011
C  -2.687834940   3.702567358  -1.070470688
C   0.553493081   1.379144297   0.398859424
C   1.491229589   0.703437630   0.823263796
H  -3.465751760   1.831609467  -1.825527040
H  -1.579148558   0.488708504  -0.968834853
H   0.214012609   4.019627880   0.642344836
H  -1.673132496   5.370183466  -0.213651568
H  -3.514421128   4.291503588  -1.445664587
