86
CCDC 1813547; official RSC CIF data_2 asymmetric unit; complete C32H34Dy2N4O14 dimer
Dy  12.09462556  7.05388908  5.91716259
Dy  12.24374458  10.78070203  5.00467885
O   12.06992200  12.90993760  4.73348012
O   12.57708765  6.61524710  3.57119985
O   14.49795556  5.94947570  2.80728177
O   9.98955792  11.09619000  5.94887535
O   12.72806805  10.12767070  2.68074320
O   14.16016679  6.10838410  4.95531318
O   11.33466055  10.20849480  0.99512437
O   11.92502051  5.17548220  6.97680601
O   10.93010686  8.84818410  5.02092578
O   12.56962390  11.27838670  7.30955561
H   11.95177255  11.02769500  7.87351149
O   10.72904797  10.90577390  2.97599988
O   13.61285319  7.52212090  7.79540125
O   10.61786967  7.76459320  7.69542016
H   10.55628666  8.61530110  7.88913353
O   13.46562478  8.91941890  5.59425489
N   13.77860312  6.22071590  3.74772898
N   11.58426669  10.41260990  2.21208180
N   14.52460155  11.60168310  4.67099193
N   10.04622049  5.96180480  5.08028955
C   14.17961002  14.01681680  4.59756831
C   9.18526011  2.78089700  6.69873358
H   8.38039065  2.64850986  6.21296604
C   7.67329360  10.34000520  5.65361867
H   7.31842759  11.13999940  6.02459541
C   9.95585208  3.93161300  6.44409422
C   11.50011402  3.17405830  8.16251935
H   12.28171669  3.30159599  8.68721703
C   7.34979729  8.15912440  4.66318091
H   6.76826496  7.47269491  4.35869160
C   10.71699367  2.05074030  8.36404375
H   10.97884062  1.41168195  9.01712341
C   9.03742131  10.14958910  5.55676198
C   14.96772744  12.81678440  4.57257304
H   15.90705727  12.92258178  4.47337304
C   9.56457482  1.83977570  7.63293197
H   9.04058624  1.05922038  7.77142141
C   8.73456868  7.99336650  4.57882186
C   9.59283725  8.98654400  5.04748326
C   15.55943673  10.54412030  4.58507068
H   16.43193842  10.94980249  4.35017758
H   15.31822586  9.89859602  3.87443940
C   14.86530165  15.24150740  4.51789588
H   15.81339643  15.23954844  4.46909260
C   12.11105526  15.25383650  4.68661398
H   11.16519592  15.27831661  4.76578651
C   6.82771489  9.33038890  5.19276829
H   5.88653559  9.44543310  5.24275884
C   9.48666723  4.85492560  5.43491001
H   8.68155740  4.62322071  4.98780704
C   9.53003778  12.30581170  6.56907060
H   10.30011207  12.85088121  6.83194277
H   8.99935766  12.08417558  7.36226439
H   8.97575036  12.80696222  5.93464366
C   12.76855197  14.02503620  4.67411634
C   9.32887412  6.71935950  4.02736361
H   8.60585747  6.15522098  3.65240325
H   9.95611088  6.93895447  3.29401788
C   15.67263763  9.82629270  5.90825802
C   11.15289041  4.13572810  7.18614144
C   16.78097381  9.96739240  6.74091311
H   17.50688890  10.51758534  6.46924572
C   14.18806819  16.44701940  4.51008485
H   14.66587523  17.26693195  4.45476719
C   12.81816332  16.44290970  4.58350847
H   12.34677258  17.26660317  4.56351225
C   14.70716181  8.33721140  7.54857292
C   13.48387105  6.99744920  9.14045947
H   12.70327219  6.40717299  9.18735685
H   13.37198004  7.73845551  9.77184010
H   14.29066567  6.49044921  9.37236875
C   14.60784603  9.02353130  6.32536667
C   16.83639567  9.32079960  7.94693511
H   17.58908907  9.45139217  8.51100034
C   15.81463824  8.47831110  8.35935714
H   15.87630214  8.00781895  9.18329512
C   9.65086005  7.02621710  8.49995556
H   8.74742757  7.35470542  8.30711701
H   9.84982286  7.15586444  9.45002594
H   9.70508493  6.07280780  8.28076262
C   13.52844982  12.15649260  7.99536345
H   14.33295994  11.64658842  8.22382026
H   13.12035318  12.50759797  8.81483353
H   13.76883863  12.90095106  7.40563119
