16
W2897859045-a | phenylacetylene-CuCl complex 9 | exact SA-CASSCF(14,11) S0-MIN coordinates from official ACS SI, DOI 10.1021/jacs.8b10387
C   3.146955276  -0.685346001   1.172137126
C   1.882940221  -0.123275719   1.195171212
C   1.305526640   0.369320835   0.017126319
C   2.016607351   0.273414322  -1.184997113
C   3.288230885  -0.299474296  -1.201279521
C   3.854463443  -0.779002940  -0.021030081
H   3.583287747  -1.054472475   2.090757742
H   1.337854168  -0.053987668   2.126955884
H   1.576362525   0.646345553  -2.099421087
H   3.832708855  -0.369684210  -2.133025795
H   4.840220416  -1.223843083  -0.033066413
C  -0.031631729   0.965264663   0.040048007
C  -0.833061428   1.965824888  -0.029366390
H  -0.897982358   3.037404944  -0.102834443
Cu -1.911652235   0.378748064   0.120893114
Cl -3.547967393  -1.033471589   0.229626476
