52
Source-verbatim R-S0 CASSCF(8,8)/6-31G* optimized Cartesian geometry from official RSC ESI c9cp00569b1.pdf, p. 9
C  -1.880730  -1.362609   0.926061
C  -0.373216  -0.585440   2.521524
C  -1.028987  -1.242903   3.532424
C  -2.160843  -1.985092   3.209649
C  -2.590459  -2.051038   1.901667
C  -2.118622  -1.305258  -0.518038
C  -1.136025  -0.546872  -1.150919
C  -1.235305  -0.391788  -2.531795
C  -2.261599  -0.996871  -3.232562
C  -3.227951  -1.760107  -2.577897
C  -3.162228  -1.914365  -1.210296
H   0.509899  -0.005618   2.697108
H  -2.696549  -2.512397   3.978015
H  -3.454471  -2.626608   1.632779
H  -0.510057   0.197953  -3.063860
H  -2.321008  -0.876001  -4.300236
H  -4.021971  -2.220299  -3.137821
H  -3.909882  -2.494598  -0.698229
B  -0.135791   0.154910  -0.060276
N  -0.795640  -0.641525   1.257860
C   1.490201  -0.141667  -0.080366
C   2.033831  -1.355931  -0.647806
C   2.430855   0.746035   0.462481
C   3.383650  -1.548491  -0.743025
C   3.824095   0.503176   0.337561
C   4.316641  -0.604828  -0.274584
H   3.753299  -2.463274  -1.176119
H   4.505841   1.229489   0.747992
C  -0.614796   1.723511  -0.038593
C  -1.582210   2.251801   0.824176
C  -0.130831   2.590514  -1.034888
C  -2.027570   3.572303   0.716387
C  -0.565146   3.891459  -1.155075
C  -1.519839   4.400457  -0.275509
H  -2.768772   3.943957   1.403083
H  -0.163291   4.520246  -1.931182
C   2.111396   2.011661   1.245806
H   2.137745   2.891965   0.613007
H   1.144437   2.000425   1.721412
H   2.858665   2.148183   2.021757
C   1.166674  -2.505954  -1.124605
H   0.398015  -2.761896  -0.405568
H   0.670019  -2.292900  -2.061934
H   1.777483  -3.389691  -1.270219
C   5.796627  -0.857984  -0.426672
H   6.085986  -1.792561   0.046093
H   6.074701  -0.927793  -1.474735
H   6.381459  -0.062245   0.020482
H  -0.666129  -1.180923   4.540011
H  -2.008638   1.639914   1.600678
H   0.616924   2.232033  -1.722336
H  -1.858222   5.417567  -0.366218
