50
W2946677259-a source-verbatim 3-FC ground-state minimum; ESI pp. 8; CASSCF/6-31G* geometry; chromophore cation only
C   -0.000183   -0.876515    1.575765
C   -1.246992   -0.672208    0.731242
C   -1.207930    0.649164   -0.001976
C    0.000169    1.315775   -0.262872
C    1.207923    0.648574   -0.001735
C    1.246452   -0.673151    0.730760
N   -2.363798    1.142925   -0.421808
H   -2.341397    1.982321   -0.958646
C   -3.672257    0.582314   -0.220072
C   -4.456375    1.018934    0.857241
C   -5.727981    0.510337    1.026743
C   -6.242111   -0.438291    0.120717
C   -5.469710   -0.857560   -0.939724
C   -4.180589   -0.342705   -1.112763
O   -7.482624   -0.859043    0.385260
C   -8.110463   -1.788898   -0.461906
N    2.363849    1.142692   -0.420938
H    2.341510    1.982787   -0.956724
C    3.672266    0.581857   -0.219598
C    4.179433   -0.344808   -1.111248
C    5.468463   -0.859958   -0.938466
C    6.241997   -0.439240    0.120580
C    5.729077    0.511108    1.025483
C    4.457498    1.019893    0.856319
O    7.482569   -0.860073    0.384704
C    8.109268   -1.791583   -0.461489
H   -0.000513   -1.874203    1.997141
H    0.000264   -0.177550    2.405998
H   -2.136799   -0.716034    1.343062
H   -1.340464   -1.463492   -0.008444
H    2.136553   -0.718013    1.342084
H    1.338749   -1.464223   -0.009296
H   -4.068087    1.747362    1.545908
H   -6.349405    0.826633    1.842491
H   -5.838550   -1.573804   -1.646883
H   -3.588706   -0.666735   -1.949564
H   -9.090481   -1.956713   -0.044968
H   -8.209499   -1.396036   -1.467235
H   -7.565024   -2.725390   -0.486335
H    3.586709   -0.669916   -1.947033
H    5.836367   -1.577540   -1.644755
H    6.351350    0.828480    1.840165
H    4.070085    1.749533    1.544195
H    8.207534   -1.400432   -1.467560
H    9.089603   -1.959087   -0.045171
H    7.563443   -2.727901   -0.483859
C    0.001659    2.679985   -0.927717
H   -0.857541    3.268370   -0.629108
H    0.855575    3.270695   -0.618352
H    0.008301    2.623263   -2.013232
