14
Hexatriene; source-verbatim SI optimized geometry; iCASSCF(n=4)/6-31G*; DOI 10.1063/1.5100934
C 3.12563033 -0.17431664 0.0
C 1.90189168 0.42838711 0.0
C 0.61337576 -0.30274646 0.0
C -0.61337854 0.30275819 0.0
C -1.90189014 -0.42838350 0.0
C -3.12562957 0.17431039 0.0
H 3.22902067 -1.26878039 0.0
H 4.05183966 0.41416616 0.0
H 1.85002009 1.53015007 0.0
H 0.67086077 -1.40440580 0.0
H -0.67086791 1.40441631 0.0
H -1.85000819 -1.53014686 0.0
H -4.05183459 -0.41418418 0.0
H -3.22903002 1.26877559 0.0
