22
Decapentaene; source-verbatim SI optimized geometry; iCASSCF(n=4)/6-31G*; DOI 10.1063/1.5100934
C -0.04208334 -0.08567173 0.0
C -0.04413314 1.27441422 0.0
C 1.17824851 2.11171413 0.0
C 1.17372248 3.47959261 0.0
C 2.39207426 4.31542615 0.0
C 2.38700012 5.68441455 0.0
C 3.60534597 6.52025842 0.0
C 3.60079975 7.88813737 0.0
C 4.82316496 8.72545755 0.0
C 4.82108795 10.08554289 0.0
H 2.63432472 8.42174770 0.0
H 0.89489350 -0.66253179 0.0
H -0.97673991 -0.66181887 0.0
H 4.57261213 5.98831635 0.0
H 1.41972646 6.21610172 0.0
H 3.35934720 3.78373035 0.0
H 0.20646174 4.01154721 0.0
H 2.14471685 1.57808722 0.0
H -1.00875686 1.80921935 0.0
H 5.78779775 8.19067118 0.0
H 3.88409837 10.66238284 0.0
H 5.75573052 10.66171059 0.0
