18
Octatetraene; source-verbatim SI optimized geometry; iCASSCF(n=4)/6-31G*; DOI 10.1063/1.5100934
C 4.37175733 -0.20392058 0.0
C 3.16441430 0.42140633 0.0
C 1.86258193 -0.28105764 0.0
C 0.64880399 0.34943647 0.0
C -0.64880249 -0.34941505 0.0
C -1.86257790 0.28107078 0.0
C -3.16440935 -0.42140550 0.0
C -4.37176584 0.20390280 0.0
H 4.45473445 -1.30136950 0.0
H 5.31315546 0.36163785 0.0
H 3.12963558 1.52386568 0.0
H 1.89576188 -1.38483692 0.0
H 0.61761183 1.45323152 0.0
H -0.61760824 -1.45320884 0.0
H -1.89576083 1.38485294 0.0
H -3.12961319 -1.52386008 0.0
H -5.31315057 -0.36167517 0.0
H -4.45476833 1.30134491 0.0
