14
Tetramethyleneethane 1A1, 0.01 deg torsion; exact SI Table S2 CAS(6,6)PT2/cc-pVTZ coordinates converted from bohr to angstrom with 1 bohr = 0.529177210903 angstrom
C   0.000000000  0.000000000 -0.742422387
C   0.000000000  0.000000000  0.742422387
C  -0.000104637  1.199055643  1.449446328
C   0.000104637 -1.199055643  1.449446328
C   0.000104637  1.199055643 -1.449446328
C  -0.000104637 -1.199055643 -1.449446328
H  -0.000188768  2.163122562  0.973534067
H   0.000188768 -2.163122562  0.973534067
H   0.000188768  2.163122562 -0.973534067
H  -0.000188768 -2.163122562 -0.973534067
H  -0.000102865  1.178748604  2.528663456
H   0.000102865 -1.178748604  2.528663456
H   0.000102865  1.178748604 -2.528663456
H  -0.000102865 -1.178748604 -2.528663456
