89
Verbatim DMRG-CASPT2 optimized coordinates for [Cr3(dpa)4Cl2] 1sym from c9cp03645h ESI pp. S14-S16
Cr 0.000000000 0.000000000 0.000187001
Cr 0.000000000 0.000000000 2.405187173
Cr 0.000000000 0.000000000 -2.404813172
N 0.000000000 -2.045487145 -0.000010001
N 0.000000000 2.045487145 -0.000010001
N -0.757710054 -1.994112142 2.186973155
N 0.757710054 1.994112142 2.186973155
N 0.757481057 -1.994219141 -2.187083155
N -0.757481057 1.994219141 -2.187083155
N -2.045487145 0.000000000 -0.000010001
N 2.045487145 0.000000000 -0.000010001
N -1.994112142 0.757710054 2.186973155
N 1.994112142 -0.757710054 2.186973155
N -1.994219141 -0.757481057 -2.187083155
N 1.994219141 0.757481057 -2.187083155
C -1.426496103 -2.542309185 3.222379231
C 1.426496103 2.542309185 3.222379231
C -2.003587145 -3.800116271 3.179941232
C 2.003587145 3.800116271 3.179941232
C -1.907355135 -4.521589325 1.984060145
C 1.907355135 4.521589325 1.984060145
C -1.231909087 -3.974907284 0.909167065
C 1.231909087 3.974907284 0.909167065
C -0.634128047 -2.695569193 1.022782076
C 0.634128047 2.695569193 1.022782076
C 0.633969045 -2.695645193 -1.022860072
C -0.633969045 2.695645193 -1.022860072
C 1.231702089 -3.975010288 -0.909259067
C -1.231702089 3.975010288 -0.909259067
C 1.907086138 -4.521730324 -1.984177140
C -1.907086138 4.521730324 -1.984177140
C 2.003245143 -3.800287274 -3.180078231
C -2.003245143 3.800287274 -3.180078231
C 1.426146100 -2.542474183 -3.222530232
C -1.426146100 2.542474183 -3.222530232
C -2.542309185 1.426496103 3.222379231
C 2.542309185 -1.426496103 3.222379231
C -3.800116271 2.003587145 3.179941232
C 3.800116271 -2.003587145 3.179941232
C -4.521589325 1.907355135 1.984060145
C 4.521589325 -1.907355135 1.984060145
C -3.974907284 1.231909087 0.909167065
C 3.974907284 -1.231909087 0.909167065
C -2.695569193 0.634128047 1.022782076
C 2.695569193 -0.634128047 1.022782076
C -2.695645193 -0.633969045 -1.022860072
C 2.695645193 0.633969045 -1.022860072
C -3.975010288 -1.231702089 -0.909259067
C 3.975010288 1.231702089 -0.909259067
C -4.521730324 -1.907086138 -1.984177140
C 4.521730324 1.907086138 -1.984177140
C -3.800287274 -2.003245143 -3.180078231
C 3.800287274 2.003245143 -3.180078231
C -2.542474183 -1.426146100 -3.222530232
C 2.542474183 1.426146100 -3.222530232
H -1.462511107 -1.921055137 4.120763298
H 1.462511107 1.921055137 4.120763298
H -2.521458183 -4.193872304 4.054377292
H 2.521458183 4.193872304 4.054377292
H -2.377274174 -5.503594399 1.886630136
H 2.377274174 5.503594399 1.886630136
H -1.186935086 -4.500289326 -0.044163001
H 1.186935086 4.500289326 -0.044163001
H 1.186772083 -4.500356326 0.044095001
H -1.186772083 4.500356326 0.044095001
H 2.377014173 -5.503731397 -1.886748137
H -2.377014173 5.503731397 -1.886748137
H 2.521020183 -4.194085303 -4.054553291
H -2.521020183 4.194085303 -4.054553291
H 1.462098106 -1.921241138 -4.120929295
H -1.462098106 1.921241138 -4.120929295
H -1.921055137 1.462511107 4.120763298
H 1.921055137 -1.462511107 4.120763298
H -4.193872304 2.521458183 4.054377292
H 4.193872304 -2.521458183 4.054377292
H -5.503594399 2.377274174 1.886630136
H 5.503594399 -2.377274174 1.886630136
H -4.500289326 1.186935086 -0.044163001
H 4.500289326 -1.186935086 -0.044163001
H -4.500356326 -1.186772083 0.044095001
H 4.500356326 1.186772083 0.044095001
H -5.503731397 -2.377014173 -1.886748137
H 5.503731397 2.377014173 -1.886748137
H -4.194085303 -2.521020183 -4.054553291
H 4.194085303 2.521020183 -4.054553291
H -1.921241138 -1.462098106 -4.120929295
H 1.921241138 1.462098106 -4.120929295
Cl 0.000000000 0.000000000 4.920432355
Cl 0.000000000 0.000000000 -4.920093353
