51
4B1 [MnIV(O)(N4py)]2+; verbatim official SI coordinates
Mn 0.000000000 0.000000000 0.000000000
O 0.000000000 0.000000000 1.661741977
N 0.020925256 0.020620979 -2.120285176
N 1.996153423 0.000000000 -0.324993678
N 0.113348179 1.993901244 -0.325401145
N -1.981378794 0.043028460 -0.293066827
N -0.060891897 -1.980635829 -0.292021173
C 1.104839544 1.043300993 -2.282157850
C -1.315583325 0.460219103 -2.596744200
C 0.381575956 -1.338697788 -2.598711152
C 2.312453248 0.508798633 -1.534984446
C 3.625468476 0.559510218 -1.975138736
C 4.625761646 0.061574006 -1.131201567
C 4.279366453 -0.463837088 0.114079502
C 2.938282076 -0.479426650 0.490003316
C 0.641625827 2.279920489 -1.534792884
C 0.769695188 3.587468258 -1.975152494
C 0.330898238 4.615455919 -1.131601096
C -0.215121664 4.300598631 0.113167201
C -0.310216404 2.962769224 0.489201612
C -2.381143630 0.159222555 -1.576916451
C -3.729798946 0.068018856 -1.909486890
C -4.666344250 -0.134076581 -0.895491204
C -4.231503429 -0.239599287 0.428062589
C -2.871686177 -0.150960511 0.692270206
C 0.034442560 -2.386945000 -1.575363316
C -0.118753196 -3.730669972 -1.905500597
C -0.359713527 -4.655552209 -0.889380794
C -0.442670527 -4.214473446 0.433823742
C -0.292761492 -2.859602944 0.695364835
H 1.334824210 1.260309174 -3.333208644
H -1.555977437 -0.002731084 -3.562613332
H -1.300855793 1.546141090 -2.766652431
H 1.464789613 -1.384107016 -2.780911641
H -0.104089694 -1.553323084 -3.559477427
H 3.859994541 0.972385420 -2.956859901
H 5.669852701 0.083705786 -1.450164212
H 5.034121379 -0.858835625 0.795098871
H 2.601547542 -0.872937140 1.449445590
H 1.196719532 3.797288625 -2.956445555
H 0.414823104 5.656459225 -1.450306561
H -0.564797757 5.077512855 0.794060096
H -0.724158957 2.649842374 1.448120001
H -4.034652138 0.157079916 -2.953245091
H -5.728384996 -0.210620483 -1.137812049
H -4.931774795 -0.397405764 1.249213386
H -2.462219935 -0.236647537 1.698535142
H -0.046528439 -4.040847745 -2.949000561
H -0.484000858 -5.713559566 -1.129660603
H -0.629149944 -4.905982696 1.256441947
H -0.357940254 -2.444630083 1.701021217
