93
Verbatim DMRG-CASPT2 optimized coordinates for [Cr3(dpa)4(N3)2] 2asym from c9cp03645h ESI pp. S16-S18
Cr 0.000000000 0.000000000 2.271000163
Cr 0.000000000 0.000000000 0.000000000
Cr 0.000000000 0.000000000 -2.514000181
N 0.773522055 1.985442144 2.100082151
N 0.030335001 2.049213146 -0.083276005
N -0.728059051 1.992087144 -2.273566165
N 1.988432144 -0.771970057 2.100142149
N 2.047921149 -0.030993001 -0.083684005
N 1.997981142 0.735390056 -2.272105164
N -0.791329060 -1.981140145 2.102889150
N -0.014953999 -2.048166148 -0.068151007
N 0.718877053 -2.005322142 -2.268194164
N -1.976035140 0.782278055 2.104949152
N -2.049310149 0.016415999 -0.069143003
N -2.001690145 -0.720689051 -2.268366162
C 1.431593101 2.517455180 3.149269230
C 2.018670146 3.771363271 3.123222226
C 1.942866141 4.501865322 1.930833137
C 1.274757093 3.971049285 0.842854059
C 0.664645048 2.696522194 0.941243069
C -0.589804044 2.699596195 -1.113990082
C -1.163930084 3.991535287 -1.014079074
C -1.828359132 4.542279329 -2.093525152
C -1.944289140 3.811392276 -3.282327235
C -1.392932099 2.542547183 -3.309490236
C 2.525254183 -1.425701104 3.149214227
C 3.776744274 -2.017576147 3.119491225
C 4.501208322 -1.949393140 1.922999139
C 3.967537284 -1.282171094 0.835895061
C 2.695681193 -0.667299046 0.938938069
C 2.700730195 0.593722041 -1.110047082
C 3.992207289 1.166914082 -0.999082074
C 4.550252327 1.835833131 -2.071548151
C 3.825828273 1.955490140 -3.263578236
C 2.556999183 1.404098099 -3.301718236
C -1.474756105 -2.515713181 3.134971225
C -2.044470146 -3.776897269 3.105441225
C -1.925346140 -4.517600323 1.922964139
C -1.240055089 -3.984081286 0.848138063
C -0.651986048 -2.698867195 0.950112070
C 0.610400046 -2.697920195 -1.098103081
C 1.210576085 -3.976191285 -0.984678070
C 1.863625134 -4.534603328 -2.067670150
C 1.934395140 -3.826007273 -3.272994236
C 1.360870096 -2.566475186 -3.312757238
C -2.503443180 1.459216106 3.144112228
C -3.765121271 2.027624148 3.126277224
C -4.511372325 1.913953139 1.946463138
C -3.984007286 1.235544091 0.863768065
C -2.698150197 0.647233047 0.954260068
C -2.698185197 -0.607853042 -1.100637077
C -3.978623288 -1.204113084 -0.991551072
C -4.533507328 -1.859181135 -2.075186150
C -3.818813272 -1.937740138 -3.276445239
C -2.557414185 -1.367897099 -3.313009237
H 1.449860104 1.881793133 4.038511288
H 2.530065182 4.155859301 4.005585287
H 2.422686176 5.480290396 1.846993135
H 1.245342088 4.505477322 -0.106022006
H -1.110855082 4.525096325 -0.065764005
H -2.277441166 5.534668401 -2.004966144
H -2.457032176 4.205596300 -4.159283300
H -1.468757103 1.910181137 -4.196094304
H 1.896504139 -1.432402102 4.042813293
H 4.164225297 -2.525586184 4.002481287
H 5.477363395 -2.433265175 1.835845133
H 4.497568323 -1.255915092 -0.115572010
H 4.519092328 1.108917083 -0.047314002
H 5.541660398 2.285433166 -1.974855143
H 4.222155304 2.473549179 -4.136405296
H 1.946599142 1.492241105 -4.201375302
H -1.561205114 -1.893161135 4.026054292
H -2.576020184 -4.155824301 3.977871285
H -2.388040174 -5.503875397 1.835781134
H -1.180741087 -4.524168328 -0.096061006
H 1.184051086 -4.492827324 -0.025821003
H 2.334585170 -5.516046399 -1.970099142
H 2.431079175 -4.230533302 -4.154800301
H 1.374669097 -1.950019141 -4.215075304
H -1.860838132 1.530897112 4.022978290
H -4.142997299 2.550987184 4.004093288
H -5.498989398 2.375277170 1.867823134
H -4.530163324 1.182268086 -0.077295005
H -4.499752323 -1.174327083 -0.035258001
H -5.516769398 -2.326920170 -1.980631145
H -4.219989302 -2.438687178 -4.157393301
H -1.934149141 -1.392830100 -4.211120302
N 0.139226010 0.034835003 4.425304318
N -0.578739043 -0.214682013 5.357648388
N -1.265378093 -0.454698033 6.261136448
N -0.046031002 -0.140022009 -4.651500334
N 0.264425019 0.551303039 -5.586505402
N 0.562018042 1.209361088 -6.493312469
