69
[MnIV(O)(N4py)]2+ with ethylbenzene (RC); verbatim official SI coordinates
Mn 0.000000000 0.000000000 0.000000000
O 0.000000000 0.000000000 1.660968320
N 0.023686503 0.033475224 -2.126381827
N 1.997048791 0.000000000 -0.330831562
N 0.064560683 1.992016844 -0.323785567
N -1.978704861 0.029288373 -0.294237367
N -0.052340393 -1.978465144 -0.303643493
C 1.102166141 1.068588786 -2.272091312
C -1.317580440 0.463046497 -2.597218872
C 0.392943741 -1.322633025 -2.606135508
C 2.311039816 0.516857473 -1.539876161
C 3.612613173 0.507155538 -2.011798548
C 4.603167365 -0.083539625 -1.214987789
C 4.257616738 -0.628001629 0.019897065
C 2.932649513 -0.553434205 0.443193884
C 0.616881499 2.293136162 -1.517832753
C 0.727915057 3.606536102 -1.948018931
C 0.231412915 4.620412193 -1.118784423
C -0.353481935 4.286719370 0.103259944
C -0.415473463 2.946166287 0.476200256
C -2.379696330 0.147151493 -1.577391123
C -3.727257837 0.045661117 -1.909415451
C -4.662180154 -0.165356778 -0.895556292
C -4.226187843 -0.270908059 0.427192622
C -2.866843147 -0.173635756 0.690595360
C 0.036719609 -2.376102158 -1.590214146
C -0.130035784 -3.715166136 -1.929822642
C -0.378526836 -4.645213144 -0.920042911
C -0.453869506 -4.213445255 0.406109671
C -0.289979607 -2.862089019 0.677279144
H 1.333653141 1.303091038 -3.318190065
H -1.555812863 0.006055904 -3.566010120
H -1.310187305 1.549406643 -2.760627748
H 1.477451237 -1.361982116 -2.776659702
H -0.078473811 -1.535236335 -3.573795376
H 3.845689292 0.929175452 -2.989613327
H 5.634408938 -0.124053435 -1.567131964
H 5.002108272 -1.094616369 0.662805088
H 2.600447382 -0.943307131 1.405282044
H 1.179066708 3.832075149 -2.914512492
H 0.297838948 5.663368692 -1.432488634
H -0.754670258 5.051611746 0.768215079
H -0.842557603 2.618012363 1.423627032
H -4.033879010 0.133609847 -2.952488897
H -5.723295899 -0.249085848 -1.137490310
H -4.925066415 -0.435172615 1.247749152
H -2.454488126 -0.258128429 1.695658534
H -0.065112615 -4.019086389 -2.975281620
H -0.514719597 -5.699461755 -1.168004787
H -0.645384573 -4.909004827 1.223531355
H -0.348230380 -2.452676223 1.685441709
C 4.699868157 1.650365724 2.395002782
C 6.020510417 1.211045418 2.270203207
C 6.791412129 1.606554611 1.171647114
C 6.231828885 2.446440398 0.203954966
C 4.910730474 2.885869186 0.335543356
C 4.125610299 2.493632954 1.429344263
C 2.706084390 2.983960656 1.578374864
C 2.578432550 4.182984754 2.524581357
H 4.100291284 1.326157874 3.250859139
H 6.447384475 0.549906180 3.029178852
H 7.822527758 1.258919025 1.068752302
H 6.824406860 2.758184537 -0.660132214
H 4.479076359 3.536383074 -0.430977298
H 2.067082224 2.161536130 1.940671834
H 2.327306195 3.267800219 0.585628820
H 1.527472246 4.499440158 2.625506571
H 3.158193852 5.044383714 2.154348315
H 2.951950195 3.936743234 3.531890888
