69
[MnIV(O)(N4py)]2+ with cyclohexane (RC); verbatim official SI coordinates
Mn -0.245661 0.438382 0.112316
O -0.363405 0.834757 1.720463
N -0.074863 -0.100621 -1.933620
N -0.200213 -1.574325 0.282542
N 1.769294 0.335899 -0.060026
N -0.207379 2.288859 -0.650019
N -2.200666 0.369764 -0.318038
C 0.978823 -1.153598 -1.754112
C 0.367594 1.095701 -2.695227
C -1.390331 -0.616503 -2.391289
C 0.413385 -2.158937 -0.768614
C 0.517989 -3.537235 -0.866775
C -0.048192 -4.317770 0.148905
C -0.694110 -3.695904 1.217985
C -0.747858 -2.304357 1.256195
C 2.149659 -0.469671 -1.074781
C 3.485864 -0.638977 -1.400616
C 4.442339 0.064290 -0.658188
C 4.029569 0.906298 0.374431
C 2.668840 1.016393 0.653009
C -0.006955 2.368580 -1.982078
C -0.083373 3.595438 -2.635981
C -0.357755 4.744185 -1.893542
C -0.550350 4.639446 -0.513645
C -0.472703 3.385577 0.076422
C -2.512623 -0.049963 -1.562380
C -3.829063 -0.009662 -2.013185
C -4.824867 0.461010 -1.156964
C -4.480730 0.880262 0.130611
C -3.148434 0.824322 0.516004
H 1.273992 -1.627996 -2.698766
H -0.046372 1.082245 -3.711846
H 1.460965 1.073122 -2.807182
H -1.407250 -1.711000 -2.291264
H -1.543150 -0.401987 -3.457136
H 1.018615 -3.990798 -1.722834
H 0.011223 -5.406695 0.097092
H -1.151210 -4.275445 2.020748
H -1.229369 -1.756055 2.065767
H 3.771094 -1.293819 -2.224613
H 5.503289 -0.040048 -0.893489
H 4.749693 1.472490 0.965939
H 2.282158 1.651102 1.450243
H 0.073027 3.641975 -3.714720
H -0.423604 5.714779 -2.389743
H -0.766132 5.513775 0.101580
H -0.622247 3.228060 1.144453
H -4.063328 -0.344935 -3.024518
H -5.862638 0.502711 -1.494418
H -5.230063 1.254409 0.829204
H -2.806679 1.144350 1.500110
C 2.098276 -0.886049 5.880905
C 2.807341 0.027381 4.874423
C 3.364010 -0.765939 3.686593
C 2.266920 -1.596633 3.010135
C 1.019558 -1.741986 5.205755
C 1.589044 -2.530000 4.020355
H 1.658123 -0.287106 6.696620
H 2.845281 -1.552642 6.351421
H 3.615821 0.590405 5.371573
H 2.088339 0.779308 4.498367
H 4.165651 -1.441090 4.039957
H 3.833806 -0.080223 2.963943
H 2.680833 -2.173312 2.164637
H 1.508458 -0.913464 2.588337
H 0.207882 -1.082978 4.844024
H 0.561893 -2.427985 5.939044
H 2.330016 -3.262360 4.392093
H 0.795806 -3.119422 3.532857
