14
open-ring 1H-1,2,3-benzotriazole; exact SI SA(4)-CASSCF(14,13)/ANO-S-VDZP coordinates
C -0.01655058 0.04168518 -0.00322528
C -0.80063858 1.14992006 -0.00722830
C -2.26905360 1.06738655 -0.00404119
C -2.78448083 -0.30388306 0.00363944
C -1.92987621 -1.47076463 0.00800019
C -0.58211396 -1.30305916 0.00425656
H 0.07716922 -2.15785253 0.00702686
H -2.38058621 -2.45265235 0.01329325
N -4.10955135 -0.46275203 0.00653833
N -5.24202623 -0.55939362 0.00910625
N -3.07421204 2.07131443 -0.00746989
H -2.55917060 2.93978944 -0.01283184
H -0.36115158 2.13775118 -0.01205073
H 1.05924658 0.15112461 -0.00501373
