14
1H-1,2,3-benzotriazole; exact SI SA(4)-CASSCF(14,12)/ANO-S-VDZP coordinates
C -0.00188097 0.00293590 0.00000136
C -0.83948169 1.10887365 -0.00002575
C -2.22399431 0.84670138 -0.00007469
C -2.73463148 -0.45257035 -0.00002346
C -1.87645643 -1.57082296 -0.00001290
C -0.51235251 -1.32537130 0.00000942
H 0.18290242 -2.15247691 0.00002645
H -2.27488168 -2.57477732 -0.00002347
N -4.10384962 -0.38838953 -0.00000168
N -4.46167696 0.83334118 0.00008253
N -3.32484136 1.63060407 0.00001422
H -3.42569577 2.62381420 -0.00001050
H -0.44480033 2.11420712 -0.00000159
H 1.06864463 0.15254488 0.00004007
