14
2H-1,2,3-benzotriazole S0; exact SI SA(4)-CASSCF(12,10)/ANO-S-VDZP coordinates
C -0.00734054 0.01405985 0.00000081
C 1.43765824 0.09709170 0.00000099
C 2.09720821 1.30056005 -0.00000074
C 1.28530286 2.47610577 0.00000108
C -0.12921613 2.39537983 0.00000055
C -0.80187022 1.13125102 -0.00000073
H -1.87992174 1.07120737 -0.00000257
N -0.61728727 3.63481206 -0.00000177
N 0.46709428 4.37789351 0.00000211
N 1.62850885 3.76512310 -0.00000199
H 0.40871770 5.37701387 0.00000244
H 3.17504204 1.36586349 -0.00000257
H 2.00326438 -0.82402050 0.00000149
H -0.46312099 -0.96620959 0.00000148
