9
[Ni(CN)4]2- | VERBATIM idealized ab initio geometry printed in the Supporting Information of 10.1021/acs.inorgchem.9b02135; coordinates in angstrom
Ni     0.000000     0.000000     0.000000
C      1.870000     0.000000     0.000000
C     -1.870000     0.000000     0.000000
C      0.000000     1.870000     0.000000
C      0.000000    -1.870000     0.000000
N      3.030000     0.000000     0.000000
N     -3.030000     0.000000     0.000000
N      0.000000     3.030000     0.000000
N      0.000000    -3.030000     0.000000
