21
HBI anion DW(4,4eV)-CAS(4,5)/6-31G* S3/S2 MDCI; exact official SI coordinates
N 0.0002279302 0.0226822753 0.0112069183
N 0.0024515883 0.7830246294 -2.1057034001
H -0.0010422776 0.0274786770 1.0170009823
H -0.0019905388 2.1259851130 -0.4644024785
H 0.0084742240 -2.5087830330 -2.9643548360
H 0.0057257226 0.9896832593 -4.4856053983
H 0.0089283778 1.3514958045 -6.9383493071
H 0.0160709081 -2.9138599795 -7.5807757916
H 0.0128824946 -3.2719075504 -5.1325626812
C 0.0000659712 1.1102173343 -0.8378236525
C 0.0044603254 -0.6245656604 -2.1216239442
C 0.0031584876 -1.1608284400 -0.7624319876
C 0.0073722744 -1.4502464183 -3.2383601190
C 0.0090999323 -1.1699223053 -4.6093593314
C 0.0079917938 0.1502353761 -5.1684610380
C 0.0098159389 0.3524719139 -6.5274543775
C 0.0128818056 -0.7473432275 -7.4996983362
C 0.0138933019 -2.0723242701 -6.9017246271
C 0.0120459571 -2.2659466134 -5.5364490174
O 0.0041810120 -2.3095686913 -0.2980176662
O 0.0143134364 -0.5531772503 -8.7321680709
