37
Fe(II) porphine | VERBATIM geometry from paper SI (10.1021/acs.jctc.9b01255, ct9b01255_si_004.zip quintet_A1g.in); the geometry the calculations used
Fe      0.000000     0.000000     0.000000
N       1.976400     0.000000     0.000000
N       0.000000     1.988400     0.000000
N      -1.976400     0.000000     0.000000
N       0.000000    -1.988400     0.000000
C       2.818200    -1.090300     0.000000
C       2.818200     1.090300     0.000000
C       1.091800     2.824900     0.000000
C      -1.091800     2.824900     0.000000
C      -2.818200     1.090300     0.000000
C      -2.818200    -1.090300     0.000000
C      -1.091800    -2.824900     0.000000
C       1.091800    -2.824900     0.000000
C       4.196100    -0.677300     0.000000
C       4.196100     0.677300     0.000000
C       0.682500     4.191200     0.000000
C      -0.682500     4.191200     0.000000
C      -4.196100     0.677300     0.000000
C      -4.196100    -0.677300     0.000000
C      -0.682500    -4.191200     0.000000
C       0.682500    -4.191200     0.000000
H       5.044100    -1.353800     0.000000
H       5.044100     1.353800     0.000000
H       1.355800     5.041600     0.000000
H      -1.355800     5.041600     0.000000
H      -5.044100     1.353800     0.000000
H      -5.044100    -1.353800     0.000000
H      -1.355800    -5.041600     0.000000
H       1.355800    -5.041600     0.000000
C       2.415000     2.408300     0.000000
C      -2.415000     2.408300     0.000000
C      -2.415000    -2.408300     0.000000
C       2.415000    -2.408300     0.000000
H       3.185500     3.175200     0.000000
H      -3.185500     3.175200     0.000000
H      -3.185500    -3.175200     0.000000
H       3.185500    -3.175200     0.000000
