70
Exact SI TPSSh/IEFPCM DFT minimum for [Yb(DOTAM)(H2O)]3+ with two explicit second-sphere waters; Table S5
N     -0.367489    -2.520707    -0.256627
C     -1.782734    -2.797260    -0.645324
C     -2.302197    -1.774827    -1.645164
N     -2.236990    -0.371104    -1.141216
C     -2.356610     0.564333    -2.301792
C     -1.036255     0.717653    -3.043818
N      0.081432     1.197318    -2.177036
C      1.381296     0.925684    -2.863580
C      1.796286    -0.530590    -2.734034
N      1.967555    -0.968916    -1.318089
C      1.946609    -2.461608    -1.271547
C      0.530092    -3.013664    -1.344824
C     -0.068210    -3.214479     1.017952
C      1.104369    -2.555147     1.719253
O      1.360462    -1.353400     1.494145
C     -3.343398    -0.113521    -0.189468
C     -2.974622    -0.580874     1.205569
O     -1.772090    -0.615296     1.552114
C     -0.031513     2.656116    -1.940567
C     -0.995015     2.948447    -0.807275
O     -1.208460     2.076324     0.062930
C      3.253249    -0.470886    -0.765646
C      3.062939     0.840009    -0.021466
O      1.915687     1.336950     0.078187
Yb     0.006797     0.059879     0.191807
H     -0.924982    -3.091887     1.686079
H      0.095792    -4.288504     0.870852
H     -4.286117    -0.556767    -0.530659
H     -3.484245     0.967505    -0.109902
H     -0.304513     3.197259    -2.854214
H      0.942600     3.023025    -1.605843
H      3.633755    -1.195382    -0.043298
H      4.015400    -0.358260    -1.546512
H     -2.389499    -2.795544     0.260397
H     -1.874966    -3.798158    -1.084048
H     -3.334238    -2.031577    -1.914768
H     -1.719239    -1.821296    -2.566319
H     -3.116737     0.207634    -3.007196
H     -2.704588     1.526678    -1.927569
H     -1.179540     1.403138    -3.888541
H     -0.735629    -0.241207    -3.469107
H      1.315126     1.183843    -3.927507
H      2.134717     1.576438    -2.420789
H      1.046136    -1.176700    -3.192762
H      2.726760    -0.687632    -3.293987
H      2.435819    -2.781504    -0.352090
H      2.527428    -2.884835    -2.100370
H      0.073562    -2.737814    -2.296272
H      0.574813    -4.109980    -1.325605
O      0.330051     1.162000     2.232117
H      1.115516     1.738223     2.345026
H     -0.394587     1.528860     2.796099
N      4.109489     1.425120     0.537517
N     -1.554527     4.151440    -0.757259
N     -3.956605    -0.904137     2.037216
N      1.804716    -3.277808     2.585722
H      2.540197    -2.838255     3.123201
H      3.918630     2.184651     1.192350
H     -2.139391     4.400540     0.029298
H     -3.742291    -1.152524     2.994204
H      1.607719    -4.253559     2.754021
H     -4.925593    -0.890325     1.753405
H     -1.388038     4.849286    -1.467670
H      5.037994     1.032056     0.483725
O     -1.563132     2.257441     3.797347
O      2.609327     2.849069     2.614773
H      2.942215     2.829510     3.522668
H      2.350730     3.769168     2.466841
H     -2.272990     2.724827     3.339172
H     -2.007103     1.698114     4.447091
