14
1,3-cyclohexadiene; exact Cartesian coordinates (angstrom) from ESI Table S2, DOI 10.1039/c9cp06952f
C  0.070064 -1.421485 -0.050566
C -0.070064  1.421485 -0.050566
C  0.131496 -0.722125 -1.203658
C -0.131496  0.722125 -1.203658
C  0.272294  0.714489  1.254224
C -0.272294 -0.714489  1.254224
H  0.270259 -2.484012 -0.091573
H -0.270259  2.484012 -0.091573
H  0.371799 -1.192993 -2.147725
H -0.371799  1.192993 -2.147725
H -1.334908 -0.640484  1.355593
H  1.334908  0.640484  1.355593
H  0.197107 -1.317504  2.003180
H -0.197107  1.317504  2.003180
