71
Exact SI ORCA CASSCF/NEVPT2 input geometry for [Yb(DOTAM)(DMSO)]3+; sample input pp S12-S14
N    0.84575000  -4.36533000  -0.72751000
N    1.28228000  -1.64270000   1.65797000
N   -1.69939000  -1.34141000   1.52662000
N   -4.31216000  -0.83205000  -0.97251000
N    4.39828000   0.81978000  -0.54631000
N    1.56117000   1.33217000   1.68310000
N   -1.41086000   1.63244000   1.55599000
N   -0.81624000   4.33254000  -0.83756000
C    0.81447000  -3.13007000  -0.24281000
C    1.80579000  -2.76058000   0.84126000
C   -1.02979000  -2.51144000   2.17160000
C    0.35032000  -2.15860000   2.70512000
C   -2.77527000  -1.83475000   0.63715000
C    1.82828000  -1.46762000  -3.65085000
C    2.42194000  -0.94899000   2.32723000
C   -3.10926000  -0.79467000  -0.41256000
C   -2.26862000  -0.46817000   2.59675000
C    2.04000000   0.44873000   2.78976000
C    3.13803000   0.80275000  -0.13176000
C   -2.60538000   0.93724000   2.12161000
C    1.67907000   1.26181000  -3.98506000
C    2.71068000   1.83052000   0.89439000
C   -0.57888000   2.14888000   2.68357000
C    0.84335000   2.50002000   2.27663000
C   -1.86147000   2.74886000   0.69430000
C   -0.79080000   3.11289000  -0.31514000
O    0.02501000  -2.26212000  -0.67810000
O    0.00000000   0.00000000  -2.29637000
O    2.29247000   0.00000000  -0.59160000
O   -2.24242000   0.04198000  -0.74715000
O    0.05886000   2.25973000  -0.65611000
Yb   0.00000000   0.00000000   0.00000000
H    1.47280000  -5.06608000  -0.35996000
H    0.23726000  -4.62110000  -1.49371000
H    2.07579000  -3.62649000   1.45633000
H   -0.96794000  -3.31377000   1.43725000
H    0.78226000  -3.04591000   3.18467000
H   -1.63824000  -2.89090000   3.00155000
H   -2.39966000  -2.70469000   0.09199000
H    1.29723000  -2.40400000  -3.48788000
H    2.70535000  -2.41864000   0.32259000
H   -3.66368000  -2.14238000   1.20023000
H    2.33149000  -1.48647000  -4.61872000
H   -5.01330000  -1.49984000  -0.68654000
H    2.76793000  -1.52331000   3.19555000
H    0.26483000  -1.39565000   3.47895000
H    2.52175000  -1.25761000  -2.83787000
H   -3.17275000  -0.92995000   3.01307000
H    3.25462000  -0.91178000   1.62530000
H   -1.54069000  -0.42037000   3.40703000
H   -4.53579000  -0.19540000  -1.72563000
H    4.70078000   0.18892000  -1.27641000
H    1.24414000   0.38866000   3.53288000
H    2.90288000   0.90802000   3.28762000
H   -3.37987000   0.91332000   1.35603000
H    2.11435000   1.15350000  -4.97987000
H    2.44797000   1.28188000  -3.21466000
H    5.07648000   1.46022000  -0.15965000
H   -0.56516000   1.38517000   3.46180000
H   -3.01496000   1.50302000   2.96727000
H    1.05636000   2.15432000  -3.94374000
H    3.54510000   2.13749000   1.53501000
H   -2.72080000   2.40858000   0.11083000
H    2.38223000   2.70211000   0.32192000
H    1.37958000   2.87055000   3.15885000
H   -1.05194000   3.03617000   3.12228000
H    0.84799000   3.30737000   1.54489000
H   -2.17131000   3.62162000   1.28133000
H   -0.16009000   4.58165000  -1.56542000
H   -1.49550000   5.02141000  -0.54881000
S    0.57464000  -0.15504000  -3.71811000
