14
1,4-cyclohexadiene; exact Cartesian coordinates (angstrom) from ESI Table S1, DOI 10.1039/c9cp06952f
C -0.000000000  1.24854019  -0.66259991
C  0.000000000  1.24854019   0.66259991
C -0.000000000 -1.24854019   0.66259991
C -0.000000000 -1.24854019  -0.66259991
H -0.000000000  2.19226874  -1.19523456
H  0.000000000  2.19226874   1.19523456
H -0.000000000 -2.19226874   1.19523456
H -0.000000000 -2.19226874  -1.19523456
C -0.000000000 -0.00000000   1.49286021
H  0.86754069  -0.00000000   2.16192650
H -0.86754069  -0.00000000   2.16192650
C -0.000000000  0.00000000  -1.49286021
H -0.86754069   0.00000000  -2.16192650
H  0.86754069   0.00000000  -2.16192650
