68
Exact SI TPSSh/IEFPCM DFT minimum for [Yb(DOTAM)F]2+ with two explicit second-sphere waters; Table S8
N      2.028356     0.727196    -1.421202
C      2.655188    -0.475188    -2.042106
C      1.619592    -1.500936    -2.487281
N      0.721049    -1.967859    -1.392197
C     -0.482028    -2.620409    -1.991886
C     -1.493310    -1.603469    -2.497194
N     -2.028944    -0.724130    -1.421874
C     -2.656059     0.479564    -2.039937
C     -1.620645     1.506283    -2.483310
N     -0.721635     1.970925    -1.387620
C      0.481184     2.624708    -1.986482
C      1.492197     1.608800    -2.494392
C      3.027518     1.450810    -0.589820
C      2.399610     1.929034     0.711345
O      1.149727     1.915832     0.825153
C      1.414344    -2.952483    -0.531012
C      2.290439    -2.251957     0.489958
O      2.015639    -1.089978     0.848047
C     -3.027711    -1.449512    -0.591544
C     -2.399163    -1.930588     0.708272
O     -1.149224    -1.917582     0.821513
C     -1.414563     2.953790    -0.524135
C     -2.290479     2.251134     0.495515
O     -2.015615     1.088391     0.851062
Yb    -0.000022    -0.000142     0.231816
H      3.854707     0.781154    -0.351298
H      3.451507     2.307698    -1.128653
H      1.983186    -3.683248    -1.119355
H      0.656677    -3.491224     0.044530
H     -3.451985    -2.305223    -1.132015
H     -3.854746    -0.780334    -0.351162
H     -0.656675     3.491190     0.052374
H     -1.983465     3.685876    -1.110759
H      3.337082    -0.914690    -1.314808
H      3.260592    -0.194996    -2.914068
H      2.141721    -2.355555    -2.937894
H      0.989607    -1.076673    -3.270456
H     -0.189860    -3.274650    -2.823278
H     -0.933571    -3.248147    -1.224483
H     -2.313149    -2.137460    -2.995902
H     -1.036116    -0.963422    -3.253745
H     -3.261767     0.201247    -2.912290
H     -3.337706     0.917441    -1.311442
H     -0.990956     1.083658    -3.267594
H     -2.142931     2.361849    -2.931934
H      0.933077     3.250843    -1.217976
H      0.188639     3.280682    -2.816381
H      1.034582     0.970318    -3.251998
H      2.311788     2.143804    -2.992422
N     -3.315903     2.926931     1.008028
N     -3.165979    -2.343536     1.703530
N      3.315991    -2.928794     1.000831
N      3.166938     2.339688     1.707158
H      2.700549     2.380998     2.631000
H     -3.864203     2.513495     1.750173
H     -2.699052    -2.387200     2.626997
H      3.864399    -2.516910     1.743758
H      4.173753     2.292280     1.647563
H      3.540792    -3.866526     0.703024
H     -4.172832    -2.296165     1.644559
H     -3.540798     3.865255     0.712152
F      0.000224    -0.002411     2.391280
H     -0.887918    -1.178472     3.305808
H      0.889694     1.170659     3.308040
O     -1.464857    -1.776673     3.837530
O      1.467537     1.766974     3.840920
H      1.824953     1.197829     4.533005
H     -1.821501    -1.209913     4.531963
