67
Exact SI TPSSh/IEFPCM DFT minimum used for [Yb(DOTAM)(MeOH)]3+ multireference model; Table S3
N     -0.638930     2.057783    -1.151611
C      0.562169     2.582928    -1.868822
C      1.431974     1.461667    -2.416801
N      1.917699     0.515516    -1.364757
C      2.402803    -0.737893    -2.020970
C      1.260082    -1.671830    -2.395848
N      0.397988    -2.059400    -1.236365
C     -0.904078    -2.584635    -1.750076
C     -1.843884    -1.461493    -2.161717
N     -2.163124    -0.524009    -1.043269
C     -2.741443     0.733746    -1.608813
C     -1.667803     1.658396    -2.163041
C     -1.176387     3.108162    -0.255231
C     -1.975994     2.482247     0.870713
O     -1.740756     1.300509     1.212107
C      3.030795     1.122354    -0.596362
C      2.498151     2.007382     0.512715
O      1.370249     1.767372     1.008795
C      1.062266    -3.110060    -0.429921
C      2.035906    -2.491186     0.553416
O      1.861100    -1.310673     0.934381
C     -3.143660    -1.135143    -0.115560
C     -2.453324    -1.995018     0.923725
O     -1.257268    -1.759704     1.230075
Yb     0.006227     0.004408     0.338048
H     -0.336540     3.623005     0.218843
H     -1.764488     3.852133    -0.804432
H      3.731345     1.659187    -1.245395
H      3.579664     0.320512    -0.095286
H      1.547758    -3.862785    -1.061326
H      0.304520    -3.614772     0.175223
H     -3.630089    -0.333897     0.447128
H     -3.920040    -1.692742    -0.650766
H      1.125926     3.206471    -1.174867
H      0.260914     3.230922    -2.700282
H      2.286154     1.900505    -2.946618
H      0.873783     0.878553    -3.150431
H      2.971382    -0.499712    -2.927711
H      3.093320    -1.229138    -1.336253
H      1.678103    -2.570239    -2.866073
H      0.619944    -1.197805    -3.140578
H     -0.741545    -3.244755    -2.609995
H     -1.354310    -3.193690    -0.965863
H     -1.395122    -0.874642    -2.963703
H     -2.767507    -1.896219    -2.563236
H     -3.308259     1.228700    -0.820829
H     -3.450842     0.501558    -2.411806
H     -1.144773     1.171017    -2.986126
H     -2.148294     2.552095    -2.579293
O      0.126117    -0.110101     2.759359
H     -0.341850    -0.915048     3.024286
N     -3.153295    -2.947420     1.518296
N      3.027783    -3.241559     1.011660
N      3.265821     2.989365     0.960243
N     -2.882916     3.227019     1.487580
H     -3.378126     2.855277     2.287189
H     -2.737812    -3.483332     2.269045
H      3.648038    -2.876318     1.722088
H      2.962732     3.544729     1.749607
H     -3.080661     4.174654     1.200990
H      4.165859     3.192995     0.550031
H      3.170094    -4.189071     0.693657
H     -4.110996    -3.143948     1.264883
C      1.204007     0.149353     3.686723
H      0.811295     0.156112     4.704772
H      1.986739    -0.604317     3.581013
H      1.595592     1.131255     3.433789
