42
BPhCbz-S0; source-exact B3LYP/aug-def2-TZVPP S0 optimized geometry from RSC SI Table S11
C -4.701120000 -0.561264000 1.104213000
C -4.403075000 -0.709722000 -1.133214000
C -4.735662000 -0.144941000 2.433003000
C -5.360468000 -1.738945000 0.681988000
C -5.170543000 -1.833368000 -0.747580000
C -4.027267000 -0.504727000 -2.458622000
C -5.427864000 -0.934752000 3.340376000
H -4.254001000 0.769514000 2.750590000
C -6.044317000 -2.517341000 1.616513000
C -5.579056000 -2.751159000 -1.716240000
H -3.426725000 0.345960000 -2.749627000
C -4.450804000 -1.429843000 -3.402555000
C -6.070268000 -2.113854000 2.943218000
H -5.475960000 -0.624611000 4.377305000
H -6.552305000 -3.423418000 1.309833000
C -5.222013000 -2.541935000 -3.039977000
H -6.165945000 -3.617444000 -1.436898000
H -4.172098000 -1.285764000 -4.439323000
H -6.597347000 -2.708456000 3.678335000
H -5.539401000 -3.243044000 -3.801225000
N -4.114178000 0.053532000 -0.002605000
C -3.404789000 1.280808000 0.015957000
C -2.275085000 1.432106000 0.819518000
C -3.835202000 2.354970000 -0.761734000
C -1.595440000 2.641439000 0.848881000
H -1.922273000 0.594268000 1.407077000
C -3.136270000 3.553043000 -0.746138000
H -4.726175000 2.251168000 -1.367050000
C -2.006040000 3.722775000 0.061233000
H -0.708617000 2.735660000 1.462985000
H -3.495856000 4.383006000 -1.341708000
C -1.258356000 5.002212000 0.072879000
C -0.864273000 5.595079000 1.277008000
C -0.922366000 5.645405000 -1.123291000
C -0.156221000 6.790473000 1.285165000
H -1.138948000 5.126696000 2.214339000
C -0.211879000 6.838945000 -1.115761000
H -1.197491000 5.190908000 -2.067044000
C 0.171979000 7.418119000 0.088312000
H 0.132445000 7.238027000 2.228296000
H 0.049186000 7.314089000 -2.053480000
H 0.722050000 8.350578000 0.094088000
