32
PhCbz-S0; source-exact B3LYP/aug-def2-TZVPP S0 optimized geometry from RSC SI Table S11
C -4.920170000 -0.435615000 1.052993000
C -4.212762000 -0.819581000 -1.059603000
C -5.149361000 0.095098000 2.320117000
C -5.489040000 -1.666668000 0.649863000
C -5.036809000 -1.911935000 -0.700743000
C -3.631421000 -0.721309000 -2.321007000
C -5.970474000 -0.620898000 3.180182000
H -4.703892000 1.032718000 2.625278000
C -6.308047000 -2.366524000 1.536258000
C -5.264222000 -2.928539000 -1.628699000
H -3.016064000 0.126032000 -2.593444000
C -3.881399000 -1.742723000 -3.226530000
C -6.545210000 -1.839454000 2.796900000
H -6.173505000 -0.225336000 4.167896000
H -6.750966000 -3.311352000 1.246177000
C -4.683799000 -2.839270000 -2.885091000
H -5.887234000 -3.776547000 -1.372047000
H -3.445666000 -1.689282000 -4.216344000
H -7.177118000 -2.374017000 3.494802000
H -4.857478000 -3.620760000 -3.614204000
N -4.146745000 0.068082000 0.010592000
C -3.428504000 1.296176000 0.020876000
C -2.034200000 1.291495000 0.021314000
C -4.119454000 2.506846000 0.020197000
C -1.336347000 2.494118000 0.013238000
H -1.506519000 0.346038000 0.028260000
C -3.416883000 3.706249000 0.027498000
H -5.202269000 2.499872000 0.006706000
C -2.025657000 3.702518000 0.020016000
H -0.253134000 2.486206000 0.010695000
H -3.958841000 4.643795000 0.026954000
H -1.480212000 4.637951000 0.017899000
