21
3-trimethylsilyl-1-propene silyl/allyl conical intersection; exact ESI pp. S34-S35 coordinates, DOI 10.1021/jacs.9b11579
C -1.936502 -1.259314  0.104926
H -1.963142 -1.352068  1.176536
H -2.060878 -2.159291 -0.467113
C -2.077001 -0.000027 -0.513867
H -2.170335 -0.000076 -1.588799
C -1.937430  1.259183  0.105088
H -1.964059  1.351713  1.176721
H -2.062141  2.159190 -0.466826
Si  0.694331  0.000081 -0.007171
C  1.436660 -1.540446 -0.822550
H  2.524074 -1.519525 -0.763035
H  1.091557 -2.448485 -0.339308
H  1.168972 -1.602670 -1.873534
C  1.018717 -0.002811  1.857464
H  2.090254 -0.001732  2.050923
H  0.597369  0.873994  2.338469
H  0.599654 -0.882470  2.335225
C  1.436358  1.543317 -0.817747
H  1.088315  2.449967 -0.334015
H  2.523633  1.524177 -0.755396
H  1.171284  1.606730 -1.869332
