35
(R)-Z-s-cis silyl-o-isotoluene 4 conical intersection; exact ESI pp. S27-S29 coordinates, DOI 10.1021/jacs.9b11579
C  0.97635600  0.17144500 -1.77143900
C -0.23338500  0.75681200 -1.35155900
C  0.76712500  1.07723500  0.83190100
C  1.92282800  0.46730100  0.40089000
C  2.05666200 -0.00409500 -0.95881500
H  1.03858200 -0.15740800 -2.79491100
H  0.71212200  1.43970400  1.84442600
C  3.00279700  0.35478200  1.41463200
H  2.74925300  0.80004500  2.38240200
O  4.06438000 -0.16168300  1.26167800
C -0.37785900  1.28285200 -0.01902400
C -1.54131100  1.93082300  0.47078900
H -1.49704300  2.29323600  1.48338600
C -2.59291300  2.53872400 -0.41889200
H -2.93139600  1.86281400 -1.19700200
H -3.46503200  2.82394900  0.15996800
H -2.22607600  3.43628300 -0.91716900
C  3.32034700 -0.64766200 -1.47884900
H  4.17654000  0.01029400 -1.38726600
H  3.56729900 -1.55388300 -0.93815300
H  3.19602700 -0.89951600 -2.52631700
Si -1.76942800 -1.04251300  0.21786500
C -3.45557800 -1.00204900 -0.63334100
H -3.36740800 -0.87620300 -1.70754700
H -3.96699700 -1.94721700 -0.45648100
H -4.08631800 -0.20875400 -0.24842400
C -1.94072200 -1.10916300  2.09831400
H -2.36220500 -2.06734700  2.39864900
H -0.97804200 -1.01041700  2.59003400
H -2.59052400 -0.32444300  2.46908500
C -0.75079800 -2.51687100 -0.37446400
H -0.73191800 -2.58113300 -1.45695600
H  0.27596400 -2.46264300 -0.02943400
H -1.18253700 -3.43942000  0.01148200
H -0.99462800  0.94989600 -2.08416000
