22
BEDVA-S0; source-exact B3LYP/aug-def2-TZVPP S0 optimized geometry from RSC SI Table S11
C 1.669314000 -0.082336000 -0.351407000
C 0.656954000 2.004070000 0.175980000
C 1.758909000 -1.360576000 -0.727365000
C -0.292107000 2.919438000 0.401813000
H 0.920117000 -2.037550000 -0.759449000
H -1.338120000 2.696423000 0.557045000
N 0.559481000 0.620475000 0.108524000
C -0.701315000 -0.052512000 0.472252000
C -0.513850000 -1.021043000 1.643479000
C -1.406421000 -0.616022000 -0.742485000
H -0.025505000 -0.502529000 2.469265000
C -2.078562000 -1.758140000 -0.810179000
H -1.366231000 0.029364000 -1.615757000
H -2.583330000 -2.054786000 -1.720954000
H -2.151654000 -2.443241000 0.025684000
H -1.483508000 -1.375998000 1.994833000
H -0.003496000 3.959943000 0.435522000
H 2.718438000 -1.741577000 -1.045377000
H 1.669707000 2.350395000 -0.000011000
H 2.556840000 0.539358000 -0.397709000
H 0.091408000 -1.885578000 1.378978000
H -1.339669000 0.750190000 0.842587000
