12
3-silyl-1-propene conical intersection; exact ESI pp. S17-S18 coordinates, DOI 10.1021/jacs.9b11579
C  1.05029300  1.26014200  0.19890700
H  1.01164000  1.35270600  1.26967400
H  1.19403500  2.16022600 -0.36747900
C  1.23745700 -0.00000600 -0.41295000
H  1.39640400 -0.00003200 -1.47938400
C  1.05026400 -1.26015300  0.19891100
H  1.01162100 -1.35269000  1.26968000
H  1.19407400 -2.16021400 -0.36749100
Si -1.43682300  0.00000200 -0.03132500
H -2.07579700  1.19643200 -0.61503800
H -2.07595900 -1.19629800 -0.61512700
H -1.56857600 -0.00005500  1.43450900
