20
BDDVA-S0; source-exact B3LYP/aug-def2-TZVPP S0 optimized geometry from RSC SI Table S11
C 1.992960000 -0.043695000 -0.289638000
C 0.448022000 1.778209000 -0.008220000
C 2.427264000 -1.300222000 -0.408884000
C -0.696927000 2.395980000 0.293997000
H 1.797586000 -2.163746000 -0.255164000
H -1.585070000 1.872748000 0.613403000
N 0.709430000 0.409301000 0.019869000
C -0.356009000 -0.515037000 0.279418000
C -0.309498000 -1.302827000 1.354485000
C -1.424377000 -0.554202000 -0.734126000
H 0.496194000 -1.222902000 2.071458000
C -2.698861000 -0.851886000 -0.495924000
H -1.112137000 -0.302003000 -1.743309000
H -3.423576000 -0.898447000 -1.298013000
H -3.063343000 -1.048062000 0.505661000
H -1.057682000 -2.066507000 1.517836000
H -0.751006000 3.471801000 0.211510000
H 3.459382000 -1.471461000 -0.676545000
H 1.305746000 2.360435000 -0.324998000
H 2.681473000 0.775487000 -0.461778000
