57
Wild-type locked-PYP QM-region S0-MIN; exact SI coordinates (QM(CASSCF)/MM)
C 44.800361 39.830241 35.780655
C 45.152321 39.127146 34.638331
H 46.107224 38.641081 34.575051
C 44.300894 39.063182 33.553676
H 44.590435 38.543555 32.658938
C 43.070788 39.707151 33.593280
O 42.283181 39.646109 32.520550
H 41.355720 39.861625 32.730675
C 42.702811 40.397433 34.743595
H 41.743929 40.879207 34.773377
C 43.566535 40.462610 35.818714
H 43.267457 41.022202 36.687782
C 41.773670 35.922801 34.630458
H 41.569536 35.559656 35.630840
H 42.808796 36.244629 34.610803
C 40.868427 37.108428 34.330316
H 41.139039 37.939526 34.975340
H 40.989327 37.485559 33.321728
C 39.400906 36.860275 34.576022
O 38.973052 35.855773 35.052117
O 38.605692 37.842658 34.241345
H 39.073608 38.620261 33.885746
N 32.492103 46.945091 29.357798
H 33.291279 46.427527 29.084051
C 31.263218 46.251869 29.543489
C 31.304269 44.847967 28.925217
S 32.146516 43.564312 29.917208
C 33.831509 43.458934 29.218338
C 34.636184 42.569244 30.019058
C 35.964684 42.288454 29.826215
C 36.795486 41.613478 30.762330
C 36.473376 41.079880 32.026881
C 37.463309 40.543482 32.808897
C 38.845923 40.528589 32.407256
O 39.727246 40.011532 33.162118
C 39.138591 41.042237 31.109100
C 38.130879 41.568386 30.327199
C 38.233166 42.145246 28.935850
C 36.804390 42.638629 28.610980
H 36.776345 43.697903 28.394055
H 36.393016 42.137379 27.740855
H 38.550500 41.377518 28.237543
H 38.957721 42.952181 28.881795
H 40.159939 41.021341 30.769532
H 37.223077 40.131817 33.771822
H 35.458951 41.078518 32.380298
H 34.164220 42.198050 30.907382
O 34.132094 44.058573 28.225854
H 30.291384 44.487245 28.832347
H 31.755589 44.890450 27.944239
H 30.433874 46.765889 29.064379
C 30.876887 46.164370 31.014338
O 29.757418 45.968691 31.369055
H 32.598626 47.898806 29.554127
H 31.669303 46.297384 31.696351
H 45.526600 39.981716 36.592336
H 41.642513 35.079465 33.917787
