24
BDDEA-S0; source-exact B3LYP/aug-def2-TZVPP S0 optimized geometry from RSC SI Table S11
C 1.231205000 -0.028233000 -1.274308000
C 0.927034000 1.503308000 0.637696000
C 2.217025000 -1.023909000 -0.658482000
C 0.072892000 2.736032000 0.926009000
H 1.683180000 -1.828585000 -0.148989000
H -0.892939000 2.470916000 1.354371000
N 0.307895000 0.581749000 -0.312864000
C -0.777927000 -0.195060000 0.116404000
C -1.208034000 -0.262281000 1.390419000
C -1.529293000 -0.880674000 -0.961014000
H -0.690298000 0.215536000 2.208237000
C -2.063868000 -2.096281000 -0.876174000
H -1.651217000 -0.310121000 -1.878181000
H -2.642052000 -2.513698000 -1.690899000
H -1.935751000 -2.712169000 0.005706000
H -2.133481000 -0.766971000 1.622104000
H 0.588561000 3.390983000 1.632405000
H 2.846579000 -1.468499000 -1.433356000
H 1.868528000 1.832377000 0.194991000
H 0.642387000 -0.535487000 -2.039669000
H 1.194844000 0.997751000 1.575947000
H -0.106338000 3.296630000 0.007005000
H 1.774317000 0.778490000 -1.775018000
H 2.872512000 -0.538050000 0.067743000
