57
R52A locked-PYP QM-region S0-MIN; exact SI coordinates (QM(CASSCF)/MM)
C 44.815587 39.813600 35.776311
C 45.162855 39.071207 34.656647
H 46.106341 38.561231 34.608366
C 44.310261 38.984006 33.576941
H 44.587692 38.423634 32.704190
C 43.085083 39.641069 33.595425
O 42.303529 39.549203 32.528582
H 41.374292 39.789656 32.711258
C 42.724113 40.371990 34.724285
H 41.769658 40.863286 34.738359
C 43.589543 40.461785 35.795829
H 43.298216 41.052378 36.647592
C 41.732793 35.911191 34.615091
H 41.512319 35.546615 35.611377
H 42.768406 36.232137 34.615261
C 40.836937 37.099785 34.293733
H 41.115424 37.937728 34.927471
H 40.970711 37.466696 33.283070
C 39.365616 36.876414 34.532791
O 38.924704 35.887581 35.033483
O 38.588875 37.862452 34.173817
H 39.072778 38.628290 33.796143
N 32.511552 46.909734 29.277196
H 33.308026 46.369274 29.042248
C 31.282419 46.237730 29.512502
C 31.292929 44.819148 28.933500
S 32.173364 43.561484 29.917766
C 33.862122 43.524190 29.214998
C 34.708414 42.685870 30.027495
C 36.039637 42.415229 29.826244
C 36.878468 41.745619 30.764800
C 36.554888 41.218720 32.024330
C 37.535392 40.646213 32.787181
C 38.909282 40.570750 32.362814
O 39.760532 39.984352 33.115662
C 39.213204 41.116477 31.096669
C 38.209713 41.692160 30.319554
C 38.321600 42.331923 28.956455
C 36.872966 42.742718 28.599852
H 36.790480 43.783993 28.320369
H 36.494094 42.169563 27.759798
H 38.730107 41.645998 28.220871
H 38.979399 43.194916 28.975063
H 40.227558 41.054744 30.742395
H 37.291168 40.219911 33.743662
H 35.546495 41.245738 32.395129
H 34.252843 42.316711 30.925418
O 34.123877 44.140693 28.221306
H 30.274413 44.463907 28.891101
H 31.701189 44.837910 27.933165
H 30.454302 46.745733 29.025789
C 30.867440 46.188799 30.980716
O 29.736426 46.040678 31.311743
H 32.641384 47.857641 29.485036
H 31.642490 46.304786 31.685598
H 45.539073 39.973753 36.588519
H 41.619581 35.065076 33.902261
