16
TVA-S0; source-exact B3LYP/aug-def2-TZVPP S0 optimized geometry from RSC SI Table S11
C -2.190656000 0.311809000 1.115889000
C -1.302537000 0.026874000 0.163141000
H -1.933525000 0.689668000 2.091807000
H -3.234217000 0.123009000 0.907802000
H -1.665815000 -0.360432000 -0.780859000
N 0.094321000 0.118355000 0.177270000
C 0.846493000 0.671100000 1.223700000
C 0.507145000 1.657233000 2.052810000
H 1.818137000 0.200241000 1.321588000
H 1.209083000 1.956459000 2.818398000
H -0.422921000 2.199684000 1.989267000
C 0.777447000 -0.451837000 -0.903963000
C 2.076792000 -0.358243000 -1.192907000
H 0.129189000 -1.033208000 -1.547293000
H 2.458379000 -0.889066000 -2.052837000
H 2.777966000 0.236633000 -0.625660000
