24
BDVA-S0; source-exact B3LYP/aug-def2-TZVPP S0 optimized geometry from RSC SI Table S11
C 1.834778000 0.018019000 -0.275186000
C 0.559879000 1.975273000 0.138722000
C 2.130128000 -1.240835000 -0.614793000
C -0.497552000 2.776906000 0.310041000
H 1.414535000 -2.045717000 -0.658778000
H -1.511352000 2.431286000 0.452840000
N 0.629910000 0.586833000 0.121140000
C -0.577838000 -0.204615000 0.422827000
C -0.313887000 -1.272667000 1.490398000
C -1.254231000 -0.730151000 -0.857128000
H 0.172851000 -0.822258000 2.356738000
C -2.663178000 -1.283396000 -0.630308000
H -0.629655000 -1.495636000 -1.322205000
H -3.108665000 -1.594640000 -1.577240000
H -2.666111000 -2.154206000 0.027456000
H -1.259951000 -1.700601000 1.823844000
H -0.339496000 3.845803000 0.305398000
H 3.148502000 -1.476687000 -0.886589000
H 1.526463000 2.437509000 -0.030078000
H 2.633914000 0.750807000 -0.305944000
H -1.303686000 0.098427000 -1.569241000
H -3.321031000 -0.530674000 -0.187690000
H 0.316881000 -2.083739000 1.135024000
H -1.266042000 0.506982000 0.878537000
