35
PDHA-S0; source-exact B3LYP/aug-def2-TZVPP S0 optimized geometry from RSC SI Table S11
C -4.032779000 -1.734885000 -0.010155000
C -2.644404000 -1.735191000 -0.006794000
C -1.903712000 -0.556242000 -0.004768000
C -2.580784000 0.673575000 -0.006431000
C -3.985477000 0.673747000 -0.009373000
C -4.698884000 -0.515708000 -0.011313000
C -0.396768000 -0.625612000 -0.001159000
C -0.458504000 1.915296000 -0.000999000
C 0.281123000 0.721289000 0.001674000
C 1.671995000 0.787164000 0.005995000
H 2.230528000 -0.143128000 0.008036000
C 2.353946000 1.996201000 0.007651000
C 1.617995000 3.175163000 0.004671000
C 0.231238000 3.138469000 0.000393000
H -0.062494000 -1.201147000 0.870599000
H -4.583226000 -2.666762000 -0.011995000
H -2.108909000 -2.678873000 -0.005835000
H -4.522529000 1.610619000 -0.010444000
H -5.781853000 -0.482417000 -0.013922000
H 3.436463000 2.017197000 0.011249000
H 2.122354000 4.133878000 0.005867000
H -0.322699000 4.065894000 -0.002002000
N -1.865026000 1.885185000 -0.004872000
H -0.058198000 -1.199420000 -0.872409000
C -2.595264000 3.119603000 -0.015913000
C -2.954260000 3.708054000 -1.225643000
C -2.957346000 3.728895000 1.182512000
C -3.669357000 4.900521000 -1.236204000
H -2.670994000 3.225061000 -2.152290000
C -3.672006000 4.921684000 1.170168000
H -2.676750000 3.262027000 2.118192000
C -4.026308000 5.511006000 -0.038639000
H -3.946806000 5.353300000 -2.179990000
H -3.951757000 5.390782000 2.105257000
H -4.579049000 6.441937000 -0.047413000
