26
hexafluorinated diene 2; source-exact SA-3-CASSCF(4,4)/ANO-S-VDZP optimized geometry from Cox and Lopez ESI; E(CASSCF)=-1055.8126224143039 Eh
C -1.19616696 -0.76479943 -0.58527735
C -2.60224890 -0.83585764  0.02827159
C -2.63097196  0.72658123  0.15360359
C -1.22428931  0.80557585 -0.45770553
C -3.72335589 -0.76383329 -1.03193713
C -3.75099972  0.78335389 -0.90882105
H -4.64670199 -1.23589435 -0.70311642
H -3.46396631 -1.16233679 -2.01169283
H -4.68990795  1.16464922 -0.51310986
H -3.50774535  1.34049862 -1.81237748
H -1.01525571 -1.30308291 -1.51059419
H -1.06364347  1.49217699 -1.28324144
H -2.74127551 -1.51619474  0.86088634
H -2.79355873  1.25985354  1.08341677
C -0.05595431 -0.82217439  0.44649344
C  1.23259407 -1.40725393 -0.04669913
C  2.30327692 -0.66374247 -0.34450113
C  2.27691791  0.80036746 -0.21639578
C  1.18002485  1.44299914  0.19713129
C -0.08603696  0.73584660  0.57578439
F  1.23850628 -2.71868677 -0.17915725
F  3.41351810 -1.18199457 -0.81758432
F  3.36950396  1.43156830 -0.58126232
F  1.14073959  2.75685790  0.29617968
F -0.42294702  1.14452657  1.81973233
F -0.36812068 -1.44465200  1.60548082
