64
VERBATIM SI Table S21: W3043663772 complex 1, B3LYP/6-311G simplified ferromagnetic dimer geometry
Mn 0.0114851 -0.0282202 -0.0061654
O 0.0089976 -0.0091184 1.9849683
O -1.3288985 1.3736978 -0.0292265
O -1.4044633 -1.3833550 0.0316717
N 1.5958792 -1.3625547 -0.0516279
O 0.3685090 0.0779827 -2.1108432
N -1.2350644 0.0441012 2.6249977
N -2.4168981 1.2660747 0.8539751
N -2.4730811 -1.1754486 0.9077018
N 1.6814330 -2.5246725 -0.4530414
H 1.3304637 -0.0307687 -2.2970692
C -0.2770045 1.0118096 -3.0311236
C -1.9913607 1.2913253 2.2891111
C -2.0603326 -1.1717007 2.3455336
C -3.2485841 0.0559845 0.5751378
N 1.7970768 -3.6169699 -0.8299550
H -0.3544155 0.5583517 -4.0184649
H 0.2836058 1.9446804 -3.0824712
H -1.2635481 1.2064590 -2.6272915
C -3.2575982 1.3280266 3.1640317
H -1.3327278 2.1406286 2.4332003
C -3.3281099 -1.0987946 3.2172443
H -1.4494795 -2.0485559 2.5266487
C -4.4970547 0.1092583 1.4735438
H -3.4773391 0.0355162 -0.4843356
N -4.0980570 0.1308930 2.9034973
H -2.9760118 1.3463702 4.2151598
H -3.8312227 2.2243722 2.9363479
H -3.9515504 -1.9703225 3.0268142
H -3.0477612 -1.0882643 4.2689761
H -5.0709369 1.0059227 1.2477872
H -5.1184687 -0.7647908 1.2876958
O 3.1902275 0.0157555 -1.9153565
N 4.4274798 -0.0410924 -2.5679471
Mn 3.2046289 0.0355284 0.0747426
C 5.1845006 -1.2888684 -2.2356678
C 5.2566496 1.1742620 -2.2979640
O 2.8523682 -0.0754104 2.1814656
N 1.6210880 1.3671105 0.1284859
O 4.6215406 1.3905241 0.0215438
O 4.5443490 -1.3664227 0.0891308
N 5.6239918 -1.2612952 -0.8047354
C 6.4419451 -1.3294603 -3.1226723
H 4.5227886 -2.1372671 -2.3712804
C 6.5158901 1.0975006 -3.1815409
N 5.6819563 1.1796713 -0.8637290
H 4.6452924 2.0514798 -2.4752263
H 1.8937434 0.0539692 2.3670061
C 3.4632596 -1.0563760 3.0780321
N 1.5387136 2.5428257 0.4879883
C 6.4597544 -0.0516628 -0.5361666
N 7.2864898 -0.1329349 -2.8724913
H 6.1501145 -1.3495337 -4.1709905
H 7.0163855 -2.2261767 -2.8987542
H 7.1427022 1.9682998 -2.9990928
H 6.2250349 1.0853460 -4.2304135
H 3.5724278 -0.6248729 4.0722060
H 2.8578487 -1.9614642 3.1186119
H 4.4348920 -1.2904567 2.6586695
N 1.4269356 3.6474725 0.8276483
C 7.6992727 -0.1086553 -1.4467193
H 6.6988053 -0.0293331 0.5209539
H 8.2739257 -1.0057778 -1.2244614
H 8.3239680 0.7648022 -1.2691309
