68
VERBATIM SI Table S21: W3043663772 complex 2, B3LYP/6-311G simplified ferromagnetic dimer geometry
Mn 0.0011321 -0.0086682 0.0031608
O -1.3453975 1.3683844 -0.0263398
O -1.3385266 -1.3785110 0.0006078
O 1.5702189 -1.2494491 0.1152515
O -0.0042021 0.0208388 1.9746952
O 0.3045589 -0.1314647 -2.1099545
N -2.4503548 1.2304056 0.8452121
N -2.4552851 -1.2305697 0.8686215
C 1.5893002 -2.6244796 0.5462002
N -1.2551111 0.0235129 2.6182070
H 1.2673768 -0.0232734 -2.2963350
C -0.3411876 -1.0846081 -3.0050734
C -2.0434544 1.2490783 2.2826894
C -3.2391278 -0.0003188 0.5429242
C -2.0422660 -1.2102962 2.3061201
H 0.7960822 -3.1733028 0.0374696
H 1.4306694 -2.6905474 1.6260568
H 2.5603430 -3.0558181 0.3031976
H -0.4853788 -0.6315194 -3.9857000
H -1.2982991 -1.3264053 -2.5565928
H 0.2564031 -1.9925587 -3.0918166
C -3.3204161 1.2412708 3.1438301
H -1.4117698 2.1147365 2.4471394
C -4.5022121 0.0093616 1.4238713
H -3.4576614 -0.0078323 -0.5190355
C -3.3189519 -1.1846147 3.1687191
H -1.4102197 -2.0714582 2.4909593
N -4.1242156 0.0246997 2.8606087
H -3.0515992 1.2551215 4.1986923
H -3.9162081 2.1237720 2.9184439
H -5.0964596 0.8935658 1.2010629
H -5.0968278 -0.8791784 1.2202497
H -3.9138861 -2.0723548 2.9628194
H -3.0486192 -1.1758172 4.2232187
H 1.8187399 0.0242833 2.3258724
O 2.7815826 0.1322039 2.1394455
C 3.4278568 1.0846971 3.0348629
Mn 3.0850580 0.0093770 0.0263473
H 3.5719908 0.6311542 4.0152882
H 4.3850103 1.3262702 2.5863510
H 2.8306764 1.9928754 3.1220563
O 4.4316002 -1.3676755 0.0558211
O 4.4247340 1.3792025 0.0289970
O 3.0904247 -0.0200396 -1.9451854
O 1.5159418 1.2501354 -0.0858088
N 5.5365625 -1.2296600 -0.8157138
N 5.5414993 1.2313069 -0.8390049
N 4.3413460 -0.0226814 -2.5886650
C 1.4968077 2.6253370 -0.5161989
C 5.1296823 -1.2482651 -2.2531990
C 6.3253411 0.0010427 -0.5133615
C 5.1285000 1.2111107 -2.2765082
H 2.2884313 3.1746232 -0.0054766
H 1.6578369 2.6919826 -1.5956649
H 0.5248809 3.0557992 -0.2751739
C 6.4066543 -1.2404170 -3.1143251
H 4.4979966 -2.1139134 -2.4176970
C 7.5884337 -0.0085950 -1.3942955
H 6.5438661 0.0085039 0.5486006
C 6.4051931 1.1854717 -3.1390954
H 4.4964575 2.0722848 -2.4613015
N 7.2104520 -0.0238604 -2.8310371
H 6.1378480 -1.2542174 -4.1691906
H 7.0024437 -2.1229294 -2.8889753
H 8.1826784 -0.8928109 -1.1715255
H 8.1830483 0.8799342 -1.1906227
H 7.0001275 2.0732000 -2.9331455
H 6.1348714 1.1767273 -4.1935981
