64
VERBATIM SI Table S21: W3043663772 complex 3, B3LYP/6-311G simplified ferromagnetic dimer geometry
Mn 0.0956659 -0.0219375 0.1950275
O 1.7308743 -1.3473292 0.0599706
O 4.0286407 -1.3608049 -0.0199843
O 0.3273133 0.0209789 -1.9315595
O -1.2771683 1.3659537 0.0689510
O -1.3075176 -1.3985557 0.0733346
O -0.1078246 -0.0369290 2.1596208
O 4.0586840 1.2934429 0.1949769
O 1.7614321 1.3086057 0.2817138
C 2.8890013 -0.7951521 0.0700360
C 2.8994977 0.7412374 0.1934235
N -2.4368243 1.2180914 0.8335028
N -2.4578916 -1.2251041 0.8364557
N -1.4006129 -0.0190828 2.6647812
Mn 5.6734983 -0.0064213 -0.1879072
O 7.0742628 -1.3650788 -0.3318109
O 5.4742943 0.0046124 -2.1492704
O 5.8200431 -0.0385463 1.9317903
O 7.0583993 1.3898821 -0.3505552
N -4.2825656 0.0164207 2.6938415
C -3.2198079 0.0021614 0.4526467
C -4.5462681 0.0175803 1.2323837
H -5.1135260 0.9092448 0.9717825
H -5.1326909 -0.8623584 0.9742339
C -2.1501878 1.2229278 2.3024030
C -3.4916325 1.2199388 3.0568253
H -3.3085292 1.2175612 4.1297991
H -4.0583748 2.1123699 2.7978420
C -2.1804764 -1.2422719 2.3056449
C -3.5218487 -1.2057010 3.0585684
H -4.1103171 -2.0841850 2.8000743
H -3.3394135 -1.2070617 4.1316759
H 0.7616802 -0.7305812 -2.3612463
C 0.0484109 1.1499821 -2.8209624
H -0.5622068 0.8209004 -3.6612480
H 0.9796782 1.5944861 -3.1686337
H -0.5041973 1.8597327 -2.2162325
H -3.3415935 0.0000360 -0.6244474
H -1.5181941 2.0759096 2.5208720
H -1.5705517 -2.1108878 2.5254060
N 9.4506171 0.0115412 -3.5312968
N 8.0488015 -1.2070632 -1.3212205
C 8.8766046 0.0217927 -1.1164251
C 10.0111032 0.0224850 -2.1558523
H 10.6340930 -0.8590397 -2.0164729
H 10.6239298 0.9127016 -2.0266837
N 8.0280150 1.2326831 -1.3347819
C 7.4654432 -1.2249445 -2.6993973
C 8.6197223 -1.2071696 -3.7158433
H 8.2166602 -1.2150835 -4.7268711
H 9.2428962 -2.0886891 -3.5773873
N 6.6376343 0.0029287 -2.9071003
C 7.4545425 1.2391673 -2.7152691
C 8.6097524 1.2210697 -3.7296179
H 9.2254375 2.1092753 -3.5999367
H 8.2078944 1.2152403 -4.7411824
H 5.3649214 0.6601955 2.4244955
C 6.3060677 -1.1463541 2.7568023
H 6.9851885 -0.7705446 3.5212512
H 5.4686868 -1.6769127 3.2074298
H 6.8377416 -1.7982355 2.0730949
H 9.2226282 0.0324788 -0.0892136
H 6.8155608 -2.0887251 -2.7797831
H 6.7981713 2.0971349 -2.8050600
