13
2-furoylazide syn-1-S0 | VERBATIM CASSCF/6-31G* Cartesian coordinates from RSC ESI pp. S23-S24 for DOI 10.1039/d0cp05539e | angstrom
C -2.886262  0.395057 -0.000355
C -2.773246 -0.943941  0.000054
C -1.364973 -1.206915  0.000437
C -0.768146 -0.000929 -0.000169
H -3.729328  1.051062 -0.000528
H -3.571073 -1.656498  0.000281
H -0.874003 -2.156803  0.001001
C  0.641926  0.408793 -0.000940
O  1.016454  1.548263 -0.006264
O -1.687568  0.980443 -0.000659
N  1.503738 -0.704170  0.004990
N  2.708830 -0.401512  0.002051
N  3.836111 -0.271215 -0.000185
