13
3-furoylazide 5-S0 | VERBATIM CASSCF/6-31G* Cartesian coordinates from RSC ESI p. S31 for DOI 10.1039/d0cp05539e | angstrom
C -2.691790 -0.958463  0.000808
C -1.381472 -1.202676 -0.000541
C -0.749385  0.104016 -0.000663
C -1.765270  1.000955 -0.000060
H -3.546567 -1.598969  0.001302
H -0.898246 -2.156075 -0.001314
H -1.784078  2.067861 -0.000113
O -2.948704  0.366127  0.000027
C  0.677818  0.453651  0.000225
O  1.093175  1.581632 -0.000530
N  1.514751 -0.678882  0.000302
N  2.728281 -0.419862  0.000447
N  3.849241 -0.361586  0.000401
