63
VERBATIM from Table S8 of d1dt01944a1.pdf (SHA256 76bd2cdb256d274b4a7aeed103baf970b7eb55de57d7fbf221178d7784254265): experimental X-ray geometry with only H positions optimized at BP86
Tb 10.60947042051786 8.13640733843592 2.38405082876606
V  12.58687173887926 9.59674449918716 -0.08240522537432
O  10.96818563792711 10.01205037220605 0.97579696375244
O  12.04347331096572 7.77430761039490 0.52020248117289
O  13.77488081761629 9.95462788955077 0.90344839856378
O  10.93458128411027 9.28582215046200 -1.68355556775034
H  11.10114876117609 8.52700046342021 -2.27324387389638
H  10.15455522863361 9.00014508732195 -1.15516090762408
O  8.93636600928995 10.01825525213805 2.57425148872587
O  11.16504626502937 5.73375338765614 1.86618973051959
O  11.82760145717940 9.78453945451218 3.69710825052842
O  13.95557608301026 9.74364065345853 4.12487954864301
O  12.94203107980828 8.04697370029137 3.21153629229587
O  10.11994982893973 7.15979308635356 6.45447679895697
O  9.55779160187337 8.44722640109629 4.82713510998793
O  8.46685421045309 7.03036914379827 2.38519693121791
O  9.16047622322216 7.60078452745768 0.43546329258335
O  7.23395923218609 6.62398902228983 0.65873428345799
O  10.70769105967172 6.77562205941553 4.42760757996823
N  12.55869799479536 11.49828781918787 -0.92560835664059
N  13.74363730074898 8.72814531120795 -1.58284576746316
N  8.25232374091829 7.06815894446835 1.13116962728093
N  12.94709908992024 9.20634939294280 3.69644914961661
N  10.12556318733224 7.46651453671681 5.27612872494844
C  10.34984064693852 11.18645184557174 1.12168993750443
C  9.25168878697171 11.24132009159437 1.98619513821776
C  8.56538012638195 12.41322076187340 2.20332494724978
H  7.72136421442534 12.43829429223334 2.89953559720608
C  8.95525110156146 13.56751639248204 1.54499832576240
H  8.41163743610460 14.50148845104068 1.73054998723636
C  9.98992958550522 13.53640466446730 0.67163140776792
H  10.29106224654906 14.44594508784914 0.13544601817996
C  10.70873436753029 12.35094025875683 0.43239720973687
C  11.77791113680300 12.43154684683951 -0.53813123316909
H  11.90090247965155 13.43556299736757 -0.98797825644513
C  13.58684941335132 11.88701219510958 -1.91397765262706
H  13.29399889188614 12.85805518852145 -2.36157915157416
H  14.52875787475677 12.06894826331298 -1.35542448173818
C  13.79394926553439 10.87318486012291 -2.94097503825522
H  14.39179662009941 11.32063654120680 -3.75936928179392
H  12.83786462099003 10.56072504197610 -3.40366918994991
C  14.56812994648617 9.67560905388325 -2.43943926300894
H  15.41381550534469 10.00578987973516 -1.80533693632662
H  14.99032166964048 9.09132456808415 -3.28093278984932
C  14.02897907263228 7.48883633305668 -1.63990968905563
H  14.76771586384887 7.15858307131227 -2.39816086317211
C  13.55626309598694 6.42257698140179 -0.78313239092212
C  13.66186405902272 4.06605267038550 -0.25841913210488
H  14.09616170849489 3.07398456458520 -0.43193529996089
C  12.68132407697502 4.21558455342799 0.69796192113080
H  12.33950683814960 3.35326625673787 1.27785942807851
C  12.15455404976351 5.46690120115804 0.92877755297021
C  12.58051635223555 6.59578794058226 0.22430602159525
C  7.58770994190197 9.91533146068190 3.11687785709504
H  6.85538601656681 10.22621324194640 2.35107990592265
H  7.49698170049888 10.53104538997256 4.02751446640196
H  7.45160558412872 8.85936444587548 3.38388565086954
C  10.43302854414510 4.57928888516873 2.37609802621262
H  11.08859703370873 3.96808489322838 3.01922994033004
H  10.03847090177568 3.98797573606949 1.53121175461829
H  9.61510936017361 4.98972891690520 2.98199641646641
C  14.08773810320594 5.13231861203525 -0.99795080978968
H  14.85467319606783 5.00023645947011 -1.77216683304753
