63
VERBATIM from Table S8 of d1dt01944a1.pdf (SHA256 76bd2cdb256d274b4a7aeed103baf970b7eb55de57d7fbf221178d7784254265): experimental X-ray geometry with only H positions optimized at BP86
Dy 9.82817962583761 8.13119197828618 7.30984530938112
V  11.83217918839269 9.53108473126220 4.84125349456290
C  11.77663776953551 6.54869164276579 5.16316565906655
C  11.33517809158155 5.43336257447515 5.89817219364560
C  11.85969383528148 4.17379302216061 5.70646949424462
H  11.50767840907331 3.32590644144968 6.30107149878074
C  12.86903075384630 3.99139869786682 4.75983909898466
H  13.30741489854448 2.99680907271023 4.61898109795154
C  13.30364081153832 5.05598398810682 4.00698221910849
H  14.08141874221712 4.91157873809076 3.24575539469754
C  12.75780550798398 6.34749275480809 4.17801316540565
C  13.22605287170166 7.38540903344612 3.27971368840816
H  13.96294640384970 7.04205078089739 2.52688090152707
C  13.81798156632948 9.59175662985697 2.47567214208546
H  14.67031435583718 9.86233182558228 3.12725504912770
H  14.21143603797143 9.00444636468932 1.62352659251129
C  13.08659911310343 10.81976593782521 2.01032673441955
H  13.69131185146914 11.25316858043456 1.18803761376271
H  12.11772622603922 10.54793161621253 1.54748717911231
C  12.92332710713639 11.82249070966266 3.03432708774848
H  12.65452179707334 12.80688249243010 2.60194773071979
H  13.87014004314462 11.97133725712544 3.59455429551019
C  11.11430339607168 12.39370122118419 4.39946571115726
H  11.26284063808311 13.39659835982472 3.95537201447543
C  10.02191204019389 12.33125260428426 5.35088672978890
C  9.29180023317513 13.52158438838264 5.54591229805790
H  9.60861863452372 14.42521852282682 5.00918065411792
C  8.21321257598068 13.55931265757517 6.38077748060944
H  7.65912967747111 14.49361314786790 6.52935281442095
C  7.79962147129617 12.40793500568131 7.05042251857141
H  6.92831165860273 12.44437099836852 7.71084209451062
C  8.49909612559017 11.23330674842463 6.87427057541482
C  9.63122087189632 11.17323632141091 6.04222360766149
C  9.61609171884385 4.58525998522468 7.35905297810302
H  9.23544860349587 3.95860032358811 6.53327966867089
H  8.78584062130699 5.00274114923422 7.94285492564814
H  10.27423777576137 4.00520563235430 8.02815067746503
C  6.80424478818182 9.93645073549150 7.95780721872849
H  6.69367314492886 10.56691745934608 8.85619175405568
H  6.65037259216670 8.88684426970462 8.23975821852206
H  6.09546674944825 10.24239173006853 7.16808501437836
N  12.93804901592471 8.63322417091579 3.32752673175395
N  11.88311783720499 11.44463295800977 4.02178420340330
N  7.46160590604274 7.07501054730623 6.10860854565572
N  9.27621494682733 7.47011659895749 10.16362128732239
N  12.16049050202983 9.18088918986665 8.59854456911457
O  11.22316873445755 7.73042207451074 5.43411576088598
O  10.24934119131428 9.99154171543958 5.93000845072385
O  10.20128977355990 9.31220493138461 3.25337913966400
O  13.04818983601155 9.83230780953903 5.82331116066720
O  10.33322351043367 5.72763169845692 6.81597109000383
O  8.16411017322108 10.01902817486349 7.45191021303936
O  8.35940127689335 7.59236704993407 5.39155881115608
O  7.70363380873644 7.03889555363387 7.37173422405762
O  6.41753386171151 6.63821598579704 5.66045985893902
O  9.99181294647297 6.81592153268537 9.34650456203030
O  8.64593586304024 8.44729911806959 9.70759792847742
O  9.21928121698564 7.13505779263971 11.35462344543094
O  10.99990146231621 9.71941158160318 8.69179078131124
O  12.18697583282354 8.04207267674152 8.04427059854779
O  13.15619906978699 9.73637511205781 9.02125719926378
H  10.36404729756046 8.55473700471149 2.66067344167432
H  9.39949361213803 9.04502559188742 3.75699440175707
