63
VERBATIM from Table S8 of d1dt01944a1.pdf (SHA256 76bd2cdb256d274b4a7aeed103baf970b7eb55de57d7fbf221178d7784254265): experimental X-ray geometry with only H positions optimized at BP86
Er 4.43336607130122 7.81030530400441 2.78047291420480
V  2.43160067202685 9.41904537554727 5.06354386783605
O  4.09327159857136 9.72072569009611 4.03840530113895
O  2.91801135533878 7.57333430125829 4.51722418897326
O  6.07284905579019 9.60087055774205 2.38984628052661
O  3.81092751621486 5.49128056553736 3.26055038348932
O  2.21814088822485 7.58707549526519 1.81983636726380
O  3.32199779563541 9.35709591959302 1.32796446201846
O  5.76581297516685 7.38571289142119 4.77798504620680
O  6.52116073803832 6.68583701121407 2.90861748405090
O  4.96217758853557 6.91807596786917 0.78434445654104
N  2.20441802081907 8.73164537422782 1.27012636974625
N  6.68884440936070 6.79684084565644 4.17466189937863
O  1.28956956332659 9.80525045274262 4.03205029789821
O  4.01821366432477 9.03779753347649 6.69768092470960
N  2.55653026659083 11.33854172176684 5.86187037444465
N  1.17379235796841 8.64265613663941 6.53958005136832
C  4.74618674584100 10.87761136698346 3.82953796509621
C  2.38911383596480 6.41069406262651 4.88267059174854
C  5.81578252479276 10.84537499442285 2.91947200364506
C  7.38120023526442 9.42718292297423 1.78564443400392
C  2.83692128581905 5.25142362446250 4.23006479295079
C  4.48860690083445 4.33960098559747 2.73678337392580
N  4.87206779361766 7.36826082769295 -0.36912593595784
O  1.23441370051335 9.21514616317975 0.73258005056980
O  7.67997496119752 6.39326267896436 4.70766658926515
H  4.79841256174619 8.69496183513507 6.20047226924026
H  3.81107187136024 8.31695849522244 7.32088005902956
C  3.38536645727207 12.21868178475556 5.46227390630246
C  1.53273707173685 11.78307565077784 6.83540836369434
C  0.42300092983968 9.58729741311357 7.40855892466232
C  0.92092129424090 7.39546310858109 6.67700635783851
C  4.42686464529330 12.07176756896354 4.47311273843395
C  1.42345322637486 6.28453556082865 5.90800101120361
C  6.52558440018592 12.00529003600990 2.63951246537146
H  8.16377576320499 9.71832556230401 2.50850177698314
H  7.45120011525118 10.01828301038048 0.85760124173052
H  7.45760234736478 8.36201264204550 1.53082938543679
C  2.32961220954929 4.00627277862449 4.53663873831840
H  5.26323744981049 4.72435411177368 2.05899799152148
H  3.78688968492348 3.70788347374164 2.16343277459015
H  4.95190252085168 3.76059742199853 3.55610939057573
O  5.74836332001179 8.08033843617618 -0.82762908404192
O  3.86972810305150 7.29632355678858 -1.08220637956279
H  3.31833309526229 13.23499826258124 5.89731759944241
H  0.60930168567676 12.00843501166906 6.26319107594014
H  1.86722927204686 12.73094505582865 7.30126228812238
C  1.24459437483268 10.75182593891758 7.88353449495421
H  0.00711715672167 9.02557283315316 8.26880718042083
H  -0.43858754091519 9.95532604210293 6.81453242722780
H  0.19716106638073 7.10107082338154 7.46353460384788
C  5.17610257379407 13.22564371750241 4.17476761210672
C  0.92020713919788 5.00517321787051 6.19372767831727
H  7.34802683339037 11.98327797261541 1.91722009193619
C  6.18823317290737 13.18235453079939 3.26286990948148
C  1.35467736456864 3.89825771384967 5.52338877725651
H  2.67840897060372 3.11362997809947 4.00884760329271
H  0.66862409885810 11.24789613641184 8.68924581592662
H  2.18508426205845 10.40710357871145 8.35557436004418
H  4.92178831872008 14.16610379423142 4.68018050756735
H  0.15802172939104 4.90569408263936 6.97831088328616
H  6.75250338494894 14.09281168530454 3.02689030043618
H  0.93933654840652 2.91203840614738 5.76154032402169
