51
[Mn(EDTA)(H2O)]2-·5H2O; verbatim M11/Def2-TZVPP PCM coordinates from ESI Table S1
O 2.261552 -0.721128 1.366625
O 3.750417 -2.382156 1.260291
O 2.701827 3.027558 -1.478846
O 1.004032 1.892436 -0.575313
O -0.271492 -2.128191 0.636871
O -1.986805 -3.529899 0.378332
O -1.692816 1.014165 0.145010
O -2.735047 2.265054 -1.378289
N -0.825286 -0.766197 -1.630219
N 2.059633 -0.496606 -1.281584
C 0.130306 -1.424389 -2.523239
H 0.307937 -2.429204 -2.122554
C 1.447073 -0.666505 -2.601325
H 1.272186 0.334416 -3.012327
C 2.714200 -1.691634 -0.769513
H 2.066552 -2.560406 -0.932371
H 3.676891 -1.891989 -1.263209
C 2.944708 -1.603146 0.748077
C 2.937936 0.667941 -1.258319
H 3.592876 0.605968 -0.382152
H 3.577375 0.724281 -2.150713
C 2.158356 1.984288 -1.111716
C -1.823014 -1.706192 -1.137159
H -2.700047 -1.155887 -0.778487
H -2.171675 -2.393118 -1.922380
C -1.313942 -2.531843 0.054628
C -1.424692 0.445541 -2.165613
H -0.658609 1.053647 -2.657477
H -2.215883 0.242340 -2.902996
C -2.005078 1.314762 -1.042782
O 0.078029 0.976752 2.364094
H 0.814200 0.891704 2.998369
H -0.080157 1.926290 2.169650
O -0.176083 3.518449 1.339225
O 2.350885 0.298522 3.823724
H 0.196262 3.097478 0.539095
H -1.116903 3.699795 1.151311
H 2.259978 -0.327676 4.545952
H 2.464222 -0.219287 2.991011
Mn 0.349857 -0.025432 0.356829
O -3.320702 -0.446996 1.958325
H -2.778018 0.074732 1.344189
H -3.787519 -1.123495 1.441748
O -4.544749 -2.659550 0.602988
O -2.886507 3.942854 0.741727
H -2.912637 3.324878 -0.029374
H -3.163619 4.805744 0.424201
H -5.038675 -2.637864 -0.220202
H -3.690788 -3.112296 0.425163
H -0.286421 -1.549908 -3.535185
H 2.130157 -1.180626 -3.295716
