55
[Mn(L1)(H2O)]2-·5H2O; verbatim M11/Def2-TZVPP PCM coordinates from ESI Table S2
O 2.122059 0.345133 1.722947
O 3.890679 -0.751677 2.525078
O 2.593410 2.323780 -2.459712
O 0.935342 1.591560 -1.161243
O -0.297858 -1.577165 1.421157
O -1.876074 -3.130765 1.645132
O -1.812036 0.996554 -0.105930
O -3.155839 1.526241 -1.804123
N -0.884104 -1.217005 -1.296804
N 2.274956 -0.826038 -0.685456
C 3.019758 -1.430459 0.417030
H 2.535849 -2.369840 0.704482
H 4.056925 -1.663208 0.135921
C 3.032401 -0.544825 1.664222
C 2.989071 0.338771 -1.222901
H 3.632624 0.755940 -0.441182
H 3.640544 0.057719 -2.060454
C 2.103420 1.513604 -1.671311
C -1.764559 -2.018014 -0.440324
H -2.724760 -1.503554 -0.318387
H -1.988469 -2.992282 -0.895311
C -1.261551 -2.267697 0.990151
C -1.658620 -0.286531 -2.111219
H -1.002567 0.194000 -2.842617
H -2.463179 -0.788692 -2.668126
C -2.265421 0.835559 -1.273736
O -0.235731 1.865323 1.924236
H 0.460532 2.119331 2.550736
H -0.421566 2.632437 1.348366
O -0.433949 3.800475 -0.063719
O 2.005875 2.200397 3.629954
H -0.036042 3.114201 -0.626236
H -1.384151 3.837281 -0.273340
H 1.931069 1.852637 4.519970
H 2.206037 1.439399 3.035977
Mn 0.294441 0.218254 0.388705
O -3.468715 0.164837 2.054448
H -2.892169 0.464267 1.334883
H -3.861338 -0.677403 1.783724
O -4.507395 -2.471346 1.522972
O -3.207922 3.879922 -0.498695
H -3.277041 3.009809 -0.958910
H -3.565908 4.540457 -1.093879
H -4.963196 -2.784678 0.740179
H -3.615030 -2.875781 1.522152
C 2.049787 -1.824353 -1.737165
C -0.063004 -2.081286 -2.151523
C 0.989701 -2.880413 -1.352627
C 1.094556 -1.328317 -2.841825
H 0.989368 -0.249540 -2.957489
H 1.336809 -1.774271 -3.807650
H 0.795747 -3.017801 -0.288472
H 1.199330 -3.845086 -1.817107
H -0.709266 -2.674702 -2.814251
H 3.014858 -2.218085 -2.087428
