13
W4212921029-a PhSO radical 1-D0; source-verbatim CASSCF coordinates from DOI 10.1039/d1cp05331k ESI p. S18
C   1.693910   1.332507   0.000017
C   0.321445   1.117741   0.000015
C  -0.159315  -0.186540  -0.000003
C   0.719939  -1.266914  -0.000019
C   2.088261  -1.032434  -0.000016
C   2.570435   0.263198   0.000002
H   2.072490   2.337703   0.000031
H  -0.366170   1.940991   0.000026
H   0.345779  -2.275118  -0.000032
H   2.770239  -1.862194  -0.000028
H   3.630083   0.439638   0.000004
S  -1.915531  -0.533965  -0.000008
O  -2.663557   0.809654   0.000018
