22
DHNA S0-ENOL; source-verbatim SA2-CASSCF(10,8)/6-31G* geometry from publisher SI section 3
C  -1.0356597000  -0.2118795100   3.8011921400
C  -0.6833390800  -0.7976560400   2.6501181600
C  -1.0361013200  -0.2040704900   1.3903378900
C  -1.7671155200   1.0184448300   1.3565637000
C  -2.1245848900   1.6124903700   2.6254360500
C  -1.7720650100   1.0195370300   3.8050393200
H  -0.1101565000  -1.7489960400   0.2123591400
H  -0.7729101700  -0.6540288500   4.7464417800
H  -0.1317650100  -1.7199879800   2.6453541800
C  -0.6614542800  -0.8270116700   0.1777467400
C  -2.1063624800   1.5894675400   0.0845095400
C  -1.7233059600   0.9523104600  -1.0797341600
C  -1.0015640500  -0.2547376500  -1.0332614900
H  -1.9912275100   1.4030711400  -2.0163107900
H  -0.7144895700  -0.7321074300  -1.9526343700
O  -2.8063969800   2.7527431500   2.5876672400
H  -2.9918043000   3.0601689700   3.4793891000
O  -2.7959989300   2.7431381300  -0.0640819300
H  -3.0226538900   3.1197062000   0.7744584400
C  -2.1402225800   1.6314119600   5.0859171900
H  -1.8178182400   1.0896617300   5.9763229200
O  -2.7539042300   2.6572554000   5.2108117400
