12
4MTT S0 minimum; source-verbatim CASSCF(12e,9o)/cc-pVDZ coordinates from SI Table S6
C   0.45490073   1.31869935   0.03582096
C  -0.23451930  -0.79246530   0.00423140
C  -2.02271820   0.98389392  -0.00940020
N  -0.65442160   0.50878365   0.00883840
N   1.47793492   0.42052945   0.04563403
N   1.05745911  -0.89703800   0.02625257
S   0.53120189   2.96874506   0.05217782
H  -0.90621520  -1.63119360  -0.01573990
H   2.44719002   0.63772897   0.06625092
H  -2.22081850   1.58480666   0.87527623
H  -2.19498400   1.59353923  -0.89354990
H  -2.68740960   0.12298192  -0.02334140
