24
anthracene C14H10; source-verbatim SI S9 S0 SA3-DMRG-CASSCF(14,14) geometry optimized with M=256; coordinates in angstrom
C  3.66985239  0.71730079  0.00000038
C  3.66985330 -0.71729810 -0.00000021
C  2.48824400  1.40876102  0.00000013
C  2.48824783 -1.40876278  0.00000050
C  1.22552894  0.71650508 -0.00000034
C  1.22553011 -0.71650957 -0.00000016
C -0.00000245  1.40181122 -0.00000013
C -0.00001333 -1.40181323 -0.00000051
C -1.22552700  0.71651065  0.00000029
C -1.22552462 -0.71651030 -0.00000028
C -2.48825182  1.40876150  0.00000049
C -2.48824914 -1.40875922  0.00000056
C -3.66984206  0.71730297  0.00000043
C -3.66983893 -0.71730187 -0.00000013
H  4.61194716  1.24949583 -0.00000003
H  4.61194925 -1.24949127 -0.00000088
H  2.48741543  2.49113555 -0.00000005
H  2.48742321 -2.49113733  0.00000079
H  0.00000004  2.48448652  0.00000002
H -0.00001540 -2.48448849 -0.00000007
H -2.48742586  2.49113642 -0.00000013
H -2.48742382 -2.49113409  0.00000049
H -4.61194074  1.24949196 -0.00000007
H -4.61193648 -1.24949327 -0.00000111
