36
pentacene C22H14; source-verbatim SI S9 S0 SA3-DMRG-CASSCF(22,22) geometry optimized with M=256; coordinates in angstrom
C  6.13509793  0.72177625  0.00000084
C  6.13510704 -0.72176899  0.00000053
C  4.95896303  1.41307511  0.00000565
C  4.95898029 -1.41308249  0.00000352
C  3.68666188  0.72278864 -0.00000183
C  3.68666991 -0.72280655 -0.00000167
C  2.47644735  1.40644954 -0.00000157
C  2.47645191 -1.40647570 -0.00000285
C  1.22902819  0.72090185  0.00000307
C  1.22901547 -0.72091199  0.00000001
C  0.00001752  1.40639646  0.00000164
C -0.00000862 -1.40639228  0.00000010
C -1.22901278  0.72091623  0.00000146
C -1.22902622 -0.72090082  0.00000136
C -2.47644493  1.40647910 -0.00000005
C -2.47644064 -1.40645328 -0.00000036
C -3.68667871  0.72281411  0.00000056
C -3.68667164 -0.72279731  0.00000160
C -4.95897205  1.41308162  0.00000392
C -4.95895578 -1.41307675  0.00000833
C -6.13512347  0.72175627 -0.00000261
C -6.13511533 -0.72176728  0.00000496
H  7.07861388  1.25133986 -0.00000634
H  7.07862948 -1.25132092 -0.00000671
H  4.95893206  2.49540216  0.00000581
H  4.95896089 -2.49540949  0.00000278
H  2.47649561  2.48893897 -0.00000201
H  2.47649823 -2.48896473 -0.00000330
H  0.00002497  2.48876309 -0.00000041
H -0.00001411 -2.48875907 -0.00000144
H -2.47649037  2.48896816 -0.00000022
H -2.47648439 -2.48894257 -0.00000098
H -4.95895885  2.49540829  0.00000285
H -4.95892950 -2.49540350  0.00000391
H -7.07864128  1.25131553 -0.00001442
H -7.07862696 -1.25133750 -0.00000610
