22
all-trans-(C8H9)CH2OH; source-verbatim SI S10 B3LYP/6-31G(d) geometry used for SA3-DMRG-CASSCF(8,8) single-point tests; coordinates in angstrom
C -0.795817  5.485024  0.000000
C -1.237757  4.215486  0.000000
C -0.384210  3.046285  0.000000
C -0.840472  1.769304  0.000000
C  0.000000  0.599321  0.000000
C -0.462161 -0.675875  0.000000
C  0.382697 -1.849329  0.000000
C -0.083561 -3.110944  0.000000
C  0.768429 -4.342465  0.000000
O  2.143121 -3.991059  0.000000
H  0.266730  5.717763  0.000000
H -1.479788  6.328057  0.000000
H -2.312427  4.028806  0.000000
H  0.692268  3.222706  0.000000
H -1.918517  1.599670  0.000000
H  1.078057  0.765713  0.000000
H -1.540738 -0.842331  0.000000
H  1.459382 -1.693482  0.000000
H -1.158293 -3.295192  0.000000
H  0.513467 -4.956741  0.884046
H  0.513467 -4.956741 -0.884046
H  2.658538 -4.810591  0.000000
