30
tetracene C18H12; source-verbatim SI S9 S0 SA3-DMRG-CASSCF(18,18) geometry optimized with M=256; coordinates in angstrom
C  4.90193589  0.72040398  0.00000029
C  4.90194259 -0.72040289 -0.00000259
C  3.72426691  1.41165382 -0.00000035
C  3.72428016 -1.41166291 -0.00000043
C  2.45491663  0.72060101  0.00000036
C  2.45492105 -0.72061462  0.00000178
C  1.24002477  1.40466364  0.00000090
C  1.24002610 -1.40467873  0.00000215
C  0.00001023  0.71825057  0.00000103
C -0.00000761 -0.71824859  0.00000142
C -1.24002146  1.40467943  0.00000136
C -1.24002087 -1.40466340  0.00000130
C -2.45492388  0.72061882  0.00000144
C -2.45491997 -0.72060543 -0.00000035
C -3.72427105  1.41166336  0.00000019
C -3.72426037 -1.41165597 -0.00000107
C -4.90195444  0.72039510 -0.00000030
C -4.90194904 -0.72039711 -0.00000200
H  5.84503264  1.25075515 -0.00000036
H  5.84504414 -1.25074545 -0.00000280
H  3.72390450  2.49399490 -0.00000180
H  3.72392474 -2.49400388 -0.00000031
H  1.23975741  2.48719192  0.00000066
H  1.23975262 -2.48720660  0.00000155
H -1.23974706  2.48720736  0.00000035
H -1.23975058 -2.48719171  0.00000195
H -3.72391872  2.49400397 -0.00000058
H -3.72390067 -2.49399664 -0.00000060
H -5.84505202  1.25074378 -0.00000027
H -5.84504265 -1.25075289 -0.00000291
