18
naphthalene C10H8; source-verbatim SI S9 S0 SA3-DMRG-CASSCF(10,10) geometry optimized with M=256; coordinates in angstrom
C  2.44007530  0.71117017 -0.00000088
C  2.44007533 -0.71117010  0.00000092
C  1.24962480  1.40316403 -0.00000021
C  1.24962496 -1.40316430  0.00000078
C  0.00000018  0.71087595 -0.00000014
C -0.00000023 -0.71087607  0.00000008
C -1.24962480  1.40316429  0.00000048
C -1.24962482 -1.40316419 -0.00000053
C -2.44007541  0.71117023  0.00000111
C -2.44007538 -0.71117012 -0.00000109
H  3.38004689  1.24721491 -0.00000139
H  3.38004698 -1.24721475  0.00000071
H  1.24848642  2.48568431  0.00000003
H  1.24848675 -2.48568457  0.00000027
H -1.24848645  2.48568456  0.00000016
H -1.24848653 -2.48568446  0.00000011
H -3.38004701  1.24721493  0.00000096
H -3.38004698 -1.24721483 -0.00000139
