102
Source-verbatim SA-CASSCF(10,10)/AMBER QM-region S0-Min (Reactant 1); RSC ESI d3cp00838j1.pdf
Ag 10.465708954 1.433454086 3.800538831
Ag 10.177832086 5.581771359 5.519742261
C 6.341319415 2.662291819 4.289629829
H 5.829279994 3.570754258 4.010721071
C 7.675439449 2.522378736 3.973546237
H 8.206458552 3.315511470 3.457359120
N 8.394523119 1.406427882 4.307814487
C 7.724270496 0.390089825 4.923781901
H 8.309721565 -0.502000314 5.129655902
C 6.388403860 0.478364898 5.268495883
H 5.912238582 -0.362678682 5.752696722
C 5.675849867 1.645600356 4.981944688
C 4.270668086 1.881565376 5.365102804
H 3.826340456 2.738800234 4.892634861
C 3.552064691 1.197025100 6.270161744
H 4.020873855 0.360696135 6.768914106
C 2.128213643 1.384465624 6.607263738
C 1.540643362 0.429242819 7.433418276
H 2.162122961 -0.331414038 7.889049042
C 0.170159500 0.404804715 7.620433273
H -0.254121626 -0.376888308 8.231811434
C -0.634593283 1.349589885 7.003730001
H -1.711852342 1.324711469 7.123987330
C -0.053510049 2.335348001 6.210273749
H -0.679700728 3.073377678 5.725075628
C 1.313104569 2.358551577 6.017221581
H 1.745714082 3.124986075 5.389412783
C 13.283282313 3.362468002 1.054174881
H 13.181547246 4.129605063 0.299931680
C 12.180060622 2.991649194 1.787704429
H 11.211606830 3.458292271 1.630478518
N 12.222457774 2.017322391 2.752994244
C 13.422386713 1.427321726 2.999293191
H 13.428402929 0.671599379 3.779136485
C 14.566153858 1.766140091 2.295850142
H 15.501922171 1.277453967 2.529589818
C 14.514724392 2.728819983 1.290967566
C 15.745895585 2.972076610 0.511246888
H 16.558885039 2.317112368 0.781636284
C 15.938690626 3.890881061 -0.452391566
H 15.133338946 4.570381205 -0.694160930
C 17.141101300 4.052691521 -1.293725765
C 17.103258406 5.007378910 -2.305576214
H 16.264524902 5.684247327 -2.361362625
C 18.121064539 5.086122405 -3.239899148
H 18.061031285 5.803988814 -4.048344774
C 19.233148467 4.270183269 -3.122593903
H 20.040775609 4.358305511 -3.839281554
C 19.316839330 3.363121552 -2.070212525
H 20.198621986 2.745954107 -1.959092409
C 18.274750048 3.242566228 -1.173413518
H 18.336242878 2.523279538 -0.369364360
C 6.060361962 5.220758898 6.671567294
H 5.153182408 5.732104901 6.388744015
C 7.287026417 5.662007754 6.222385293
H 7.395038320 6.557868270 5.625667618
N 8.436772419 5.004886199 6.518727040
C 8.364319428 3.877417956 7.295141297
H 9.305983305 3.370930023 7.484974534
C 7.179393617 3.428865936 7.824173975
H 7.179710647 2.565069026 8.472535276
C 5.994300639 4.124618758 7.521789236
C 4.699482890 3.839498781 8.129965134
H 3.903489059 4.506191427 7.840561325
C 4.462695217 2.876088170 9.040806764
H 5.268136995 2.209400979 9.311666351
C 3.236235548 2.685353729 9.780302018
C 3.271209835 1.749035516 10.809297868
H 4.163943184 1.149100676 10.942366631
C 2.203781212 1.629505954 11.669180629
H 2.283080704 0.934234471 12.488200005
C 1.074016102 2.411596087 11.485883420
H 0.230860317 2.330080894 12.157576833
C 1.007436761 3.312957713 10.430765634
H 0.111310746 3.901381150 10.287720081
C 2.083449724 3.458380453 9.586367182
H 2.046754896 4.175504797 8.777254269
C 13.919901964 6.480506049 3.431429842
H 14.271624809 7.258366654 2.769301339
C 12.629680464 6.541653909 3.914235590
H 11.949825814 7.348447491 3.654231747
N 12.121883722 5.593256199 4.750196152
C 12.943906973 4.582089484 5.158819225
H 12.519495600 3.854319544 5.844107911
C 14.246452799 4.478075817 4.715948404
H 14.866362938 3.668775331 5.076034969
C 14.747277366 5.417586656 3.808709937
C 16.117916399 5.217020250 3.308926129
H 16.615919287 4.366910605 3.745435096
C 16.768459074 5.961208169 2.397767897
H 16.263820091 6.814984700 1.968314043
C 18.175851159 5.795634376 1.988028721
C 18.766341742 6.804423434 1.229302838
H 18.155780048 7.624945144 0.871651578
C 20.131434414 6.791269516 0.987442450
H 20.583845560 7.595575489 0.423279430
C 20.913491606 5.762586886 1.488536882
H 21.984636530 5.758753526 1.329321396
C 20.326176352 4.727773685 2.209340463
H 20.936507377 3.923051884 2.598460528
C 18.969540619 4.742610603 2.456216186
H 18.525128252 3.944432841 3.033043512
