78
VERBATIM DFT input geometry for CASSCF system: ESI complex 5; B3LYP/[def2-TZVP(first coordination sphere)+def2-SVP(remaining atoms)]-D3BJ
N     11.131405000     3.537985000     4.852998000
B      9.845391000     2.383960000     3.155560000
N     10.108775000     3.230907000     4.254535000
C     11.118509000     1.741780000     2.432281000
C     11.688786000     0.553556000     2.952272000
C     12.866024000     0.016768000     2.388031000
C     13.468162000     0.683321000     1.316637000
H     14.382971000     0.269245000     0.879607000
C     12.940240000     1.867360000     0.791914000
C     11.760670000     2.398526000     1.354916000
C     11.071658000    -0.163843000     4.130794000
H     10.189720000     0.368523000     4.506715000
H     11.789365000    -0.258851000     4.961241000
H     10.764860000    -1.191066000     3.868783000
C     13.484658000    -1.241755000     2.943571000
H     12.773820000    -2.085769000     2.943366000
H     13.799623000    -1.105221000     3.993154000
H     14.369789000    -1.543195000     2.363377000
C     13.633649000     2.569117000    -0.348775000
H     14.525286000     2.014861000    -0.678478000
H     13.954819000     3.584469000    -0.059019000
H     12.968416000     2.694564000    -1.220133000
C     11.202175000     3.678380000     0.783030000
H     11.910181000     4.513901000     0.894793000
H     10.277969000     3.969433000     1.292721000
H     10.987312000     3.582147000    -0.294899000
C      7.248680000     3.464156000     4.468158000
C      7.142687000     4.825145000     4.090627000
C      7.003651000     5.784071000     5.100588000
H      6.906411000     6.836994000     4.828268000
C      7.008748000     5.423388000     6.446902000
H      6.910958000     6.189334000     7.220819000
C      7.163615000     4.086314000     6.801199000
H      7.201354000     3.812544000     7.857960000
C      7.283486000     3.083582000     5.827591000
C      7.251049000     5.287070000     2.642761000
H      7.203224000     4.397430000     2.001387000
C      7.529128000     1.651921000     6.282951000
H      7.550620000     1.017541000     5.389087000
C      8.613712000     5.953462000     2.396862000
H      8.766894000     6.142711000     1.322129000
H      9.436599000     5.329211000     2.763308000
H      8.674040000     6.919108000     2.917619000
C      6.117885000     6.237722000     2.227318000
H      6.187408000     6.464035000     1.150931000
H      6.183241000     7.196536000     2.765956000
H      5.122627000     5.812463000     2.425400000
C      8.904800000     1.528642000     6.953285000
H      9.152101000     0.471413000     7.143384000
H      8.927084000     2.058751000     7.918310000
H      9.681653000     1.962370000     6.316945000
C      6.433328000     1.131699000     7.226206000
H      5.425567000     1.240195000     6.798317000
H      6.444835000     1.676912000     8.183661000
H      6.595840000     0.065118000     7.452332000
C      8.406051000     2.058812000     2.805109000
N      7.280927000     2.474087000     3.428642000
C      7.995916000     1.126720000     1.656020000
C      6.469649000     1.340993000     1.553090000
H      6.263150000     2.106420000     0.789364000
H      5.937114000     0.426796000     1.254398000
C      6.003034000     1.861433000     2.915479000
C      8.359420000    -0.334780000     1.986930000
H      7.923241000    -1.008570000     1.231498000
H      7.991916000    -0.645315000     2.974972000
H      9.448497000    -0.466704000     1.975169000
C      8.643793000     1.499812000     0.313122000
H      8.170057000     0.913094000    -0.491713000
H      9.718989000     1.286790000     0.305869000
H      8.499321000     2.566623000     0.087356000
C      5.510894000     0.725023000     3.824230000
H      4.644427000     0.238355000     3.350177000
H      5.184886000     1.110635000     4.797826000
H      6.280914000    -0.038815000     3.991329000
C      4.876910000     2.887282000     2.784016000
H      5.133176000     3.684301000     2.076956000
H      4.627374000     3.342243000     3.753729000
H      3.977012000     2.378240000     2.406112000
