44
Source-verbatim SA-CASSCF(16,11)/ANO-L-VDZP/MM S0-MIN QM region: 5ACyd plus five explicit waters; RSC ESI d3cp03628f1_suppl.pdf
H -1.797619131 2.624541187 1.924019139
O -1.795793131 1.861366135 1.363817096
C -2.630341187 2.054946147 0.250402017
H -2.270744164 2.884995207 -0.358938028
H -3.654808264 2.269821162 0.561631039
C -2.645495188 0.804988056 -0.602038045
H -3.340635239 0.961852068 -1.423304101
O -1.357975096 0.573128039 -1.165083083
C -0.771668056 -0.588352040 -0.689662050
H -0.733173052 -1.347334098 -1.467193105
N 0.624552045 -0.286105019 -0.320818025
C 1.138623082 0.963157072 -0.376332026
H 0.455823032 1.747201123 -0.641305045
C 3.182807230 0.162635013 0.170007013
N 4.456137319 0.463038036 0.403965027
H 5.112810370 -0.272614021 0.593381044
H 4.808907347 1.353792098 0.113078008
N 2.767016198 -1.070314078 0.251591021
C 1.460190105 -1.346539099 0.028561003
O 0.994715071 -2.462657178 0.112112011
C -3.008538219 -0.480789033 0.130357010
H -3.610087262 -0.290952023 1.018417073
C -1.643695117 -1.069103077 0.485236037
H -1.281087091 -0.619357043 1.406447102
O -3.691781265 -1.306184095 -0.763178053
H -3.562031258 -2.212120157 -0.509150039
N 2.367940171 1.242646090 -0.135613010
O -1.756273126 -2.446534174 0.596944042
H -0.888797064 -2.833578203 0.564620038
O 3.143241224 4.273954308 -0.232466015
H 2.853664205 3.371447241 -0.140367012
H 3.065562222 4.678230338 0.621852045
O 6.447964463 -1.739069124 1.176186084
H 5.926578429 -2.525755183 1.017002074
H 7.344672531 -1.951913141 0.957863066
O 4.517229324 -3.600451262 0.430052031
H 4.026174290 -4.197337301 0.984879073
H 3.928484280 -2.867663208 0.278477019
O 5.625748407 3.038558217 -0.918387068
H 4.947900355 3.702682268 -0.838829063
H 6.029832435 3.135477226 -1.770170125
O 2.110671152 -4.681675335 1.809695131
H 1.722630122 -4.017841288 1.249714088
H 1.622020117 -5.480961395 1.668688121
