43
Source-verbatim SA-CASSCF(16,11)/ANO-L-VDZP/MM S0-MIN QM region: 5AdCyd plus five explicit waters; RSC ESI d3cp03628f1_suppl.pdf
H -1.032382076 4.104704294 1.211232085
O -1.190596088 3.210034231 0.944792066
C -2.081939151 3.159214228 -0.140338008
H -1.687720124 3.720283270 -0.988589071
H -3.052597220 3.580212259 0.128340009
C -2.282197163 1.721516124 -0.567323039
H -3.002288218 1.711295124 -1.382554098
O -1.052712077 1.193361087 -1.035342077
C -0.720933050 0.006046998 -0.383664026
H -0.984606071 -0.849122063 -0.993358070
N 0.728533051 -0.038466005 -0.210980016
C 1.462034103 1.085827079 -0.073187007
H 0.918705066 2.012993145 -0.065465004
C 3.356901243 -0.153790011 0.020228001
N 4.685014337 -0.119517010 0.076798007
H 5.214348376 -0.967522070 -0.012182999
H 5.161763371 0.754962052 0.172291010
N 2.719221195 -1.286160091 -0.045127003
C 1.361943099 -1.285610091 -0.153426011
O 0.692324050 -2.286016166 -0.201462012
C -2.774195202 0.755673055 0.518771037
H -3.239073234 1.280970090 1.350958099
C -1.501621107 0.026096000 0.926087068
H -0.961506071 0.615188047 1.662773121
O -3.698785264 -0.101336009 -0.102575009
H -4.009880287 -0.756702056 0.506263038
H -1.678266119 -0.971313069 1.318801093
N 2.738761197 1.092351078 0.044677001
O 1.211281087 -5.040425362 -0.888218064
H 0.999253072 -4.144608296 -0.643272044
H 1.043465075 -5.112654368 -1.817821129
O 3.919094284 -4.090045296 0.189929012
H 3.468360249 -3.250645235 0.178319011
H 3.292883237 -4.715865339 -0.158741009
O 6.220181450 2.558736187 0.529974036
H 5.551934399 3.236242231 0.479197035
H 6.761047489 2.753057201 1.284120092
O 3.654118265 3.912395281 0.089154005
H 3.373894241 3.002071218 0.060445007
H 3.545156256 4.258709304 -0.786279058
O 6.295905455 -2.640590191 -0.354640024
H 7.018383506 -2.880421205 0.209411016
H 5.632530406 -3.323475238 -0.259299016
