154
VERBATIM DFT input geometry for CASSCF system: ESI complex 1; B3LYP/[def2-TZVP(first coordination sphere)+def2-SVP(remaining atoms)]-D3BJ
N     11.131405000     3.537985000     4.852998000
B     12.060672000     4.532426000     5.144262000
B      9.845391000     2.383960000     3.155560000
N     10.108775000     3.230907000     4.254535000
C     12.079521000     5.857079000     4.246416000
C     11.190469000     6.928366000     4.469965000
C     11.133948000     8.010683000     3.565479000
C     11.927146000     7.972482000     2.417374000
H     11.865697000     8.799914000     1.702582000
C     12.829252000     6.930045000     2.169802000
C     12.925241000     5.881036000     3.107050000
C     10.281501000     6.940580000     5.667028000
H      9.253214000     7.210006000     5.390669000
H     10.620368000     7.672566000     6.416378000
H     10.243414000     5.958824000     6.148487000
C     10.231573000     9.189874000     3.828044000
H     10.330445000     9.953013000     3.041335000
H     10.463979000     9.666103000     4.795948000
H      9.169025000     8.894080000     3.879335000
C     13.693253000     6.987772000     0.931390000
H     13.570760000     6.094300000     0.296149000
H     14.766501000     7.054445000     1.179831000
H     13.438860000     7.866271000     0.319531000
C     13.931036000     4.770555000     2.910380000
H     14.618477000     4.712662000     3.768185000
H     14.542665000     4.905583000     2.010480000
H     13.439070000     3.791049000     2.839329000
C     13.425545000     6.275570000     7.282680000
C     12.441569000     6.284560000     8.307288000
C     11.965844000     7.520703000     8.762823000
H     11.203488000     7.543143000     9.544371000
C     12.445883000     8.719001000     8.240521000
H     12.058502000     9.673446000     8.606264000
C     13.427159000     8.692985000     7.253940000
H     13.809178000     9.633413000     6.852356000
C     13.939196000     7.483394000     6.761910000
C     11.906429000     5.023048000     8.978484000
H     12.530739000     4.181908000     8.660176000
C     15.044199000     7.540352000     5.720726000
H     15.155218000     6.530724000     5.303476000
C     10.464113000     4.693149000     8.562970000
H      9.785885000     5.535762000     8.770801000
H     10.098343000     3.820064000     9.126833000
H     10.396286000     4.452886000     7.494177000
C     12.015243000     5.103791000    10.511042000
H     13.027562000     5.389986000    10.836194000
H     11.776188000     4.125351000    10.958119000
H     11.310305000     5.837784000    10.932018000
C     14.712039000     8.486719000     4.559276000
H     15.435587000     8.347904000     3.739877000
H     14.770917000     9.541996000     4.871981000
H     13.709219000     8.300155000     4.163926000
C     16.375690000     7.970666000     6.364852000
H     17.198142000     7.911691000     5.633008000
H     16.646217000     7.355218000     7.234720000
H     16.309603000     9.014373000     6.712606000
C     13.133985000     4.129475000     6.162128000
N     13.912289000     4.987535000     6.846240000
C     15.134478000     4.340214000     7.457878000
C     14.661707000     2.882297000     7.554290000
H     14.210829000     2.711595000     8.543708000
H     15.496204000     2.175345000     7.448355000
C     13.592905000     2.694115000     6.451875000
C     15.486511000     4.938941000     8.816759000
H     15.743627000     6.004663000     8.737832000
H     16.359676000     4.407219000     9.224615000
H     14.662215000     4.837019000     9.533480000
C     16.339445000     4.454634000     6.509137000
H     16.080026000     4.140067000     5.490056000
H     17.147292000     3.800800000     6.872233000
H     16.732134000     5.474962000     6.463606000
C     12.441713000     1.823431000     6.981587000
H     11.696119000     1.651824000     6.202141000
H     11.938909000     2.288603000     7.840002000
H     12.845582000     0.849391000     7.304354000
C     14.162147000     2.014063000     5.191180000
H     13.388869000     1.934653000     4.417607000
H     14.510986000     0.999601000     5.443456000
H     15.009908000     2.564073000     4.763351000
C     11.118509000     1.741780000     2.432281000
C     11.688786000     0.553556000     2.952272000
C     12.866024000     0.016768000     2.388031000
C     13.468162000     0.683321000     1.316637000
H     14.382971000     0.269245000     0.879607000
C     12.940240000     1.867360000     0.791914000
C     11.760670000     2.398526000     1.354916000
C     11.071658000    -0.163843000     4.130794000
H     10.189720000     0.368523000     4.506715000
H     11.789365000    -0.258851000     4.961241000
H     10.764860000    -1.191066000     3.868783000
C     13.484658000    -1.241755000     2.943571000
H     12.773820000    -2.085769000     2.943366000
H     13.799623000    -1.105221000     3.993154000
H     14.369789000    -1.543195000     2.363377000
C     13.633649000     2.569117000    -0.348775000
H     14.525286000     2.014861000    -0.678478000
H     13.954819000     3.584469000    -0.059019000
H     12.968416000     2.694564000    -1.220133000
C     11.202175000     3.678380000     0.783030000
H     11.910181000     4.513901000     0.894793000
H     10.277969000     3.969433000     1.292721000
H     10.987312000     3.582147000    -0.294899000
C      7.248680000     3.464156000     4.468158000
C      7.142687000     4.825145000     4.090627000
C      7.003651000     5.784071000     5.100588000
H      6.906411000     6.836994000     4.828268000
C      7.008748000     5.423388000     6.446902000
H      6.910958000     6.189334000     7.220819000
C      7.163615000     4.086314000     6.801199000
H      7.201354000     3.812544000     7.857960000
C      7.283486000     3.083582000     5.827591000
C      7.251049000     5.287070000     2.642761000
H      7.203224000     4.397430000     2.001387000
C      7.529128000     1.651921000     6.282951000
H      7.550620000     1.017541000     5.389087000
C      8.613712000     5.953462000     2.396862000
H      8.766894000     6.142711000     1.322129000
H      9.436599000     5.329211000     2.763308000
H      8.674040000     6.919108000     2.917619000
C      6.117885000     6.237722000     2.227318000
H      6.187408000     6.464035000     1.150931000
H      6.183241000     7.196536000     2.765956000
H      5.122627000     5.812463000     2.425400000
C      8.904800000     1.528642000     6.953285000
H      9.152101000     0.471413000     7.143384000
H      8.927084000     2.058751000     7.918310000
H      9.681653000     1.962370000     6.316945000
C      6.433328000     1.131699000     7.226206000
H      5.425567000     1.240195000     6.798317000
H      6.444835000     1.676912000     8.183661000
H      6.595840000     0.065118000     7.452332000
C      8.406051000     2.058812000     2.805109000
N      7.280927000     2.474087000     3.428642000
C      7.995916000     1.126720000     1.656020000
C      6.469649000     1.340993000     1.553090000
H      6.263150000     2.106420000     0.789364000
H      5.937114000     0.426796000     1.254398000
C      6.003034000     1.861433000     2.915479000
C      8.359420000    -0.334780000     1.986930000
H      7.923241000    -1.008570000     1.231498000
H      7.991916000    -0.645315000     2.974972000
H      9.448497000    -0.466704000     1.975169000
C      8.643793000     1.499812000     0.313122000
H      8.170057000     0.913094000    -0.491713000
H      9.718989000     1.286790000     0.305869000
H      8.499321000     2.566623000     0.087356000
C      5.510894000     0.725023000     3.824230000
H      4.644427000     0.238355000     3.350177000
H      5.184886000     1.110635000     4.797826000
H      6.280914000    -0.038815000     3.991329000
C      4.876910000     2.887282000     2.784016000
H      5.133176000     3.684301000     2.076956000
H      4.627374000     3.342243000     3.753729000
H      3.977012000     2.378240000     2.406112000
