41
Source-verbatim omega-B97XD/PCM PhI...Cu(I)-bis(beta-diketonate) entrance geometry used for CASSCF/CASPT2(12,12); RSC ESI d3cp03418f1_suppl.pdf
O 1.50512000 2.29610300 -0.67329400
O 0.77392700 0.28799400 1.30866300
C 0.45119000 2.81935400 -0.20530200
C -0.17516400 1.08611800 1.48642500
C -1.20102300 0.67256900 2.53047800
H -0.70218000 0.56606700 3.50007900
H -2.03022200 1.37965100 2.62521000
H -1.60113200 -0.30902700 2.25729300
C 0.04701600 4.12979500 -0.86658800
H -0.15489400 3.94545800 -1.92842900
H -0.83747300 4.58523200 -0.41146800
H 0.88295200 4.83554000 -0.81570600
C -0.37014400 2.31564700 0.81092300
H -1.24897600 2.89428500 1.07648500
Cu 2.27422200 0.52916500 -0.14891500
C 3.68036700 -0.87736300 -0.45953700
H 3.88978300 -0.78734100 -1.52926900
C 2.97338700 -2.12725700 -0.16143500
C 4.73144600 -0.31514500 0.38534000
O 2.54755400 -2.85236900 -1.06871500
O 4.95660600 -0.57230400 1.57033200
C 2.68792100 -2.49958300 1.28055200
H 3.54012100 -2.26201400 1.92136300
H 1.84288500 -1.89085100 1.62679400
H 2.41887700 -3.55909900 1.32931700
C 5.67251900 0.67294500 -0.31615300
H 5.23715900 1.10523000 -1.22173900
H 5.93600900 1.47184400 0.38259500
H 6.59651500 0.14553700 -0.58646100
C -0.49536500 -2.06187700 -0.90786300
C 0.06695500 -1.10190100 -1.74525700
C -0.62759500 0.07026300 -2.02386200
C -1.88989700 0.29110900 -1.47617800
C -2.43842700 -0.68841300 -0.66024900
C -1.75991900 -1.86419900 -0.35955200
H 0.08451000 -2.94801100 -0.66999000
H 1.06070600 -1.27897400 -2.14389000
H -0.17021900 0.84111800 -2.63604100
H -2.41610000 1.21927100 -1.66679100
H -2.19719000 -2.60721700 0.29879800
I -4.38620400 -0.36038200 0.18762300
