78
VERBATIM DFT input geometry for CASSCF system: ESI complex 4; B3LYP/[def2-TZVP(first coordination sphere)+def2-SVP(remaining atoms)]-D3BJ
B     -5.140164000     4.750287000    12.928456000
O     -3.614238000     4.255234000    14.990855000
C     -4.362726000     4.459554000    14.133460000
C     -4.200342000     5.300522000    11.750162000
C     -3.982305000     6.694051000    11.607922000
C     -3.141034000     7.182497000    10.585252000
C     -2.523973000     6.272324000     9.723983000
H     -1.868465000     6.651360000     8.933283000
C     -2.708301000     4.892517000     9.845303000
C     -3.549090000     4.403099000    10.866384000
C     -4.623757000     7.693102000    12.541574000
H     -3.867280000     8.209013000    13.158594000
H     -5.330117000     7.206868000    13.222183000
H     -5.164122000     8.480450000    11.989851000
C     -2.893453000     8.661693000    10.423933000
H     -2.195672000     8.861028000     9.597034000
H     -2.467305000     9.107182000    11.339134000
H     -3.826697000     9.213777000    10.217728000
C     -2.006505000     3.950567000     8.898482000
H     -1.377776000     4.500508000     8.182476000
H     -2.722552000     3.342473000     8.318764000
H     -1.359377000     3.237160000     9.437112000
C     -3.741588000     2.910456000    10.978627000
H     -4.065556000     2.471598000    10.020126000
H     -4.490320000     2.660673000    11.737645000
H     -2.801657000     2.400348000    11.252637000
C     -6.615011000     4.547052000    12.901335000
N     -7.403135000     4.148570000    13.933081000
C     -8.869860000     4.097139000    13.633663000
C     -8.847045000     4.138086000    12.098377000
H     -9.714142000     4.674743000    11.687357000
H     -8.885607000     3.107604000    11.713409000
C     -7.505262000     4.783456000    11.679296000
C     -9.518374000     2.817211000    14.163753000
H     -9.092264000     1.923389000    13.693093000
H    -10.595978000     2.835639000    13.939540000
H     -9.401224000     2.731134000    15.254421000
C     -9.616229000     5.295270000    14.237203000
H     -9.589587000     5.256364000    15.333628000
H    -10.672055000     5.264193000    13.926727000
H     -9.194756000     6.255089000    13.912877000
C     -6.972286000     4.099765000    10.410896000
H     -6.051382000     4.575387000    10.051702000
H     -7.729009000     4.165618000     9.611305000
H     -6.760308000     3.036165000    10.594641000
C     -7.647550000     6.294157000    11.407024000
H     -7.965804000     6.850701000    12.299963000
H     -8.393672000     6.464230000    10.613517000
H     -6.690691000     6.714082000    11.071659000
C     -6.858195000     3.819575000    15.215557000
C     -6.685357000     4.825123000    16.200252000
C     -6.184534000     4.447914000    17.453802000
H     -6.051119000     5.209104000    18.225546000
C     -5.829991000     3.130162000    17.726192000
H     -5.438191000     2.859073000    18.709766000
C     -5.947704000     2.164202000    16.730729000
H     -5.631570000     1.139543000    16.937464000
C     -6.448380000     2.483921000    15.462388000
C     -6.937682000     6.305799000    15.945807000
H     -7.299403000     6.411596000    14.915803000
C     -5.633476000     7.115732000    16.058912000
H     -4.852350000     6.716420000    15.400555000
H     -5.246357000     7.105245000    17.090058000
H     -5.811619000     8.166507000    15.779352000
C     -7.990818000     6.893059000    16.900243000
H     -8.235743000     7.928678000    16.613532000
H     -7.614644000     6.918622000    17.935503000
H     -8.922872000     6.310505000    16.904677000
C     -6.461546000     1.394244000    14.396883000
H     -6.914242000     1.816418000    13.489313000
C     -7.282393000     0.166363000    14.826516000
H     -7.365835000    -0.550889000    13.993731000
H     -8.297690000     0.436741000    15.149705000
H     -6.797755000    -0.359715000    15.664531000
C     -5.029219000     0.962799000    14.034541000
H     -5.045167000     0.241500000    13.201247000
H     -4.532109000     0.477540000    14.889813000
H     -4.417218000     1.821255000    13.731560000
