97
VERBATIM DFT input geometry for CASSCF system: ESI complex 7; B3LYP/[def2-TZVP(first coordination sphere)+def2-SVP(remaining atoms)]-D3BJ
Fe     3.025831000    13.176592000    13.828813000
P      2.593737000    12.857012000    16.037804000
C      3.231807000    13.821673000    17.511078000
H      3.030040000    13.160051000    18.365534000
C      2.529179000    15.144128000    17.815720000
H      1.440141000    15.033574000    17.892574000
H      2.899418000    15.534010000    18.778747000
H      2.744632000    15.904755000    17.055813000
C      4.746763000    14.020024000    17.400331000
H      5.287002000    13.085212000    17.192125000
H      4.990960000    14.726130000    16.593516000
H      5.146102000    14.434792000    18.340491000
C      3.295840000    11.148403000    16.440164000
H      4.347686000    11.209459000    16.114361000
C      3.269784000    10.749362000    17.919671000
H      3.913469000    11.374630000    18.553235000
H      2.245885000    10.779622000    18.323434000
H      3.626861000     9.711248000    18.021034000
C      2.596311000    10.070410000    15.611657000
H      2.648636000    10.261324000    14.536508000
H      3.060689000     9.089522000    15.802587000
H      1.530585000    10.002062000    15.872763000
P      2.338121000    15.193331000    13.303124000
C      3.516214000    16.221503000    12.275665000
H      2.937185000    17.111395000    11.986955000
C      4.732893000    16.680426000    13.088657000
H      4.459318000    17.149679000    14.044413000
H      5.401805000    15.839987000    13.313728000
H      5.314827000    17.419367000    12.512905000
C      3.953937000    15.526783000    10.990607000
H      3.092329000    15.228727000    10.379720000
H      4.579231000    16.204536000    10.385701000
H      4.551427000    14.631612000    11.210369000
C      1.830516000    16.480517000    14.580171000
H      2.657177000    16.469625000    15.307381000
C      1.677323000    17.913655000    14.050883000
H      2.607393000    18.345971000    13.659656000
H      0.909723000    17.966953000    13.263796000
H      1.339253000    18.564144000    14.874474000
C      0.535147000    16.081509000    15.288575000
H      0.579215000    15.082120000    15.722909000
H      0.314061000    16.796238000    16.097238000
H     -0.309862000    16.091050000    14.584605000
P      3.171041000    12.077901000    11.762021000
N      4.817612000    13.420311000    14.093530000
N      5.898394000    13.614473000    14.284832000
C      0.149867000    13.839389000    12.574875000
C     -1.052114000    13.608623000    11.882205000
H     -1.584793000    12.665227000    12.032953000
C      1.906462000    10.847633000    12.194481000
B      0.814795000    12.813996000    13.631978000
C      2.883304000    12.433879000     9.928446000
H      3.599888000    13.232674000     9.689264000
C      0.882950000    11.292541000    13.072979000
C      4.757351000    11.086266000    11.658643000
H      4.583068000    10.311642000    10.898399000
C     -0.074802000    10.325550000    13.457726000
H     -0.869153000    10.615437000    14.147216000
C      5.913765000    11.967586000    11.170674000
H      5.720198000    12.391104000    10.173970000
H      6.109510000    12.802236000    11.857419000
H      6.840488000    11.374120000    11.102147000
C     -1.558145000    14.537783000    10.968230000
H     -2.486757000    14.326126000    10.430399000
C     -0.034863000     9.010504000    13.000159000
H     -0.801838000     8.299021000    13.319643000
C      5.096589000    10.351765000    12.958455000
H      5.240961000    11.035981000    13.804197000
H      4.311002000     9.636314000    13.233424000
H      6.035336000     9.787653000    12.830780000
C      1.960657000     9.512537000    11.750377000
H      2.776304000     9.179561000    11.106377000
C      0.994249000     8.591882000    12.146577000
H      1.044473000     7.556338000    11.800773000
C      0.324573000    15.990636000    11.396806000
H      0.872661000    16.911580000    11.185596000
C     -0.869838000    15.731434000    10.719839000
H     -1.256095000    16.450539000     9.992854000
C      0.804768000    12.728474000    16.279264000
C      0.063952000    12.828105000    15.078279000
C      0.823587000    15.049726000    12.309209000
C      1.467912000    12.951337000     9.672498000
H      1.329931000    13.134810000     8.594541000
H      0.715833000    12.214286000     9.988485000
H      1.257464000    13.882382000    10.204425000
C     -1.337095000    12.890621000    15.211254000
H     -1.952246000    13.007524000    14.316422000
C      3.165760000    11.249791000     8.993757000
H      2.954579000    11.557915000     7.956565000
H      4.207945000    10.904508000     9.020353000
H      2.508895000    10.395734000     9.215348000
C      0.179029000    12.650224000    17.534327000
H      0.775031000    12.585382000    18.447685000
C     -1.968107000    12.827299000    16.456175000
H     -3.058866000    12.887141000    16.517161000
C     -1.212183000    12.693569000    17.626672000
H     -1.702366000    12.643913000    18.602253000
