140
VERBATIM DFT input geometry for CASSCF system: ESI complex 6; B3LYP/[def2-TZVP(first coordination sphere)+def2-SVP(remaining atoms)]-D3BJ
Mo     0.016275000     2.405298000     0.023490000
C      1.911809000     4.697739000    -2.138218000
P      1.395484000     2.860010000    -1.975774000
N     -1.379939000     3.080707000    -1.258889000
P     -1.817276000     2.912690000     1.649789000
C     -1.585486000     4.239339000     3.003040000
Cl     1.870423000     3.213166000     1.482769000
C      2.809088000     1.703391000    -2.496721000
C     -2.733561000     1.385952000     2.326508000
N      0.050004000     0.618367000     0.064007000
C     -3.030439000     3.744676000     0.510413000
H     -2.844299000     4.824108000     0.605004000
H     -4.073845000     3.570042000     0.815197000
C     -2.793439000     3.326019000    -0.937450000
H     -3.191725000     4.124885000    -1.594247000
H     -3.386110000     2.421164000    -1.177781000
C     -1.225268000     3.214996000    -2.714929000
H     -2.070995000     2.712569000    -3.223962000
H     -1.304929000     4.283845000    -3.007587000
C      0.077075000     2.625755000    -3.250784000
H     -0.035011000     1.537506000    -3.343629000
H      0.322339000     3.026202000    -4.245522000
C     -0.780053000     3.631777000     4.162058000
H     -0.489003000     4.431730000     4.864218000
H      0.140702000     3.154061000     3.794850000
H     -1.366974000     2.894850000     4.729797000
C     -2.899585000     4.848940000     3.519718000
H     -2.658440000     5.670711000     4.215891000
H     -3.521733000     4.131208000     4.065452000
H     -3.505942000     5.280979000     2.709151000
C     -0.750821000     5.369090000     2.364994000
H     -0.631431000     6.182217000     3.101336000
H     -1.236966000     5.804944000     1.477555000
H      0.249015000     5.016237000     2.082948000
C      0.927619000     5.527410000    -1.288260000
H      1.183866000     6.595984000    -1.388588000
H      1.008179000     5.265963000    -0.224211000
H     -0.117038000     5.399538000    -1.599165000
C      3.317689000     4.918949000    -1.556450000
H      3.512352000     6.003855000    -1.507231000
H      4.104624000     4.475958000    -2.182157000
H      3.394772000     4.514515000    -0.536889000
C      1.852930000     5.196150000    -3.589985000
H      2.209290000     6.239943000    -3.626680000
H      0.826117000     5.190254000    -3.984332000
H      2.484106000     4.606827000    -4.268764000
C     -3.879962000     1.713319000     3.291640000
H     -4.434843000     0.783911000     3.504287000
H     -4.596363000     2.435546000     2.870975000
H     -3.515253000     2.100538000     4.252832000
C     -1.723341000     0.456689000     3.015899000
H     -2.249181000    -0.433218000     3.397434000
H     -1.206397000     0.940245000     3.855311000
H     -0.972938000     0.099713000     2.306349000
C     -3.309540000     0.645070000     1.108963000
H     -3.677419000    -0.339782000     1.435662000
H     -2.544500000     0.468524000     0.344341000
H     -4.150998000     1.185342000     0.649928000
C      2.214912000     0.286950000    -2.605374000
H      3.036047000    -0.423793000    -2.792571000
H      1.509835000     0.194522000    -3.444070000
H      1.702327000    -0.031649000    -1.690088000
C      3.437739000     2.078751000    -3.845920000
H      4.197805000     1.325135000    -4.115083000
H      3.942524000     3.053916000    -3.814321000
H      2.692143000     2.099895000    -4.656533000
C      3.870127000     1.696463000    -1.380362000
H      4.515291000     0.809516000    -1.494508000
H      3.402971000     1.662652000    -0.388129000
H      4.514873000     2.582095000    -1.414558000
Mo    -0.016150000    -2.405322000     0.023529000
C     -1.912226000    -4.697581000    -2.137953000
P     -1.395391000    -2.859971000    -1.975712000
N      1.380088000    -3.080734000    -1.258830000
P      1.817341000    -2.912793000     1.649866000
C      1.585465000    -4.239542000     3.002990000
Cl    -1.870329000    -3.213176000     1.482764000
C     -2.808719000    -1.703054000    -2.496711000
C      2.733559000    -1.386139000     2.326870000
N     -0.049852000    -0.618387000     0.064014000
C      3.030598000    -3.744662000     0.510497000
H      2.844577000    -4.824113000     0.605095000
H      4.073978000    -3.569915000     0.815305000
C      2.793584000    -3.326051000    -0.937383000
H      3.191854000    -4.124948000    -1.594155000
H      3.386270000    -2.421218000    -1.177753000
C      1.225365000    -3.215264000    -2.714842000
H      2.071091000    -2.712948000    -3.223985000
H      1.305002000    -4.284163000    -3.007320000
C     -0.076971000    -2.626088000    -3.250782000
H      0.035171000    -1.537864000    -3.343849000
H     -0.322269000    -3.026708000    -4.245440000
C      0.780135000    -3.631983000     4.162083000
H      0.489012000    -4.431959000     4.864187000
H     -0.140575000    -3.154132000     3.794941000
H      1.367160000    -2.895169000     4.729861000
C      2.899520000    -4.849305000     3.519581000
H      2.658319000    -5.671093000     4.215714000
H      3.521756000    -4.131660000     4.065336000
H      3.505807000    -5.281353000     2.708967000
C      0.750645000    -5.369140000     2.364866000
H      0.631240000    -6.182351000     3.101110000
H      1.236670000    -5.804924000     1.477328000
H     -0.249179000    -5.016150000     2.082941000
C     -0.928062000    -5.527479000    -1.288188000
H     -1.184642000    -6.595986000    -1.388381000
H     -1.008287000    -5.265941000    -0.224134000
H      0.116553000    -5.399929000    -1.599352000
C     -3.318024000    -4.918400000    -1.555841000
H     -3.512976000    -6.003251000    -1.506583000
H     -4.104995000    -4.475186000    -2.181348000
H     -3.394741000    -4.513950000    -0.536258000
C     -1.853849000    -5.196043000    -3.589720000
H     -2.210516000    -6.239735000    -3.626303000
H     -0.827136000    -5.190447000    -3.984324000
H     -2.485030000    -4.606553000    -4.268355000
C      3.879713000    -1.713678000     3.292240000
H      4.434620000    -0.784333000     3.505090000
H      4.596152000    -2.435929000     2.871680000
H      3.514751000    -2.100949000     4.253317000
C      1.723241000    -0.456894000     3.016139000
H      2.249053000     0.432916000     3.397935000
H      1.206047000    -0.940535000     3.855351000
H      0.973048000    -0.099760000     2.306452000
C      3.309887000    -0.645174000     1.109546000
H      3.677766000     0.339607000     1.436459000
H      2.545067000    -0.468446000     0.344754000
H      4.151410000    -1.185471000     0.650666000
C     -2.214227000    -0.286741000    -2.605400000
H     -3.035205000     0.424186000    -2.792594000
H     -1.509139000    -0.194480000    -3.444110000
H     -1.701548000     0.031756000    -1.690132000
C     -3.437440000    -2.078337000    -3.845897000
H     -4.197352000    -1.324578000    -4.115094000
H     -3.942424000    -3.053399000    -3.814256000
H     -2.691846000    -2.099673000    -4.656507000
C     -3.869749000    -1.695872000    -1.380349000
H     -4.514949000    -0.808980000    -1.494730000
H     -3.402566000    -1.661801000    -0.388136000
H     -4.514460000    -2.581542000    -1.414269000
