53
Source-verbatim asymmetric-unit atom sites converted from fractional to Cartesian coordinates; RSC CIF d4dt00927d2_suppl, data_3, CCDC 2339036; experimental X-ray structure, not a CASSCF-optimized geometry
I     -0.591876891     9.035054875     8.584621671
Co     1.403920912    10.391241000     8.815527999
I      1.065266508    12.871712875     8.675380100
Co     4.397163807     9.348639125     9.418614240
O      2.959493850     9.720235000     7.864323382
N      5.458138496     9.173727500     7.475961733
N      4.614891364     9.198568750    11.619893091
O      2.498231853     9.854670000    10.314097404
N      6.409998874     8.770422500     9.821609806
N      4.935052780    11.459122500     9.410734439
C      3.369787776     9.785991250     6.596519595
C      4.700630512     9.454287500     6.341833151
C      5.193264383     9.476206250     5.009302422
H      6.078357780     9.252196625     4.829713302
C      4.328763379     9.838596250     3.976485575
H      4.642562231     9.874148463     3.101602464
C      3.002288446    10.145458750     4.249464415
H      2.426206435    10.372259363     3.555943379
C      2.536876010    10.113311250     5.545410350
H      1.645077215    10.315738213     5.715881414
C      5.758265363     8.881477500    12.067353251
H      5.917013274     8.821858500    12.982395208
C      6.840031847     8.609685000    11.078156734
C      7.276437150     8.615530000     8.822563536
C      8.607361735     8.276520000     9.054736261
H      9.195776947     8.165479613     8.343429388
C      9.035519053     8.112860000    10.325354263
H      9.925877122     7.907262125    10.497105795
C      8.118549595     8.256062500    11.396163011
H      8.377134656     8.115124938    12.277786166
C      6.678210727     8.827411250     7.504103882
H      7.170094761     8.714997288     6.722821557
C      3.488593771     9.446981250    12.385359529
C      3.362035365     9.305240000    13.776988769
H      4.094002914     9.027777850    14.278678849
C      2.216678690     9.559497500    14.384859176
H      2.166467982     9.501295913    15.311129849
C      1.087643402     9.914581250    13.657384638
H      0.286817587    10.085445213    14.096964997
C      1.154360610    10.012485000    12.284047794
H      0.392876951    10.231920912    11.796850921
C      2.357007187     9.785991250    11.626928628
C      4.920538944    12.566750000     9.267209482
C      5.074489278    14.004620000     9.118056095
H      5.109851522    14.227942838     8.185143874
H      5.890726568    14.284361700     9.543326171
H      4.332050558    14.451353350     9.527805776
C      2.886339835     6.658916250     9.054736261
C      1.719453628     5.874225000     8.586169489
H      1.995753735     5.265658213     7.901020743
H      1.053964652     6.473951225     8.233646867
H      1.346810341     5.385349200     9.323043504
N      3.759445717     7.285792500     9.302387167
