52
Source-verbatim asymmetric-unit atom sites converted from fractional to Cartesian coordinates; RSC CIF d4dt00927d2_suppl, data_2, CCDC 2339035; experimental X-ray structure, not a CASSCF-optimized geometry
Br    10.513311211     1.673978238     5.219727315
Co     7.395825853     5.231594286     4.509497121
Co    10.309919648     4.019096556     5.167857350
O      9.322887544     4.729529880     3.661409319
O      8.004479822     7.320876300     4.654427907
H      7.859065590     7.706165200     3.923116871
O      8.808250673     4.817007540     6.096801275
N      5.381073130     5.795036460     4.053901303
N      6.297745168     5.413576500     6.428269770
C     10.704264226     4.528761480     1.721139759
H     11.455868030     4.259158200     2.237065618
C      9.483791861     4.789760400     2.345243621
N      6.903896991     3.154932000     4.478291928
O     10.589742835     7.812758880     5.386709771
H     10.887839083     8.161034692     6.125607135
H     10.441289843     8.444132476     4.806515083
C      8.377415079     5.148275400     1.558872755
C      9.178557320     4.386789540     8.426789023
H     10.087754484     4.158243398     8.275769758
C      6.509004432     5.082308640     8.912203138
H      5.607220967     5.331462224     9.078339585
C      7.024767292     5.110989840     7.593263644
C      4.488409762     5.955651180     5.052467481
C      6.059942104     5.716163160     1.819609480
H      5.915359457     5.798406501     0.883939102
C      8.356357564     4.771117620     7.361651767
C      7.319465300     4.692244320     9.949602445
H      6.975552043     4.658945447    10.834651065
C      5.063140881     5.729069700     6.381115256
H      4.540620048     5.812488970     7.169233612
C      8.647123799     4.343767740     9.702734695
H      9.197915913     4.072257160    10.426889340
C      4.991928471     5.947046820     2.787663913
C      6.858183409     2.034931140     4.612820983
C     10.816969974     4.662129060     0.350885060
H     11.651521807     4.496710239    -0.072562476
C      8.518242536     5.290247340     0.153945619
H      7.777210194     5.557670849    -0.376417842
C      3.682620502     6.272578440     2.450647828
H      3.422761610     6.382671226     1.543034386
C      6.817531234     0.589398660     4.820855603
H      6.763043528     0.136192678     3.953822781
H      6.031737479     0.359160327     5.359720746
H      7.629525555     0.303576161     5.288836416
C      3.165600008     6.274012500     4.790343859
H      2.544240133     6.383546003     5.500948515
C      2.766851896     6.430325040     3.482499545
H      1.863002201     6.646208432     3.284478325
C      9.710830405     5.040720900    -0.420229933
H      9.802767976     5.123810336    -1.362807060
Br    12.355946134     5.024372616     5.642453664
N      7.210473865     5.393499660     2.306410491
