53
Source-verbatim asymmetric-unit atom sites converted from fractional to Cartesian coordinates; RSC CIF d4dt00927d2_suppl, data_1, CCDC 2339034; experimental X-ray structure, not a CASSCF-optimized geometry
Co     3.704996152     9.052436280     9.357200348
Co     0.824030689    10.341878400     8.642134072
Cl     0.657009119    12.599082120     8.674875708
O      2.338632090     9.501099720     7.741117408
O      1.759084238     9.566237520    10.161373608
O      3.092125499     6.973466760     9.214629174
N      5.718038700     8.501127120     9.849844540
O      0.461946996     6.583355760     8.487129365
N      3.842820570     8.894817120    11.560007877
N      4.850527537     8.875347360     7.459428819
N      4.196254896    11.129401560     9.394362795
C      2.004628196     9.900516120     5.400021367
H      1.108033819    10.116243924     5.523900797
C      0.334309859     9.783840720    12.071302368
H     -0.388392374    10.046439108    11.547767755
C      3.895536210     9.588141000     3.914904970
H      4.251706032     9.614797392     3.056037982
C      2.557130891     9.942462000     4.133873295
H      2.031620488    10.210357308     3.414593433
C      6.632818698     8.365840920     8.878371192
C      1.573481716     9.515845200    11.473525750
C      2.796518271     9.531879120     6.499560101
C      7.971240002     8.081238840     9.162546487
H      8.596537544     7.987554936     8.480056067
C      2.662664069     9.134610120    12.284606528
C      6.098015601     8.578863000     7.528780301
H      6.630125253     8.503704000     6.769754580
C      0.187950484     9.656857800    13.439129107
H     -0.634112124     9.843624336    13.832678044
C      8.340279517     7.943232600    10.488375516
H      9.224002103     7.753645812    10.706266267
C      4.683580292     9.199747920     4.978800912
H      5.567363922     8.949418344     4.834944939
C      6.083068837     8.362405080    11.135057362
C      4.975271533     8.582298840    12.075723180
H      5.089915416     8.499595308    12.994961876
C      4.218039117    12.254496000     9.231345368
C      4.153163132     9.181709760     6.276309115
C      7.397968713     8.085819960    11.495491658
H      7.638652510     7.998678468    12.389476468
C      1.257802835     9.251858160    14.236809299
H      1.139627534     9.150958992    15.153630364
C      2.495309167     8.999467080    13.671498016
H      3.210967654     8.741979504    14.206582000
C      4.229664371    13.693683480     8.990825587
H      4.972441681    13.917270768     8.424574881
H      4.314665499    14.157278508     9.827174066
H      3.411255479    13.953490248     8.562310793
Cl    -1.136118941     9.405755160     8.042699649
H      2.318384023     6.771468000     8.946617471
H      3.167637416     6.542412000     9.891565950
H      0.029368825     7.272528000     8.261391673
H      0.499107883     5.883876000     7.998905985
