13
VERBATIM source coordinates: Sn12Fe D2h geometry, Table S14 of publisher ESI for DOI 10.1039/d4nr03920c (Angstrom)
Fe     0.000007000000       0.000024000000      -0.000024000000
Sn    -0.026669000000       2.544849000000       1.558700000000
Sn    -2.568220000000       1.564311000000      -0.007629000000
Sn    -0.017663000000       2.544082000000      -1.560014000000
Sn    -1.581052000000      -0.013086000000       2.497370000000
Sn     2.540563000000       1.608784000000       0.006799000000
Sn     1.566374000000       0.014296000000       2.506185000000
Sn     2.568216000000      -1.564315000000       0.007624000000
Sn    -2.540559000000      -1.608780000000      -0.006803000000
Sn    -1.566372000000      -0.014303000000      -2.506194000000
Sn     0.026663000000      -2.544860000000      -1.558666000000
Sn     1.581055000000       0.013077000000      -2.497378000000
Sn     0.017660000000      -2.544067000000       1.560019000000
