13
VERBATIM source coordinates: Sn12Cr D5d geometry, Table S15 of publisher ESI for DOI 10.1039/d4nr03920c (Angstrom)
Cr     0.000000000000       0.000003000000      -0.000019000000
Sn    -0.000007000000       0.000002000000       2.909545000000
Sn     0.852758000000      -2.547124000000       1.352624000000
Sn    -2.158970000000      -1.598134000000       1.352620000000
Sn     2.686004000000       0.023908000000       1.352611000000
Sn    -2.187078000000       1.559459000000       1.352624000000
Sn     0.807286000000       2.561905000000       1.352633000000
Sn    -0.852759000000       2.547128000000      -1.352623000000
Sn     2.187082000000      -1.559460000000      -1.352622000000
Sn    -0.807288000000      -2.561908000000      -1.352629000000
Sn     0.000006000000      -0.000008000000      -2.909563000000
Sn    -2.686011000000      -0.023909000000      -1.352601000000
Sn     2.158976000000       1.598138000000      -1.352609000000
