13
VERBATIM source coordinates: Sn12Mn Ih geometry, Table S9 of publisher ESI for DOI 10.1039/d4nr03920c (Angstrom)
Mn    -0.000006000000       0.000074000000       0.000001000000
Sn     1.662298000000       1.424738000000       2.158053000000
Sn     1.547861000000       2.504003000000      -0.886672000000
Sn    -1.182520000000       0.047671000000       2.837112000000
Sn    -3.055104000000       0.275164000000       0.212239000000
Sn    -1.367523000000       1.793062000000      -2.089212000000
Sn    -1.070726000000       2.703509000000       0.998026000000
Sn     1.071064000000      -2.703385000000      -0.997861000000
Sn     1.367084000000      -1.793415000000       2.089276000000
Sn     3.055029000000      -0.275207000000      -0.212019000000
Sn     1.182573000000      -0.047564000000      -2.837024000000
Sn    -1.547911000000      -2.503812000000       0.886318000000
Sn    -1.662122000000      -1.424801000000      -2.158237000000
