85
SOURCE-DERIVED crystallographic molecular core (CIF fractional coordinates Cartesianized, periodic molecule unwrapped, and rigidly recentered) for 2c, CCDC 2172309, publisher CIF DOI 10.1039/d4dt03529a; CIF riding-model H, lattice solvent/counterion excluded
Ho    -0.33803422     0.30077170     2.70091564
Ni     0.06881536    -0.04692362    -0.63202787
O     -1.02896613     1.06037989     0.65525929
O      0.81064622    -0.83773636     1.07482731
O      1.42833171     1.53956251    -0.74111555
O     -1.85221173    -1.42568673     1.86151736
O     -0.67514681     0.43016957     4.99123261
H      0.07691854     0.66488213     5.40216015
H     -0.84936246    -0.37602646     5.32034439
O     -1.29869246    -1.65437554    -0.71751485
O      1.34911308     1.89334010     1.92314141
O     -1.31827716     2.59283383     2.72687641
O      0.55278107    -1.91104626     3.41523021
O      1.80010778     0.77609342     3.72072818
O     -2.72357264     0.13764232     3.09530959
N      1.43848285    -1.18153587    -1.61171921
N     -1.03377759     0.81730916    -2.09946704
C     -2.87217788    -0.85670891     2.35319864
C      1.69696612    -4.29160159     0.23306896
H      1.99919254    -4.81195181    -0.50242068
C      1.79653324    -2.35184450    -1.22624108
H      2.32459047    -2.87266818    -1.81966761
C      1.44736081    -2.92952441     0.05344140
C     -2.36130847    -1.58372627    -1.68121016
H     -3.01177913    -0.88874918    -1.40978898
H     -2.83486345    -2.45215294    -1.72021688
C      1.51309266    -4.89290067     1.45899429
H      1.65233173    -5.82722528     1.56013640
C      1.04339142    -2.14079568     1.13776252
C      1.12205452    -4.12190275     2.54724885
H      1.00031809    -4.52417932     3.39953574
C      2.13079546     1.62908628     2.87372522
C     -4.23383181    -1.39875604     2.06605677
H     -4.85913466    -0.65616267     1.93234569
H     -4.53352692    -1.94608098     2.82184302
H     -4.20228556    -1.94939664     1.25610692
C     -1.35157636     2.32761332     0.40614077
C     -1.53690204     3.19249134     1.50226224
C      0.91326768    -2.78172463     2.38204394
C     -1.89997230     4.50541567     1.33836848
H     -2.01373936     5.07230240     2.09209621
C     -1.20745997    -0.00876450    -3.23885646
C      2.01447991    -0.64688817    -2.80486578
C     -2.10070301     4.99726011     0.04950795
H     -2.34021775     5.90805265    -0.07835541
C      2.56408739     0.64073807    -2.69079572
C     -1.95489172     4.17819221    -1.02694627
H     -2.12169456     4.52083393    -1.89734014
C     -1.55954475     2.83246162    -0.87878631
C      3.12312272     1.20760826    -3.82887400
H      3.48824167     2.08297050    -3.78496358
C     -1.88028482    -2.13207488    -4.08061481
H     -2.30544247    -2.97305818    -3.96067080
C     -1.53455920     1.99876390    -2.05095448
H     -1.91700726     2.34736465    -2.84730771
C     -1.80814709    -1.25452890    -3.02120554
C      2.71557589     1.30486483    -1.36784529
H      3.26835976     0.73463805    -0.77662150
H      3.18519701     2.16830811    -1.48587502
C     -1.90816896     3.25735275     3.86233239
H     -2.86825540     3.37724592     3.70835092
H     -1.48495739     4.13348682     3.98349576
H     -1.77068627     2.71439173     4.66594938
C      3.44227228     2.32260315     2.96419458
H      3.58289987     2.63514210     3.88270766
H      3.44927362     3.08872966     2.35378866
H      4.15785186     1.70068328     2.71761970
C      3.15545672     0.51615250    -5.02464287
H      3.54658625     0.91832240    -5.79150833
C      2.62286084    -0.75600281    -5.11117878
H      2.66120104    -1.23056310    -5.93252252
C      2.03121231    -1.34234897    -3.99539006
H      1.64477963    -2.20853575    -4.05318555
C     -1.34691698    -1.81582790    -5.31309589
H     -1.35551830    -2.45743703    -6.01398428
C      0.91221870    -2.35212136     4.72900259
H      1.87721327    -2.51978978     4.76453476
H      0.42901850    -3.17790466     4.94012398
H      0.67682221    -1.65968981     5.38139154
C     -0.74398899     0.35171063    -4.48313789
H     -0.38819200     1.22132037    -4.62514855
C     -0.79655716    -0.55577904    -5.52681335
H     -0.45962500    -0.32017673    -6.38323036
H      1.60658186     2.07981151    -0.05669521
H     -1.63844645    -2.05602848    -0.01211611
