55
SOURCE-VERBATIM PBEh-3c S0 geometry used without modification in DOI 10.1039/d5cp01869b; exact ACS Figshare geometry archive for ref. 64 DOI 10.1021/acs.jpclett.1c02299, system 24 ACRFLCN
C 0.0273733978 3.4890020769 1.1441692586
C 0.3246202821 2.8251953219 -0.0376763912
C 0.5807494391 3.5429434538 -1.1977846181
C 0.5389297224 4.9287422241 -1.1739449522
C -0.0135548161 4.8750215424 1.1645756667
C 0.2419350182 5.5951541501 0.0064281809
H -0.2453099311 5.3923518099 2.0859679703
H 0.2096301750 6.6764161052 0.0236556193
H 0.8111840391 3.0115193000 -2.1122594240
H 0.7385276007 5.4881576813 -2.0781274297
H -0.1701585678 2.9160030621 2.0410185613
N 0.3664390764 1.4049181686 -0.0592479400
C -0.7918322444 0.6990110247 -0.3630231323
C -0.7952698623 -0.6962596885 -0.3886889496
C 0.4445660720 -1.5086322852 -0.0723463874
C 1.6532020371 -0.6331755083 0.1924727693
C 1.5706493982 0.7598654261 0.1976125215
C 2.7271607455 1.5053049522 0.4673721985
C 3.9281827808 0.8769381593 0.7226975074
C 4.0152940156 -0.5084525003 0.7170251612
C 2.8772092261 -1.2423109625 0.4524991753
H 2.6864534194 2.5847862308 0.4773768905
H 4.8037005381 1.4786929567 0.9274709912
H 4.9538819611 -1.0062945827 0.9163198141
H 2.9333323676 -2.3244873707 0.4475023318
C -1.9743521360 -1.3672950881 -0.6990303437
C -3.1443145399 -0.6928858081 -0.9821082440
C -3.1367116101 0.6949413058 -0.9536877668
C -1.9811728595 1.3840078355 -0.6497205012
H -4.0391575082 1.2509103145 -1.1706221892
H -2.0020304839 2.4639993804 -0.6348686398
H -1.9693695994 -2.4507873340 -0.7162816078
H -4.0469014616 -1.2381525914 -1.2198763992
C 0.1906446301 -2.4435923845 1.0993835430
C 0.3162761435 -3.7798206601 0.7178160832
C 0.6541684370 -3.8233434140 -0.7010764666
C 0.7323715956 -2.5133665863 -1.1754362494
C 1.0376607329 -2.2536027008 -2.4919046822
C 1.2680078242 -3.3344908115 -3.3441186739
C 1.1909482359 -4.6488096082 -2.8734647294
C 0.8833484022 -4.8989829669 -1.5484516373
H 1.0989018025 -1.2385467477 -2.8625686890
H 1.3739996776 -5.4681822832 -3.5548106761
H 0.8251705824 -5.9186260365 -1.1903156330
C -0.1259649220 -2.1035940915 2.3946712520
C -0.3189876829 -3.1297801542 3.3205324695
C -0.1941157459 -4.4701754316 2.9430136567
C 0.1244376348 -4.8011071046 1.6384199613
H 0.2196304664 -5.8405676831 1.3524064029
H -0.2242623926 -1.0680491253 2.6939396921
H -0.3488487090 -5.2459266378 3.6801351852
C 1.5869039040 -3.0972953238 -4.7154628461
N 1.8440640450 -2.9055176955 -5.8214429357
C -0.6485314658 -2.8084072641 4.6720678994
N -0.9142588876 -2.5483540511 5.7619673719
