62
VERBATIM source coordinates: optimized [DyO@C60]+, Table S1 of publisher ESI for DOI 10.1039/d5dt01279a (Angstrom)
Dy     0.617685     0.168334     0.178974
O     -1.210686     0.050554     0.289528
C      0.499496    -3.179021    -0.537213
C      1.798466    -2.541830    -0.373947
C     -0.306961    -2.853130    -1.630308
C      2.265054    -1.608580    -1.316158
C      2.978282    -0.403895    -0.883929
C      2.002714    -2.297016     1.044201
C      2.677422    -1.136237     1.473800
C      3.192389    -0.167151     0.500482
C     -2.312960    -2.820789    -0.199122
C     -1.474414    -3.147121     0.936910
C     -1.736865    -2.675794    -1.461451
C     -0.098132    -3.331438     0.773106
C      0.824812    -2.785431     1.748119
C     -1.985449    -2.427034     2.085650
C     -1.098061    -1.911599     3.031088
C      0.331171    -2.088283     2.852702
C     -3.145047    -0.703697    -1.897135
C     -3.750221    -0.857570    -0.587961
C     -2.161041    -1.596056    -2.326546
C     -3.341165    -1.899920     0.246492
C     -3.138185    -1.656344     1.660653
C     -3.973795     0.466789    -0.038595
C     -3.782160     0.700153     1.325630
C     -3.353697    -0.382985     2.190300
C     -0.849882     0.258098    -3.284089
C     -1.872990     1.186026    -2.843789
C     -0.991247    -1.105836    -3.029221
C     -2.994850     0.714792    -2.158525
C     -3.507691     1.437465    -1.010508
C     -1.209752     2.395088    -2.400656
C     -1.696974     3.086310    -1.291607
C     -2.868914     2.603777    -0.586126
C      1.413746    -1.273289    -2.450228
C      1.563869     0.144321    -2.714671
C      0.157314    -1.880007    -2.599260
C      0.444662     0.891264    -3.113437
C      0.220722     2.213714    -2.565541
C      2.515512     0.686963    -1.748226
C      2.283969     1.968413    -1.209951
C      1.119806     2.740257    -1.630875
C     -1.371789     3.474853     0.994527
C     -0.769227     3.624738    -0.315691
C      0.611258     3.463414    -0.482750
C     -0.570515     3.161852     2.093459
C     -2.272503     1.575440     2.896990
C     -3.112684     1.909400     1.763255
C     -2.666803     2.843690     0.827286
C     -1.030900     2.193288     3.065610
C     -0.027244     0.046756     3.739167
C     -1.320198    -0.591330     3.579219
C     -2.421290     0.157932     3.160640
C      0.115288     1.411759     3.488764
C      2.298705     1.010895     2.360178
C      2.144337    -0.410265     2.621150
C      0.997465    -0.876287     3.288087
C      1.286432     1.894537     2.778207
C      1.448704     3.132644     0.656161
C      2.495537     2.214974     0.212997
C      2.940914     1.171729     1.055902
C      0.859323     2.978977     1.916737
