81
SOURCE-VERBATIM PBEh-3c S0 geometry used without modification in DOI 10.1039/d5cp01869b; exact ACS Figshare geometry archive for ref. 64 DOI 10.1021/acs.jpclett.1c02299, system 15 MFAc-OPS
C	-4.2485876342	0.5398117914	0.2003419503
C	-3.3666040263	1.6120942959	0.2892967474
C	-1.9954247556	1.4090703293	0.1940930892
C	-3.7771615234	-0.7517101604	0.0129433376
C	-2.4079017861	-0.9535388049	-0.0827255082
C	-1.5275646867	0.1244467598	0.0083720062
C	-1.6269659531	-2.1745362015	-0.2763812351
C	-0.0835807106	-0.3372261058	-0.1128463986
C	-0.2746080393	-1.8346842982	-0.3014281527
C	-2.0205968164	-3.4963838826	-0.4260423578
C	-1.0444333627	-4.4665872392	-0.6028065384
C	0.3030832267	-4.1220514004	-0.6314750922
C	0.6965841118	-2.7981858910	-0.4801693260
C	0.6767091411	-0.0486393683	1.1666422995
C	0.5861280562	0.2754811592	-1.3270279764
C	1.8635117356	0.6811779609	1.1763226802
C	1.7919851032	0.9711661573	-1.2391691383
N	2.4158399038	1.1616542072	-0.0082821172
C	0.1658186785	-0.5240271750	2.3695014988
C	0.7805071256	-0.2992408063	3.5891981796
C	1.9580391161	0.4421806770	3.5794262044
C	2.4922633454	0.9260234577	2.4033778230
C	-0.0122627012	0.1160484333	-2.5706359016
C	0.5386860610	0.6144896072	-3.7401068164
C	1.7486369162	1.2909926936	-3.6329167772
C	2.3688555663	1.4681051200	-2.4120649709
C	3.6564050841	1.8401693837	0.0417709469
C	4.8432567775	1.1186537855	0.0670323446
C	3.6811695482	3.2235378034	0.0983213979
C	4.8965149063	3.8976514419	0.1674314765
C	6.0907146175	3.1793090536	0.2032556250
C	6.0490045529	1.7883848408	0.1565620807
S	4.8260862232	5.6562775350	0.1434953897
C	6.1489311819	6.1419132550	1.1998363235
C	7.3622704298	5.4601753182	1.2725343247
C	8.3663288639	5.9445028016	2.1075501637
C	8.1760902731	7.0991413660	2.8448971110
C	6.9692788315	7.7793769732	2.7577074205
C	5.9555848120	7.2999553367	1.9478600894
P	7.6819221078	4.0450991994	0.1906674126
S	8.3418313608	4.4984424668	-1.5757275556
C	8.7726189878	2.9692780778	1.1665165537
C	8.4018867016	2.5790701840	2.4524223167
C	9.9722063594	2.5314111998	0.6248907535
C	10.8036204429	1.7039117949	1.3682237689
C	10.4348558153	1.3161105861	2.6464865768
C	9.2326818958	1.7538678712	3.1895554740
H	-5.3135563146	0.7158244725	0.2777581436
H	-3.7532571701	2.6123759064	0.4339364426
H	-1.3065518476	2.2420769063	0.2635069887
H	-4.4698577427	-1.5814633958	-0.0552916577
H	-3.0676334947	-3.7729974974	-0.4077233484
H	-1.3340372459	-5.5025312629	-0.7216716055
H	1.0496622904	-4.8924165257	-0.7731318711
H	1.7447154988	-2.5259794991	-0.5039903688
H	-0.7555274204	-1.0960723753	2.3445002279
H	2.4734709195	0.6477373485	4.5102479236
H	3.4079831329	1.4985443869	2.4430279223
H	-0.9497101058	-0.4277806993	-2.6209104964
H	2.2239923630	1.6907921606	-4.5206083958
H	3.3114702161	1.9962826499	-2.3789120884
H	4.8124593572	0.0380947814	0.0248319579
H	2.7478522141	3.7727253539	0.1038541481
H	6.9717748447	1.2227234694	0.1807784884
H	9.3099778740	5.4173207321	2.1702629508
H	8.9671788810	7.4691478002	3.4827849010
H	6.8090717742	8.6801624569	3.3352015419
H	5.0047456043	7.8153955373	1.9035860988
H	7.4651243248	2.9199628287	2.8775356015
H	10.2435448338	2.8416365547	-0.3772549833
H	11.7393468495	1.3627493222	0.9456286361
H	11.0835397486	0.6705674282	3.2241363689
H	8.9446052126	1.4508740894	4.1874839476
C	0.1824214378	-0.8049535157	4.8690877112
H	-0.3896594428	-1.7188095503	4.7101379391
H	-0.4961501271	-0.0707511731	5.3087192602
H	0.9503193176	-1.0211849123	5.6119975537
C	-0.1555577878	0.4358933611	-5.0584234839
H	0.4866265860	0.7234691531	-5.8903356439
H	-1.0590709912	1.0456400639	-5.1181891708
H	-0.4552594555	-0.6007679474	-5.2169191440
