49
SOURCE-VERBATIM PBEh-3c S0 geometry used without modification in DOI 10.1039/d5cp01869b; exact ACS Figshare geometry archive for ref. 64 DOI 10.1021/acs.jpclett.1c02299, system 9 oTE-DRZ
C	-1.3111807914	0.3434864849	0.5830224123
N	-0.1235623376	0.8513656299	0.8669488115
C	0.9192788046	0.0614107095	0.6314224752
N	0.8129577362	-1.1751212216	0.1651962224
C	-0.4191655142	-1.6127111175	-0.0642034865
N	-1.5128010273	-0.8843395899	0.1266423091
C	-2.4891362362	1.1921747986	0.8289347733
C	2.2622301134	0.5951920145	0.9080930836
C	-0.5851516905	-2.9871723752	-0.5675306373
C	-1.8537923945	-3.4714084927	-0.8821799701
C	-2.0093484364	-4.7631910432	-1.3544635098
C	-0.9021529708	-5.5841658914	-1.5160405221
C	0.3634857032	-5.1073974517	-1.2049366433
C	0.5231436522	-3.8155052879	-0.7343325931
C	2.4137872177	1.8883800495	1.4067836063
C	3.6782935583	2.3913855843	1.6607434742
C	4.8005130053	1.6114661439	1.4202521804
C	4.6551197996	0.3233698615	0.9237319506
C	3.3931160639	-0.1837746340	0.6685071480
C	-3.6790206729	0.5754026489	1.2048774099
C	-4.7978952357	1.3222790575	1.5216591480
C	-4.7387512234	2.7037375344	1.4615113459
C	-3.5579815157	3.3360649850	1.0950912914
C	-2.4277585701	2.5913649059	0.7532883756
S	-3.5014137927	5.0993206946	1.1540434193
S	-0.9715842354	3.4346134540	0.2051654317
C	-2.7804799712	5.4283075409	-0.4166653538
C	-1.6830182462	4.6796354318	-0.8250006920
C	-3.2804658969	6.4381045682	-1.2283613786
C	-2.6574491282	6.7247727752	-2.4324190646
C	-1.5632539706	5.9774472593	-2.8449704618
C	-1.0887106743	4.9436980662	-2.0535935034
H	-2.7125426466	-2.8266208233	-0.7579449905
H	-2.9972047316	-5.1306228413	-1.5986722329
H	-1.0253535207	-6.5940840981	-1.8849632814
H	1.2288715175	-5.7445652421	-1.3299355949
H	1.5069553584	-3.4394009328	-0.4915452447
H	1.5381362729	2.4944203771	1.5933703301
H	3.7877118077	3.3957280653	2.0476152133
H	5.7880460166	2.0068824503	1.6195252929
H	5.5282468519	-0.2869808048	0.7349562918
H	3.2741435726	-1.1856425955	0.2805256579
H	-3.7093280405	-0.5042184166	1.2530260581
H	-5.7149908687	0.8309402951	1.8161254044
H	-5.6076490906	3.3022428825	1.7014183301
H	-4.1516257932	6.9972990348	-0.9130927184
H	-3.0374645181	7.5227380556	-3.0560983537
H	-1.0862242626	6.1890907693	-3.7924355926
H	-0.2524390475	4.3407007313	-2.3829216220
