85
SOURCE-DERIVED crystallographic molecular core (CIF fractional coordinates Cartesianized, periodic molecule unwrapped, and rigidly recentered) for 2a, CCDC 2172308, publisher CIF DOI 10.1039/d4dt03529a; CIF riding-model H, lattice solvent/counterion excluded
Tb    -0.31864191     0.28905462     2.73214731
Ni     0.08364716    -0.05703428    -0.63293573
O     -1.01179226     1.06195767     0.66101270
O      1.44886793     1.53348378    -0.73599823
O      0.82940337    -0.85794483     1.07734832
O     -1.29146763    -1.66194307    -0.70792622
O     -1.86360087    -1.43463109     1.87338097
O     -1.31810821     2.59708761     2.74110927
O      1.39403514     1.88506506     1.94336331
O     -0.64032030     0.39922743     5.04920856
H     -1.42966719     0.07590245     5.25752134
H     -0.67882308     1.23907735     5.30196210
O     -2.72438979     0.12242006     3.12304678
O      0.58453840    -1.94563148     3.42445848
N      1.45296154    -1.18858315    -1.63008523
O      1.84523262     0.76805268     3.74590279
N     -1.02551921     0.80447971    -2.10256487
C     -1.33807823     2.31958747     0.40678307
C     -1.53231183     3.19188211     1.50066899
C      1.81271520    -2.36066704    -1.24986103
H      2.33419016    -2.88062814    -1.85068117
C      2.64406227    -0.75545057    -5.12722534
H      2.67219708    -1.22892275    -5.95042062
C      2.59013742     0.63071938    -2.70486110
C      1.06481576    -2.16619418     1.13823691
C      2.02972919    -0.64848086    -2.81820349
C     -1.95782156     4.17135968    -1.04294526
H     -2.12761923     4.50987198    -1.91374435
C      1.47734142    -2.94590777     0.03380751
C     -4.25383996    -1.41494959     2.09242174
H     -4.86767419    -0.67215046     1.91554170
H     -4.57086479    -1.92292903     2.86872490
H     -4.21839167    -2.00346945     1.30972659
C     -1.90647565     4.50327447     1.33460920
H     -2.02571981     5.06978744     2.08804619
C     -1.52059112     1.98342100    -2.05907302
H     -1.89708584     2.33233565    -2.85909901
C      2.05485802    -1.34329129    -4.01357040
H      1.67384725    -2.21208735    -4.07337828
C      0.94015639    -2.80587176     2.38632121
C      3.15323880     1.20269862    -3.83564919
H      3.52054489     2.07736346    -3.78457922
C     -1.55188152     2.82622309    -0.88479308
C      1.53834930    -4.90949929     1.43740812
H      1.66691073    -5.84650439     1.53194359
C     -1.89611077     3.26402281     3.88613106
H     -2.85065502     3.41665498     3.72774165
H     -1.44597841     4.12372916     4.02459329
H     -1.78192534     2.70399978     4.68225596
C      1.73468024    -4.31363506     0.20909284
H      2.04582098    -4.83338679    -0.52299360
C     -2.10913218     4.99196574     0.04303305
H     -2.35426047     5.90063055    -0.08401587
C      2.73988574     1.29047876    -1.35661375
H      3.28195447     0.70881016    -0.76571766
H      3.21909574     2.14915778    -1.46306335
C      1.15361138    -4.15121786     2.54051958
H      1.04130543    -4.56140879     3.38963865
C     -2.88582067    -0.87620078     2.37445979
C     -1.20623761    -0.01599061    -3.25048612
C     -2.36712306    -1.59210292    -1.67818985
H     -3.01738743    -0.89563260    -1.40906756
H     -2.84184952    -2.46052105    -1.71594869
C      3.18864484     0.50925623    -5.04551338
H      3.58646818     0.90709146    -5.81149711
C      2.18824334     1.62371954     2.89240819
C     -1.79855335    -1.26349334    -3.03170894
C     -1.87893032    -2.15569200    -4.09001062
H     -2.30015871    -2.99868431    -3.96545260
C     -0.73402846     0.35010957    -4.50120629
H     -0.37492788     1.21751883    -4.64882817
C     -0.79578246    -0.58041809    -5.54105688
H     -0.45485847    -0.35303053    -6.39810991
C     -1.34677372    -1.82541893    -5.33150524
H     -1.36441068    -2.45969869    -6.03795786
C      3.50371848     2.31960516     2.98729950
H      3.60129672     2.71340374     3.87950185
H      3.54890080     3.02732911     2.31110667
H      4.22615244     1.67505890     2.83430044
C      0.94345419    -2.39646098     4.74278871
H      1.90455664    -2.58413691     4.77295624
H      0.44383638    -3.21179100     4.95600421
H      0.72574786    -1.69929376     5.39628670
H      1.65036388     2.01298177    -0.01759195
H     -1.66392738    -2.00886998     0.01931023
