64
SOURCE-VERBATIM PBEh-3c S0 geometry used without modification in DOI 10.1039/d5cp01869b; exact ACS Figshare geometry archive for ref. 64 DOI 10.1021/acs.jpclett.1c02299, system 3 FAc-XT
C	-6.3794211305	2.7384875268	0.2667687175
C	-5.4634112628	3.6849820892	0.7346332772
C	-7.7389860427	3.0214162108	0.3590280517
C	-8.1875450566	4.2212957385	0.9051899929
C	-7.2640541098	5.1381015089	1.3592956589
C	-5.8933285751	4.8737621645	1.2761119180
H	-9.2470068060	4.4307829084	0.9721076900
N	-7.7230241304	6.3584411172	1.9148210502
C	-7.7750104608	7.4886541891	1.0970852901
C	-7.8340285757	6.4629639087	3.3025555801
C	-8.2368053374	8.7024571117	1.6096659179
C	-8.2969754658	7.6468169094	3.8801273486
C	-7.3717594433	7.4183819612	-0.2405316596
C	-8.2651613550	9.8168624132	0.7795252197
C	-7.4181989030	8.5389766989	-1.0472875341
C	-7.8608331541	9.7510057869	-0.5408679085
H	-8.6257876569	10.7559209030	1.1797188129
H	-7.1003829395	8.4590535466	-2.0784837265
C	-7.4904758066	5.3865136848	4.1272851506
C	-7.5951812789	5.4933558331	5.5007535064
C	-8.0380177967	6.6713543632	6.0817443004
C	-8.3842986786	7.7314478857	5.2647059522
H	-7.3227701555	4.6468168482	6.1171334190
H	-8.7453445263	8.6502517580	5.7090924754
H	-5.1878300691	5.6090382408	1.6393651070
H	-4.4081374793	3.4592242572	0.6601591356
C	-8.3409032733	0.9784198376	-0.6107532807
C	-9.3851893974	0.1565955637	-1.0242092787
C	-9.0901289828	-1.0673094369	-1.5860459405
C	-7.7668452662	-1.4832350476	-1.7413445746
C	-6.7419931872	-0.6621177263	-1.3287201682
C	-7.0134689967	0.5835281706	-0.7560879003
H	-10.4080518114	0.4861663906	-0.9003982770
H	-5.7083625241	-0.9617975468	-1.4382838532
H	-7.5498647417	-2.4456381168	-2.1836167845
C	-5.9243692777	1.4654625335	-0.3134311988
O	-8.6871223311	2.1653565014	-0.0675696013
O	-4.7526888884	1.1724670924	-0.4153420931
H	-9.8985998463	-1.7096586322	-1.9090128336
C	-8.7962341485	8.7869607360	3.0155475191
H	-7.0178866257	6.4867904724	-0.6584414447
H	-7.8981302831	10.6318816880	-1.1667302300
H	-7.1380548448	4.4587281972	3.6998390405
H	-8.1205269993	6.7617726047	7.1560123911
C	-10.3196352174	8.7793973607	2.9719099382
C	-8.5303080285	10.1379054515	3.6508433833
C	-9.7231244312	10.8042645138	3.9297241751
C	-10.8374496960	9.9585422818	3.5069909515
C	-12.2080231539	10.1618566261	3.5655597245
C	-13.0499782774	9.1704702258	3.0820278399
C	-12.5296138217	7.9959163128	2.5490866036
C	-11.1561791453	7.7930655518	2.4908516583
H	-13.2014671175	7.2338302250	2.1767247679
H	-10.7525372276	6.8777525934	2.0755499581
H	-12.6197399889	11.0741020489	3.9792372504
H	-14.1221148544	9.3116668528	3.1195173083
C	-9.7036861461	12.0619179248	4.5157635449
C	-8.4778249987	12.6382964174	4.8162429138
C	-7.2901894120	11.9699536459	4.5361793394
C	-7.3102868542	10.7105172404	3.9493329089
H	-10.6236534257	12.5885724125	4.7369204265
H	-8.4442887361	13.6184940811	5.2735175648
H	-6.3438409913	12.4355340266	4.7777317319
H	-6.3879008543	10.1873553613	3.7300037755
