126
SOURCE-VERBATIM PBEh-3c S0 geometry used without modification in DOI 10.1039/d5cp01869b; exact ACS Figshare geometry archive for ref. 64 DOI 10.1021/acs.jpclett.1c02299, system 17 3ACR-TRZ
C -0.7334655334 2.9648994840 0.0127338364
N 0.5717989937 2.7334174202 -0.0341397722
C 0.9576057196 1.5105307800 0.3052364848
N -1.6352544552 2.0602610056 0.3703890795
C -1.1618569437 0.8638713418 0.6929590486
N 0.1257464684 0.5457076572 0.6748649983
C -1.2109674904 4.3094754084 -0.3553813276
C -0.3059750776 5.2979894144 -0.7375539909
C -2.5723437548 4.6060721863 -0.3252749727
C -3.0201796808 5.8681832331 -0.6711558892
C -2.1125631419 6.8481169507 -1.0510896214
C -0.7545423562 6.5598582569 -1.0833530052
H -0.0558158963 7.3307783343 -1.3808558708
H 0.7503624372 5.0710442738 -0.7618019100
H -3.2765870222 3.8415880639 -0.0293935870
H -4.0762449584 6.1033483891 -0.6494881710
N -2.5717199079 8.1411014430 -1.4058298279
C -2.6867895049 9.1115587360 -0.4143518807
C -3.1355574326 10.3979424758 -0.7279928152
C -3.3484932795 9.6655011208 -3.1215092196
C -2.8933404196 8.4013583416 -2.7350769394
C -3.5184108567 10.8131607467 -2.1393008490
C -3.2305708669 11.3270644966 0.3035400476
C -2.9005565873 11.0251192473 1.6121124131
C -2.6178188970 11.9813947510 -2.5768510147
H -1.5697326769 11.6828484827 -2.5790720050
H -2.7213515436 12.8359898668 -1.9074430590
H -2.8706527870 12.3243481134 -3.5806397830
C -4.9903849874 11.2609835015 -2.1455757830
H -5.6447191311 10.4458085440 -1.8374297310
H -5.3034838319 11.5848474030 -3.1386557261
H -5.1546637913 12.0977194986 -1.4658879176
C -2.3512083401 8.7998861753 0.9088514209
C -2.4575985627 9.7467635822 1.9082872644
H -2.0032161928 7.8093166706 1.1641434496
H -2.1912346557 9.4775843444 2.9218900189
H -3.5763352674 12.3279090538 0.0763337303
H -2.9883817934 11.7760128501 2.3852182417
C -2.7608663464 7.3909636092 -3.6953745382
C -3.0741360772 7.6268008730 -5.0193855522
C -3.5263044387 8.8741975063 -5.4164745073
C -3.6550443025 9.8681611458 -4.4636391989
H -3.7750827678 9.0721736530 -6.4499927642
H -4.0088841978 10.8421150046 -4.7784747017
H -2.4100936705 6.4097776665 -3.4094963394
H -2.9620572509 6.8270643150 -5.7395637538
H -8.5890840666 -4.0061300979 2.8482588274
H -8.8312642523 -5.7084327614 2.4602103314
C -8.3073306678 -5.0216300794 3.1257205198
H -8.6742072191 -5.2070538483 4.1357459403
C -1.6822958950 -1.4515775647 1.4391734425
H -6.0918818984 -3.5845571237 7.3473837679
C -5.8368775643 -3.4876375120 6.3010441417
C -2.5870761178 -2.4273757461 1.8163682545
C -2.1254142379 -0.1755321203 1.0962336340
H -0.6250955190 -1.6735556101 1.4076934441
C -4.9381646156 -2.5244631646 5.8735523648
H -2.2479958164 -3.4198055325 2.0831146919
C -3.4895278069 0.1067345501 1.1379646077
H -4.4748855867 -1.8507460248 6.5822672008
C -4.3937020343 -0.8694504346 1.5156678172
C -6.4060188991 -4.3282916977 5.3620031500
H -7.5623841910 -6.5343641940 0.8383055024
C -6.7827063953 -5.2094217437 3.0390743139
C -3.9448703054 -2.1388885316 1.8554890825
C -6.8521085167 -5.7562431643 0.5874750106
H -3.8362117000 1.0953306982 0.8725833045
C -6.3362694687 -4.9622510736 1.6071978073
C -6.1120040189 -4.2455590979 4.0044121532
H -5.4538804321 -0.6551809276 1.5496625890
C -4.6237150438 -2.4143260053 4.5334912742
C -5.2032676293 -3.2684292456 3.5873003155
H -7.1082636867 -5.0799980614 5.7006331040
N -4.8715607912 -3.1392745579 2.2414300634
C -5.4205384920 -3.9635003202 1.2629534632
C -6.4945093734 -5.5930258896 -0.7383906703
H -6.9184254319 -6.2312279245 -1.5014355234
H -3.9200078300 -1.6551093918 4.2238351161
C -5.0546688851 -3.7934240780 -0.0778962825
C -5.5864816922 -4.5995399208 -1.0648688872
H -6.8885818863 -7.3775596592 2.7767465227
C -6.4130888853 -6.6495715316 3.4348490515
H -6.7320342511 -6.8768486823 4.4525657188
H -5.2853429008 -4.4452086067 -2.0926293425
H -4.3479846103 -3.0251624472 -0.3569261048
H -5.3354323243 -6.8020102174 3.3797066604
H 10.0416864464 1.6809475419 -0.5909185458
H 11.1852637958 0.8770944319 0.4829205359
C 10.4700323596 0.7150302444 -0.3241618643
H 11.0305646098 0.3479769339 -1.1845545624
C 3.3156489508 2.1793179130 -0.1207695205
H 8.5420711561 -1.5879262050 -4.2978732454
C 8.1174976393 -1.1932860170 -3.3850529413
C 4.6681837556 1.8919035877 -0.1551583852
C 2.3987009760 1.2049839415 0.2691900438
H 2.9616597027 3.1623621307 -0.3969148157
C 6.7691320794 -0.8884772668 -3.3006258452
H 5.3840993643 2.6448382709 -0.4577994104
C 2.8591403051 -0.0615140115 0.6245406844
H 6.1161680604 -1.0408159023 -4.1498769460
C 4.2118490723 -0.3479727734 0.5906401442
C 8.9165650449 -0.9831023770 -2.2761070599
H 10.4198559586 0.3124147672 2.4916688511
C 9.3686921010 -0.2754708150 0.0923189953
C 5.1196594585 0.6277832231 0.2004895931
C 9.3577678463 0.5234603404 2.4748181115
H 2.1505076780 -0.8191485953 0.9274741756
C 8.6418285917 0.2786850576 1.3069635716
C 8.4202847856 -0.4777732840 -1.0783129014
H 4.5743373928 -1.3297300995 0.8659651157
C 6.2432531242 -0.3851557773 -2.1272252983
C 7.0573083245 -0.1747355095 -1.0075788042
H 9.9704441955 -1.2223341329 -2.3466486110
N 6.5055708882 0.3337479449 0.1650386324
C 7.2720326197 0.5583133666 1.3052223002
C 8.7678283882 1.0273499087 3.6196018356
H 9.3596072959 1.2037547253 4.5072527328
H 5.1884535844 -0.1546234915 -2.0853899800
C 6.6690435130 1.0684055494 2.4614029471
C 7.4099292648 1.2993661528 3.6035456301
H 10.7033945359 -1.5267998578 1.2897579545
C 9.9998454308 -1.6288121766 0.4629154640
H 10.5485749043 -2.0554722329 -0.3772808348
H 6.9172290473 1.6941199811 4.4823007537
H 5.6112003059 1.2883041796 2.4728866270
H 9.2342114430 -2.3447257436 0.7610444844
