79
SOURCE-VERBATIM PBEh-3c S0 geometry used without modification in DOI 10.1039/d5cp01869b; exact ACS Figshare geometry archive for ref. 64 DOI 10.1021/acs.jpclett.1c02299, system 7 PXZ-Mes3B
C	-0.9010014290	2.8919982701	1.7027884575
C	-1.2937897940	1.7097926625	1.0852288776
C	-0.3529407561	0.8752791802	0.5202465916
C	1.0072540171	1.1983948646	0.5561056496
C	1.3885647841	2.3817933389	1.1755577483
C	0.4394306504	3.2224915971	1.7449782443
H	0.7635832965	4.1379375718	2.2210229958
H	-1.6448687205	3.5410707799	2.1435131456
H	2.4352137004	2.6510107667	1.2149532865
H	-2.3370890056	1.4259449372	1.0375345802
O	-0.8013533391	-0.2686174686	-0.0696438173
C	0.1001107293	-1.1164938053	-0.6406474584
C	1.4716276176	-0.8431824479	-0.6337569664
C	2.3295158901	-1.7548951167	-1.2357001433
C	-0.3902763119	-2.2623902891	-1.2299251182
C	0.4774983062	-3.1683562356	-1.8294763779
C	1.8343314499	-2.9099378620	-1.8294517601
H	3.3937967816	-1.5631312987	-1.2421151785
H	-1.4578735357	-2.4394173932	-1.2152825551
H	0.0851578550	-4.0647090928	-2.2893587373
H	2.5243853719	-3.6031490028	-2.2909902241
N	1.9223241624	0.3260602017	-0.0270229336
C	3.3056434445	0.6296832407	-0.0079459965
C	3.8690574447	1.3591083764	-1.0400557569
C	4.0954325536	0.1977242485	1.0429252711
C	5.2218580651	1.6777898256	-1.0263007089
C	5.4569759292	0.4762321033	1.0671306042
C	6.0362035634	1.2303937603	0.0301631094
H	3.2383840537	1.6855618004	-1.8585263260
H	3.6382785185	-0.3678125904	1.8462809445
C	5.7630869570	2.4889134920	-2.1734585396
H	5.0424838373	2.5296309667	-2.9898038972
H	6.6867046295	2.0776102455	-2.5818147299
H	5.9829691008	3.5140619009	-1.8747598059
C	6.2575988870	-0.0387392431	2.2335702139
H	5.5989955058	-0.3841425823	3.0299954279
H	6.9104357810	0.7207734942	2.6647922022
H	6.8967731019	-0.8740442292	1.9470485154
B	7.5741262552	1.5702187895	0.0523908197
C	8.0422177079	3.0534908143	-0.1429598013
C	7.4469046964	4.1061311986	0.5798411318
C	7.8782446240	5.4111498237	0.3876696421
C	8.8698933557	5.7273333556	-0.5321687098
C	9.4394279729	4.6899285144	-1.2543375166
C	9.0585946888	3.3660964966	-1.0638357857
H	7.4226030923	6.2074096895	0.9672317853
H	10.2080857552	4.9159914925	-1.9856096832
C	6.3542140972	3.8725138660	1.5899774942
H	6.5725041052	3.0449811710	2.2655605879
H	5.4014336946	3.6443711086	1.1108402891
H	6.2060184556	4.7576385977	2.2082502609
C	9.7526849892	2.3147483215	-1.8897538721
H	10.3298987318	2.7753952147	-2.6912399913
H	9.0582908186	1.6159468523	-2.3571870401
H	10.4398625754	1.7166791379	-1.2909221565
C	8.6179951315	0.4208872615	0.2690592770
C	9.6498048123	0.5605573024	1.2192089400
C	8.5430896870	-0.7760131308	-0.4646933443
C	9.4842514977	-1.7788318038	-0.2573407131
C	10.4900415984	-1.6540779682	0.6882242628
C	10.5491094946	-0.4763540417	1.4229320765
H	9.4250867023	-2.6865124902	-0.8483154756
H	11.3245202247	-0.3609015665	2.1732771132
C	9.8103533100	1.8016223949	2.0576938233
H	8.8722131900	2.1373234073	2.5008256021
H	10.1959599630	2.6384223846	1.4750018754
H	10.5053559917	1.6235184300	2.8780678598
C	7.4815067041	-1.0216269585	-1.5047965345
H	7.3385741824	-0.1727517147	-2.1737356178
H	6.5120242679	-1.2318121454	-1.0514852564
H	7.7435271299	-1.8768560825	-2.1274014601
C	9.3168825256	7.1466891884	-0.7185852202
H	9.9459984960	7.2582459700	-1.6007373994
H	9.8939487175	7.4923953399	0.1412086622
H	8.4676223517	7.8220277941	-0.8278467430
C	11.4839706566	-2.7523237101	0.9231587206
H	11.3434512827	-3.5782648165	0.2272117481
H	11.3960509901	-3.1545194167	1.9338449809
H	12.5077223827	-2.3930870395	0.8087965338
