53
VERBATIM source coordinates: optimized [DyO2@C50]-, Table S1 of publisher ESI for DOI 10.1039/d5dt01279a (Angstrom)
Dy     3.357749     2.155074     2.793960
O      3.143657     4.133718     2.889966
O      4.528421     3.727834     3.056983
C      6.567565     1.990193     2.032741
C      6.873186     3.375071     2.148531
C      6.995575     3.951594     3.456249
C      5.577450     1.516642     1.066807
C      6.200953     4.365561     1.295047
C      5.202614     3.912855     0.407907
C      4.887501     2.481445     0.289278
C      5.957544     5.568367     2.108178
C      6.437635     5.296933     3.437506
C      4.722306     6.267092     1.962391
C      3.709730     5.822874     0.994237
C      3.946247     4.648308     0.258659
C      4.017187     6.685634     3.134316
C      4.342787     6.144941     4.417349
C      5.575127     5.444239     4.580163
C      5.580706     4.165152     5.307246
C      4.368293     3.644880     5.804033
C      3.092391     5.627765     4.991005
C      3.113950     4.382916     5.644406
C      6.188570     1.868042     4.487242
C      4.961490     1.318103     5.061031
C      6.493943     3.252316     4.604386
C      4.054898     2.214093     5.683142
C      2.624266     2.060671     5.466937
C      4.455968     0.256980     4.160545
C      3.045398     0.054745     3.956438
C      2.113484     0.993223     4.633843
C      0.966656     3.696040     4.567380
C      2.041910     3.401052     5.429339
C      6.396123     1.210516     3.227043
C      5.351080     0.231473     3.017397
C      2.557790    -0.141409     2.568192
C      3.436392     0.176050     1.414249
C      4.840290     0.379588     1.666257
C      1.343794     0.649013     2.420341
C      0.254625     3.277675     2.384555
C      0.499612     2.648841     3.651285
C      1.047685     1.326656     3.679121
C      1.993199     5.932074     4.051252
C      0.542196     4.690999     2.499149
C      0.959247     4.974013     3.844460
C      2.873124     3.667089     0.045431
C      1.583915     3.893548     0.567942
C      1.341498     5.094226     1.376098
C      2.375814     6.050891     1.583888
C      2.578800     6.571066     2.906608
C      1.428209     1.448331     1.201792
C      2.736209     1.190024     0.581459
C      3.459090     2.327793     0.051823
C      0.878150     2.770197     1.195418
