103
SOURCE-VERBATIM PBEh-3c S0 geometry used without modification in DOI 10.1039/d5cp01869b; exact ACS Figshare geometry archive for ref. 64 DOI 10.1021/acs.jpclett.1c02299, system 10 DACT-II
C -0.8164520823 2.6316854221 -0.2263958448
N 0.1193249124 2.3145363211 -1.1110001984
C 0.5274735051 1.0516462906 -1.0965774907
N -1.3426780995 1.7766561528 0.6400851812
C -0.8758967047 0.5352963431 0.5869357133
N 0.0572597761 0.1310435389 -0.2650386821
C -1.3020399993 4.0217621145 -0.2048034924
C -0.8052506928 4.9591042207 -1.1080461353
C -2.2656584650 4.4205312472 0.7192945770
C -2.7163460801 5.7263643811 0.7478388693
C -2.2220311521 6.6544724520 -0.1640369143
C -1.2660209495 6.2617847834 -1.0961678553
H -0.8978863147 6.9757135649 -1.8213588693
H -0.0645139108 4.6547936090 -1.8338453353
H -2.6486474845 3.7013370197 1.4293323308
H -3.4420103082 6.0353757087 1.4888141122
N -2.6839641665 7.9776305984 -0.1426643536
C -1.8902586561 9.1104758424 -0.0671279792
C -2.7149109889 10.2467415298 -0.0770820184
C -4.0715622355 9.7743185039 -0.1637936506
C -4.0104836623 8.3722695005 -0.2010555895
C -2.1592724422 11.5151677018 0.0224834826
C -0.7810329846 11.6431111155 0.1055468534
C -0.5104944284 9.2267400283 0.0484873362
C 0.0283471235 10.4968475650 0.1158101828
H 0.1342068958 8.3587585069 0.0779210188
H 1.1018927146 10.6135865238 0.1872243511
H -2.7889973541 12.3962589148 0.0305928284
C -5.1633910569 7.6069382244 -0.3270117983
C -6.3736357585 8.2684740325 -0.4008739684
C -6.4552338031 9.6675604428 -0.3321770182
C -5.2986831686 10.4225399622 -0.2106615694
H -5.3558703668 11.5031944743 -0.1673190943
H -5.1268719367 6.5279310197 -0.3923436656
H -7.2848108710 7.6957218256 -0.5147476544
C -0.9670705742 -1.7683502625 1.5209290631
C -1.4861841077 -2.6956907610 2.4077015321
C -1.4277193020 -0.4529466512 1.5302120213
H -0.2009992030 -2.0562057456 0.8149268854
H -1.1226368353 -3.7145700618 2.3937404285
C -2.4156206669 -0.0824941022 2.4409062860
C -2.9328917987 -1.0123218313 3.3261427959
C -2.4697561978 -2.3204375606 3.3119223339
H -2.7736353913 0.9372795726 2.4486437434
H -3.6997345198 -0.7161249643 4.0294861487
C 2.0981002842 1.5779294491 -2.9528287495
C 3.0730376788 1.1971666022 -3.8585387052
C 1.5653094992 0.6482954419 -2.0615096307
H 1.7427417039 2.5983930846 -2.9294929974
H 3.4812105588 1.9254306289 -4.5466494129
C 2.0245298946 -0.6672794093 -2.0923898655
C 2.9993786162 -1.0448990374 -2.9995221736
C 3.5258601793 -0.1143787864 -3.8842746746
H 1.6117124693 -1.3886412179 -1.4014577178
H 3.3498685367 -2.0682940609 -3.0167170915
H -2.8749025663 -3.0465150513 4.0046255350
H 4.2881108611 -0.4109027663 -4.5929469029
N -7.7152607741 10.2966478419 -0.4024313265
C -8.7570685160 9.8515768848 0.4242359241
C -8.4946617388 9.4246182688 1.7260326889
C -9.5237304788 8.9655246799 2.5316165024
C -10.8297997079 8.9398985613 2.0656928450
C -11.0938828889 9.3717257734 0.7735460981
C -10.0702402729 9.8140438468 -0.0468406998
H -10.2870011863 10.1318376144 -1.0584870001
H -7.4820403264 9.4539796621 2.1070097308
H -9.3009144838 8.6382257373 3.5389235136
H -11.6315572781 8.5874144066 2.7003464757
H -12.1061841450 9.3503529544 0.3911487232
C -7.8905317057 11.3991084094 -1.2539451410
C -8.6250207858 12.5102834319 -0.8402241731
C -8.7887762292 13.5936064100 -1.6875742182
C -7.3154821270 11.4041229436 -2.5248043856
C -7.4684130509 12.5006088336 -3.3562255674
C -8.2092649012 13.6002889536 -2.9478072412
H -8.3313515274 14.4525007049 -3.6025113938
H -9.3616902529 14.4474076316 -1.3496942540
H -9.0667183984 12.5254152334 0.1477335835
H -6.7445026127 10.5474268274 -2.8586142546
H -7.0129135094 12.4878949461 -4.3378771981
N -0.1866317620 12.9193062073 0.1798786553
C -0.6144844102 13.9326721238 -0.6925204534
C -0.8855314031 13.6414704738 -2.0295399244
C -1.3294881626 14.6355384885 -2.8848772486
C -1.4930954219 15.9369261980 -2.4325844797
C -1.2159363839 16.2302131001 -1.1054694417
C -0.7907405664 15.2389742148 -0.2365351468
H -0.5957877145 15.4771535636 0.8010706009
H -0.7512734795 12.6322178689 -2.3965405957
H -1.5375346702 14.3904660404 -3.9182943635
H -1.8345164211 16.7119745841 -3.1052888286
H -1.3475717015 17.2382178583 -0.7340313029
C 0.7788326213 13.1773736329 1.1644239874
C 0.6568520548 12.6225090884 2.4383159795
C 1.8840422540 13.9806979029 0.8805023207
C 1.6240109990 12.8626974213 3.4003969862
C 2.7156614765 13.6710031878 3.1200989355
C 2.8344004677 14.2305032337 1.8557306918
H 3.6844523911 14.8567636582 1.6177269879
H 1.9969678807 14.4089546191 -0.1070589963
H -0.1976575625 12.0016210905 2.6744056751
H 1.5130462294 12.4227643595 4.3829987621
H 3.4650022601 13.8618285356 3.8763554563
