44
SOURCE-VERBATIM PBEh-3c S0 geometry used without modification in DOI 10.1039/d5cp01869b; exact ACS Figshare geometry archive for ref. 64 DOI 10.1021/acs.jpclett.1c02299, system 4 PTZ-DBTO2
S 0.0074180156 0.1085140093 -0.0404250839
O -0.0138782103 0.0742160327 1.4077529129
O 1.2719870513 0.0832591240 -0.7468699984
C -1.0936579350 -1.1236653671 -0.7027405272
C -0.9300091454 -2.4887617671 -0.6110369678
H -0.0767316365 -2.9189231196 -0.1037752464
C -1.8956796606 -3.2988256258 -1.1908158710
H -1.8058186523 -4.3766107857 -1.1420170505
C -2.9907364180 -2.7329617995 -1.8417043147
C -3.1354494482 -1.3548908800 -1.9222692503
H -3.9976138693 -0.9485711613 -2.4351344395
C -2.1758939168 -0.5377882044 -1.3460722777
C -2.1352438753 0.9304203445 -1.3155693863
C -3.0463474174 1.8243606151 -1.8554472569
H -3.9245545047 1.4724525305 -2.3809770962
C -2.8202762391 3.1867884493 -1.7147764048
H -3.5280014743 3.8890676187 -2.1341143163
C -1.6996790739 3.6610944541 -1.0441020471
H -1.5417725896 4.7263113510 -0.9453846150
C -0.7798202254 2.7742423773 -0.4989532799
H 0.0964433224 3.1313148747 0.0254578288
C -1.0213929445 1.4265341340 -0.6488230166
N -3.9867898884 -3.5470862795 -2.4400031708
C -4.9820592610 -4.0935130682 -1.6090449557
C -3.7235053733 -4.0865946440 -3.7124061701
C -2.4415795640 -4.1124460303 -4.2569507681
H -1.6048419583 -3.6969129034 -3.7141679077
C -2.2196634029 -4.6516498458 -5.5156215444
H -1.2160172688 -4.6458223516 -5.9189950960
C -3.2606939410 -5.2020409851 -6.2421189876
H -3.0855418796 -5.6353298994 -7.2171017090
C -4.5393183385 -5.1865224773 -5.7068499831
H -5.3700926056 -5.6064584617 -6.2592452182
C -4.7750611913 -4.6094353198 -4.4693000362
C -4.8561965531 -4.1255677302 -0.2220435726
H -3.9837271536 -3.7098181387 0.2609794200
C -5.8590991901 -4.6713155786 0.5657319480
H -5.7403863679 -4.6701796409 1.6408863584
C -6.9897162248 -5.2222285779 -0.0110129056
H -7.7649894901 -5.6605728120 0.6020229108
C -7.1222212472 -5.2005624158 -1.3907114550
H -8.0004624503 -5.6207129645 -1.8638278800
C -6.1446114889 -4.6169448644 -2.1805333479
S -6.4275242852 -4.4108432805 -3.9033011241
