54
SOURCE-VERBATIM PBEh-3c S0 geometry used without modification in DOI 10.1039/d5cp01869b; exact ACS Figshare geometry archive for ref. 64 DOI 10.1021/acs.jpclett.1c02299, system 27 DABNA-1
B -2.2557062279 0.4141168346 -0.0242467383
C -3.6475326992 1.0519390457 0.1299856481
C -0.8863766659 1.0981478097 -0.1817805494
C -2.2300205113 -1.0941570038 -0.0205601890
C 0.2716812996 0.3054078883 -0.0384477722
C 1.5417156292 0.9048067399 -0.0927166636
C 1.6648168059 2.2504457128 -0.3581101610
C 0.5404106571 3.0362345756 -0.5905257264
C -0.7037741535 2.4537944025 -0.4953883549
H -1.5745336841 3.0609319277 -0.6984783386
H 2.6540576248 2.6875521044 -0.4043533357
H 0.6421584336 4.0837234348 -0.8400827005
H 2.4382546820 0.3214525432 0.0560691342
C -3.8761736957 2.4021536674 0.4367974899
C -5.1394693207 2.9423916198 0.5290681168
C -6.2364598628 2.1176477746 0.3006639200
C -6.0676274906 0.7756546801 0.0420076844
C -4.7779320651 0.2195539951 -0.0093397445
H -6.9438045651 0.1614349118 -0.1038289577
H -3.0266091972 3.0396133816 0.6367573654
H -5.2768306413 3.9870489499 0.7733755543
H -7.2400062046 2.5210667916 0.3447767417
C -3.4306263333 -1.8294631283 -0.1053264699
C -3.4027907032 -3.2258668239 -0.1196211516
C -2.1828206938 -3.8672382640 -0.0140683913
C -0.9853876945 -3.1842430923 0.0884203934
C -1.0050925116 -1.7877789568 0.0675812651
H -4.3044543032 -3.8136360771 -0.1975373014
H -2.1644008469 -4.9496653492 -0.0115641673
H -0.0642508810 -3.7406283232 0.1689891235
N 0.1786611145 -1.0703708595 0.1433712290
N -4.6381146350 -1.1531540722 -0.1843749410
C -5.8175092411 -1.9319323679 -0.3622564443
C 1.3838084357 -1.8076603846 0.3253497099
C 2.0839157590 -2.2765767591 -0.7773875862
C 1.8476248739 -2.0567159595 1.6078290092
C 3.0191993770 -2.7771425774 1.7879713454
C 3.7230175821 -3.2468458304 0.6887040421
C 3.2544880754 -2.9961113171 -0.5934960383
H 1.7066516266 -2.0740469718 -1.7715603277
H 1.2878946762 -1.6849120986 2.4562292853
H 3.3819197484 -2.9714579895 2.7885375510
H 4.6367249277 -3.8086093084 0.8306687396
H 3.8011926467 -3.3616171992 -1.4525938243
C -6.2728820230 -2.2031031230 -1.6432819181
C -6.5010726886 -2.4187217533 0.7431110503
C -7.4193972483 -2.9637431166 -1.8192960290
C -8.1066732676 -3.4514057827 -0.7173894325
C -7.6466393030 -3.1784169907 0.5633396011
H -6.1306668601 -2.1984563069 1.7360898402
H -9.0008596986 -4.0445049748 -0.8561562809
H -8.1804656109 -3.5578558163 1.4244924017
H -5.7262865397 -1.8168435585 -2.4937853352
H -7.7755359071 -3.1753366552 -2.8187213710
