102
VERBATIM source coordinates: optimized [DyO@C100]+, Table S1 of publisher ESI for DOI 10.1039/d5dt01279a (Angstrom)
Dy    -0.525081    -0.142921    -0.130954
O     -1.679420     1.193516     0.198079
C     -1.280303     5.226923    -0.421183
C     -2.628274     5.104236    -0.050601
C     -3.612715     4.570820    -0.945104
C     -0.886245     4.814826    -1.767145
C     -1.872116     4.298958    -2.620745
C     -3.231943     4.173658    -2.209246
C      2.655234     3.993375    -0.958970
C      1.432735     4.728173    -1.061882
C      0.477829     4.431760    -2.048774
C      2.941925     3.004997    -1.880970
C      2.017504     2.723841    -2.930611
C      0.769095     3.359946    -3.007767
C      3.461069     2.550951     0.888620
C      2.977460     3.794913     0.418782
C      3.541159     1.777992    -1.454283
C      3.752918     1.493357    -0.091063
C     -4.722884     0.806766    -2.367731
C     -4.682875     2.169760    -2.012986
C     -3.787573     2.971759    -2.760157
C     -2.774912     2.379219    -3.582149
C     -1.397217     0.364836    -3.917475
C     -2.686673     0.985091    -3.759515
C     -3.771970     0.230513    -3.257167
C     -0.009865    -1.626879    -3.506287
C     -1.283213    -1.060374    -3.620498
C     -0.324061     2.623341    -3.623825
C     -1.596062     3.181356    -3.493480
C      2.162537     1.334673    -3.268503
C      1.074749     0.575748    -3.763323
C     -0.216183     1.198282    -3.916705
C      1.168639    -0.822333    -3.592264
C     -5.044586     2.541337    -0.653629
C     -4.560619     3.783982    -0.189365
C     -4.237465     3.987686     1.188506
C     -5.336875     1.488484     0.327661
C     -5.121841     1.778036     1.688413
C     -4.523006     3.005804     2.111350
C     -4.542652    -1.437420    -1.853802
C     -5.137367    -0.208881    -1.427843
C     -5.338480     0.082854    -0.064865
C     -4.252142    -2.425163    -0.935942
C     -4.566605    -2.219910     0.447402
C     -5.039809    -0.972634     0.915229
C     -2.376956    -1.797453    -2.996193
C     -3.620098    -1.154915    -2.907226
C     -3.038540    -3.168720    -1.047983
C     -2.083847    -2.876206    -2.041156
C     -2.066366     4.437610     2.281292
C     -2.355903     3.369586     3.242755
C     -3.019983     4.728909     1.293669
C     -3.599377     2.729545     3.162316
C     -3.747677     1.343401     3.506890
C     -2.755554    -0.805708     3.833717
C     -2.661937     0.589490     4.008845
C     -1.372646     1.212821     4.164923
C     -1.262348     2.636902     3.864901
C      0.007907     3.196246     3.733429
C     -4.673011    -0.598825     2.275697
C     -4.708063     0.764307     2.627379
C     -3.776769    -1.402750     3.018814
C      0.283681     4.306390     2.850576
C     -0.703397     4.821873     1.997298
C     -0.307120     5.230236     0.651628
C      1.645201     4.184357     2.439488
C      2.027125     4.586311     1.175365
C      1.044001     5.116385     0.282926
C      2.203511     2.986923     2.995951
C      3.100858     2.182067     2.251470
C      3.141387     0.818829     2.608731
C     -1.577818    -1.603316     3.738515
C     -0.307070    -1.040032     3.855917
C     -0.192930     0.382354     4.159252
C      1.098726     1.001063     3.997180
C      1.189202     2.395169     3.818310
C      2.184349     0.245336     3.493359
C      0.488368    -2.848184     2.266683
C      0.782361    -1.774718     3.226841
C      2.030848    -1.142608     3.144896
C      1.443187    -3.159604     1.282970
C     -2.638496    -3.542737     0.297447
C     -3.614558    -3.007472     1.198100
C     -3.224115    -2.599130     2.459606
C     -1.282748    -3.663147     0.654182
C     -0.879206    -3.234182     1.996287
C     -1.858657    -2.715241     2.856601
C      1.636513    -2.616457    -2.224173
C      0.271798    -2.745181    -2.632423
C     -0.714774    -3.275687    -1.776115
C      2.024407    -3.020326    -0.958652
C      1.047888    -3.555299    -0.062544
C     -0.309185    -3.685479    -0.426488
C      3.127197     0.756720    -2.390232
C      3.086504    -0.605729    -2.037095
C      2.190235    -1.417788    -2.780483
C      2.951115    -1.430475     2.093054
C      3.549428    -0.202570     1.667928
C      3.751285     0.084439     0.303943
C      2.661607    -2.422671     1.175165
C      2.975906    -2.224389    -0.205827
C      3.450543    -0.975672    -0.674300
