81
SOURCE-VERBATIM PBEh-3c S0 geometry used without modification in DOI 10.1039/d5cp01869b; exact ACS Figshare geometry archive for ref. 64 DOI 10.1021/acs.jpclett.1c02299, system 14 MFAc-SPS
C	-3.9755881230	0.8171916748	0.9275292591
C	-2.9613080192	1.7457093885	1.1381582290
C	-1.6429007383	1.4346737074	0.8292109806
C	-3.6910252119	-0.4364036987	0.4051806280
C	-2.3742081227	-0.7462943393	0.0973316642
C	-1.3607326928	0.1878603840	0.3100015485
C	-1.7760821790	-1.9616179123	-0.4529952773
C	-0.0060166876	-0.3733509182	-0.0943597128
C	-0.4007710701	-1.7628168290	-0.5716871982
C	-2.3474575825	-3.1670453283	-0.8340430486
C	-1.5238994110	-4.1658099197	-1.3333238456
C	-0.1525443766	-3.9631828095	-1.4500143037
C	0.4188562994	-2.7556527839	-1.0680715023
C	0.9190143319	-0.4600279561	1.1034181183
C	0.5985976186	0.4326580363	-1.2264470306
C	2.1790908441	0.1354730514	1.1144545471
C	1.8696123691	0.9988736465	-1.1398749840
N	2.6394306122	0.8488883907	0.0111799053
C	0.4938364455	-1.1624512459	2.2256878128
C	1.2690915342	-1.3016825885	3.3639344396
C	2.5266527503	-0.7056152537	3.3524454351
C	2.9779021266	-0.0006939636	2.2558031985
C	-0.1415404409	0.6096567946	-2.3898082957
C	0.3284947506	1.3228203740	-3.4795537176
C	1.5989604157	1.8799137454	-3.3734361132
C	2.3580856751	1.7257446428	-2.2316278796
C	3.9061865985	1.4775133017	0.0763558908
C	5.0439986879	0.8002097544	-0.3532469547
C	3.9953909791	2.7740882344	0.5473233396
C	5.2349017943	3.4014295202	0.6027825972
C	6.3830557644	2.7281872866	0.2012529660
C	6.2695321136	1.4310315408	-0.2937759760
O	5.2210570814	4.6714088512	1.0772012233
C	6.2156531529	5.5667671053	0.8439727967
C	7.5134323065	5.2173824770	0.4895471099
C	8.4480294273	6.2255814425	0.2587817618
C	8.1062851604	7.5534932394	0.4143380634
C	6.8098034080	7.8865553691	0.7938395844
C	5.8633004894	6.9033313223	1.0027813584
P	8.0081383300	3.4945615485	0.3346424596
S	9.2555884390	3.0852815882	-1.0964123540
C	8.6110038554	3.0113486264	1.9838030211
C	7.8756322837	3.3161600561	3.1270326208
C	9.8054847813	2.3132567819	2.0970165006
C	10.2619545459	1.9188862884	3.3467137415
C	9.5288436049	2.2217263537	4.4828982100
C	8.3350071147	2.9223452890	4.3719696343
H	-4.9970649181	1.0762516803	1.1737082806
H	-3.2030638468	2.7184584121	1.5459832719
H	-0.8514391883	2.1557616178	0.9931947584
H	-4.4856939027	-1.1543549770	0.2434807741
H	-3.4143972503	-3.3311679257	-0.7462295073
H	-1.9518943691	-5.1127109448	-1.6355747218
H	0.4736643279	-4.7538759164	-1.8419951516
H	1.4864570672	-2.5963423644	-1.1577991148
H	-0.4896195126	-1.6197217110	2.2013987113
H	3.1730332725	-0.7937026876	4.2175882032
H	3.9635285302	0.4421072693	2.2888136262
H	-1.1312975564	0.1679394589	-2.4395647125
H	2.0095765592	2.4495996030	-4.1985474462
H	3.3390008729	2.1781971506	-2.1945812064
H	4.9545109353	-0.2084216039	-0.7332635633
H	3.1040209947	3.3043800990	0.8575103935
H	7.1640795253	0.9282578205	-0.6402233909
H	9.4467455380	5.9453123976	-0.0530348065
H	8.8400155528	8.3276847095	0.2377744087
H	6.5307524896	8.9247346290	0.9156946266
H	4.8474706401	7.1548880297	1.2777159557
H	6.9426913848	3.8622092974	3.0602459540
H	10.3732144577	2.0841224119	1.2034706514
H	11.1935936088	1.3749949473	3.4298855864
H	9.8862227551	1.9144285418	5.4570199220
H	7.7611891454	3.1632212464	5.2570623892
C	0.7623732979	-2.0400579379	4.5677841190
H	0.0647550449	-2.8293859180	4.2887759201
H	0.2367380733	-1.3711071163	5.2526860248
H	1.5758388607	-2.5019124448	5.1274652232
C	-0.4889785461	1.4584012926	-4.7304781313
H	-0.2177889464	2.3516270689	-5.2930386676
H	-1.5543705170	1.5192155291	-4.5084060464
H	-0.3452954170	0.6019540685	-5.3926327852
