80
SOURCE-DERIVED crystallographic molecular core (CIF fractional coordinates Cartesianized, periodic molecule unwrapped, and rigidly recentered) for 1c, CCDC 2172305, publisher CIF DOI 10.1039/d4dt03529a; CIF riding-model H, lattice solvent/counterion excluded
Ho    -0.67041607     2.82613308     0.09614115
Ni     0.07946065    -0.50938916    -0.06750227
O     -0.93638900     0.81053744     1.11582488
O     -1.37693537    -0.79319051    -1.54595362
O      0.55506612     1.21212820    -0.98246450
O      0.50119469     3.58267316    -1.95506216
N     -0.85747642    -1.99664525     0.95243877
N      1.46340496    -1.45671121    -1.19859731
O     -1.93376580     1.86247335    -1.63600896
O     -0.99506491     2.89649051     2.63776010
C      1.08476549     1.33624188    -2.18920604
C      1.07590897     2.61427023    -2.77327923
C      1.68401819     0.28088033    -2.90064321
C     -1.19542991    -1.90784204     2.19134292
H     -1.49790083    -2.68161574     2.60940553
C      1.93362337    -1.02007348    -2.31013749
H      2.48880211    -1.59560785    -2.78508934
C     -1.05281017     0.58444500     2.42805981
C     -1.84621960    -3.09126994    -0.94000984
C      1.98557026    -2.65700381    -0.62738917
C      1.62065895     2.85327471    -4.00832387
H      1.59626637     3.70654968    -4.37659874
N     -3.13228755     2.12940999    -2.13774584
C      2.23458030     0.53964813    -4.17042348
H      2.61982284    -0.15665334    -4.65137045
C     -1.14165038    -0.69542793     2.98640291
C     -1.10305767     1.68592098     3.29001805
C     -2.41462498    -1.76870823    -1.37870799
H     -2.88842880    -1.88243958    -2.21757347
H     -3.04936082    -1.45341732    -0.71610654
C     -1.15189484    -3.20826882     0.26673169
C      2.21475127     1.79396049    -4.70946900
H      2.59513935     1.94547931    -5.54435918
C     -1.29262357    -0.83060907     4.38869318
H     -1.37069620    -1.67824490     4.76603791
C      2.55688477    -2.55660612     0.65011013
C     -2.11118853    -4.25625207    -1.65787954
H     -2.58481325    -4.20795050    -2.45719786
C     -0.74645546    -4.44914212     0.72730042
H     -0.28863804    -4.52044820     1.53355300
C     -1.22278948     1.53571971     4.65628618
H     -1.23487375     2.28295785     5.21167032
C     -1.32222358     0.27350202     5.18889918
H     -1.41197764     0.17070638     6.10826127
O     -3.44774566     3.27225720    -2.39633331
C      0.55999749     4.94291694    -2.42978244
H      1.46801751     5.16821884    -2.64572228
H      0.23813150     5.53510521    -1.74552911
H      0.01302563     5.03293230    -3.21343113
O     -3.80537765     1.17997986    -2.46451807
C     -1.02567182    -5.58171240    -0.01501287
H     -0.76321684    -6.41767470     0.29821246
C      2.82064975    -1.24432134     1.32037915
H      3.10246485    -1.40730289     2.23360460
H      3.55074725    -0.79798641     0.86150860
C     -1.67752743    -5.47630800    -1.19473780
H     -1.83670726    -6.24128043    -1.69954943
C      1.89092035    -3.85571535    -1.28093362
H      1.50536079    -3.90854931    -2.12593573
C      2.39759259    -5.02306908    -0.63768121
H      2.33546345    -5.85096794    -1.05755779
C      3.04043781    -3.72132474     1.23289682
H      3.42266102    -3.68261497     2.07968717
C      2.96834894    -4.92557001     0.58835790
H      3.31586162    -5.68590465     0.99599982
C     -1.14020475     4.07333064     3.43667960
H     -0.49257510     4.06107738     4.14500343
H     -2.02353910     4.09957634     3.80995898
H     -1.00053860     4.85016107     2.88924606
O     -1.80402693     4.88441750    -0.45242451
N     -2.85322675     4.67940594     0.13293519
O     -2.99111571     3.44880957     0.62823955
O     -3.72435469     5.45939850     0.22942305
O      0.66347859     4.65279133     0.87653498
O      1.50955256     2.70518153     1.21745876
N      1.62340432     3.94948047     1.35897429
O      2.55177982     4.44751626     1.95462603
H     -1.56556206    -0.16129113    -1.71319925
O      1.70428236    -0.38975517     1.33453070
H      2.00928612     0.37890642     1.58025312
