111
SOURCE-VERBATIM PBEh-3c S0 geometry used without modification in DOI 10.1039/d5cp01869b; exact ACS Figshare geometry archive for ref. 64 DOI 10.1021/acs.jpclett.1c02299, system 21 3DPA3CN
C -9.4095301084 -2.7192609427 1.9055586195
C -8.7919028148 -1.5975056330 1.3773831810
C -7.6776234437 -1.7361593298 0.5532613640
C -7.1899005843 -3.0108358688 0.2722696611
C -7.8012374518 -4.1252831820 0.8222651415
C -8.9159532960 -3.9875942830 1.6368435899
H -9.3955955013 -4.8608432178 2.0579555901
H -7.4093626043 -5.1088945602 0.5991657849
H -6.3290977081 -3.1287493018 -0.3735917719
N -7.0582824106 -0.5966940584 0.0015779887
C -5.6687168354 -0.4786905189 0.0014198825
C -4.9090518969 -0.9977532961 1.0525555382
C -3.5332178722 -0.8924200490 1.0407858189
C -2.8739598556 -0.2423621653 0.0008147120
C -3.6334966350 0.2879593265 -1.0386991243
C -5.0075022861 0.1608198859 -1.0498819280
H -5.5717067653 0.5580367795 -1.8827395200
H -3.1457435917 0.7823511497 -1.8690725003
C -1.4071518832 -0.1186213922 0.0002084833
C -0.5888891772 -1.2542522463 -0.0003249179
C -1.1973750176 -2.5486898386 -0.0002578335
N -1.6871548412 -3.5905099357 -0.0002319479
C 0.8076086931 -1.1596946850 -0.0010994786
C 1.3819337431 0.1167733251 -0.0014090333
C 2.8071678501 0.2373967947 -0.0029960822
N 3.9542521544 0.3347044544 -0.0045259478
C 0.6017481673 1.2788213076 -0.0003529408
C -0.7908092645 1.1380794306 0.0002758449
C -1.6074102181 2.3123815068 0.0015051391
N -2.2645434233 3.2576045705 0.0025083690
C 1.2278045031 2.6110542604 0.0008297947
C 0.9949653637 3.5056522590 1.0420819680
C 1.5915687885 4.7498455223 1.0551575435
C 2.4203908941 5.1495608890 0.0041130792
C 2.6429400945 4.2586059052 -1.0485424305
C 2.0660919179 3.0050548481 -1.0387239295
H 2.2499426482 2.3365100589 -1.8700501173
H 3.2685618025 4.5497659949 -1.8813564828
N 3.0131032196 6.4119304930 0.0057764194
C 4.2958927616 6.5989792359 -0.5471432180
C 4.5509374541 7.6935364516 -1.3699076312
C 5.8165141923 7.8850048333 -1.8994334293
C 6.8355926008 6.9821119713 -1.6334660224
C 6.5795081067 5.8875089559 -0.8202314248
C 5.3229841426 5.6993648700 -0.2688802472
H 5.1361487483 4.8500095786 0.3758832336
H 7.3666681220 5.1787280336 -0.5992324803
H 7.8203967023 7.1300839613 -2.0556243144
H 6.0017616761 8.7402323307 -2.5360602599
H 3.7567668365 8.3946979658 -1.5919060401
C 2.3361942833 7.5170987926 0.5596738572
C 3.0132956901 8.4103793712 1.3864662922
C 2.3508304281 9.5051474664 1.9169329358
C 1.0059066431 9.7131673901 1.6478362125
C 0.3294118879 8.8190020080 0.8305897849
C 0.9887253768 7.7333814925 0.2783325279
H 0.4563175704 7.0486790386 -0.3695524235
H -0.7181393559 8.9724969490 0.6071950835
H 0.4895960279 10.5643689744 2.0707259853
H 2.8887992279 10.1923825773 2.5567125617
H 4.0594615114 8.2465509226 1.6108161342
H 1.4154592010 5.4155157118 1.8892011799
H 0.3622034444 3.2185963127 1.8721858399
C 1.6482236275 -2.3680144355 -0.0009979666
C 2.5429670545 -2.6122560875 1.0375425644
C 3.3222642443 -3.7509747997 1.0495372066
C 3.2502549270 -4.6701482325 0.0001212230
C 2.3636756313 -4.4190010033 -1.0497663111
C 1.5666101897 -3.2926100112 -1.0388997797
H 0.8929672819 -3.1187123176 -1.8682416853
H 2.3000724822 -5.1077468185 -1.8812450670
N 4.0468747922 -5.8148860776 0.0005904116
C 5.3451506765 -5.7801772747 0.5478762019
C 6.2045103728 -4.7216741581 0.2602899074
C 7.4770090415 -4.6920364776 0.8062659771
C 7.9174525792 -5.7232633368 1.6233648714
C 7.0665007500 -6.7837458041 1.8986062980
C 5.7846064741 -6.8115317905 1.3744483249
H 5.1210459958 -7.6354261906 1.6036123719
H 7.3960601432 -7.5919316200 2.5383333968
H 8.9148076966 -5.7006087368 2.0413658879
H 8.1323387673 -3.8617943663 0.5780749776
H 5.8743159245 -3.9195903048 -0.3875216745
C 3.5633978573 -7.0206532782 -0.5458298393
C 4.3784379431 -7.7923050431 -1.3706444740
C 3.9072109200 -8.9851757458 -1.8938803229
C 2.6167111677 -9.4139523469 -1.6195414015
C 1.8021227185 -8.6414057304 -0.8042583042
C 2.2718012455 -7.4579875799 -0.2591591343
H 1.6338278394 -6.8687984590 0.3872688680
H 0.7955575520 -8.9668423960 -0.5767752861
H 2.2490999881 -10.3416760681 -2.0368463139
H 4.5510741875 -9.5759409452 -2.5322086110
H 5.3818938261 -7.4569429508 -1.5991892260
H 3.9896970172 -3.9301095961 1.8815314336
H 2.6134996179 -1.9197300957 1.8665652820
H -2.9690498802 -1.2977403376 1.8710148130
H -5.3982292713 -1.4839860229 1.8856523099
C -7.8608942665 0.4210311562 -0.5519785761
C -7.5966416231 1.7600254627 -0.2711838414
C -8.3867331000 2.7545642715 -0.8233819242
C -9.4603062119 2.4296142570 -1.6400261293
C -9.7314613769 1.0958607216 -1.9085080887
C -8.9339234437 0.0951969088 -1.3780727604
H -9.1429883759 -0.9429836672 -1.6018891708
H -10.5628756994 0.8292217859 -2.5477849860
H -10.0800020561 3.2087845600 -2.0629059958
H -8.1675467586 3.7904634408 -0.6004460690
H -6.7694893500 2.0222825992 0.3761692231
H -9.1741677198 -0.6099242655 1.6014112511
H -10.2753360323 -2.5978202445 2.5432534737
