65
SOURCE-VERBATIM PBEh-3c S0 geometry used without modification in DOI 10.1039/d5cp01869b; exact ACS Figshare geometry archive for ref. 64 DOI 10.1021/acs.jpclett.1c02299, system 11 XAc-XT
C	-6.3230390557	2.8813898979	0.3183071419
C	-5.4671785426	3.8781515419	0.7945372957
C	-7.6976272504	3.0887294474	0.3912361072
C	-8.2190781392	4.2633965611	0.9266712779
C	-7.3530450192	5.2313113234	1.3896563349
C	-5.9695703377	5.0432523749	1.3258997836
H	-9.2893852180	4.4142706293	0.9784958157
N	-7.8818884689	6.4275846245	1.9347408719
C	-8.0352865306	7.5363474850	1.1034133990
C	-8.0715116239	6.5135325425	3.3133809099
C	-8.5513921719	8.7312646006	1.6056463408
C	-8.5880297060	7.6765018567	3.8853579497
C	-7.6791575312	7.4596944324	-0.2488856552
C	-8.6898452278	9.8168858252	0.7482114837
C	-7.8311453563	8.5520823043	-1.0792028334
C	-8.3376371931	9.7450610285	-0.5851599546
H	-9.0903876693	10.7427218413	1.1426513869
H	-7.5479350133	8.4663259122	-2.1199476509
C	-7.7506153455	5.4290072271	4.1394136523
C	-7.9375849296	5.5056072950	5.5050710708
C	-8.4448591600	6.6608844441	6.0810866010
C	-8.7621820256	7.7278335688	5.2637561360
H	-7.6814135869	4.6534182404	6.1205898694
H	-9.1630867936	8.6328938103	5.7034282130
H	-5.3111493296	5.8176469446	1.6958352364
H	-4.4001763579	3.7106980005	0.7349669540
C	-8.1717257266	1.0124288887	-0.5790787058
C	-9.1631337618	0.1328729048	-1.0036124353
C	-8.7930411552	-1.0743309938	-1.5571559966
C	-7.4467539118	-1.4166149611	-1.6932245705
C	-6.4746660574	-0.5387782065	-1.2698359515
C	-6.8225635618	0.6914322857	-0.7051898167
H	-10.2042911460	0.4055003492	-0.8947084711
H	-5.4246560219	-0.7810724215	-1.3644805084
H	-7.1708325341	-2.3667311252	-2.1291639073
C	-5.7903197716	1.6334742305	-0.2507078449
O	-8.5906313755	2.1799303198	-0.0447914933
O	-4.6029084164	1.4061285958	-0.3360516905
H	-9.5601455940	-1.7614782851	-1.8886823269
C	-9.0202938620	8.8687899334	3.0458961218
H	-7.2799545274	6.5428628499	-0.6584036514
H	-8.4590247903	10.6046648970	-1.2295338172
H	-7.3514675751	4.5183198900	3.7163521791
H	-8.5932524972	6.7281266014	7.1498845112
C	-10.5395521182	8.9415304399	3.0552868933
C	-8.4364591326	10.1370128452	3.6419033091
C	-9.2359454638	11.1688125985	4.1061422452
O	-10.5897662814	11.1293468780	4.0659816886
C	-11.2184597606	10.0423327189	3.5533196843
C	-12.6100493849	10.0926595158	3.5543231587
C	-13.3333475107	9.0309217444	3.0518954234
C	-12.6729498254	7.9158419086	2.5469641461
C	-11.2931373695	7.8826769680	2.5537382816
H	-13.2338370456	7.0800857302	2.1516297403
H	-10.7782522506	7.0144680282	2.1606192760
H	-13.1058030756	10.9688201392	3.9514685303
H	-14.4144048834	9.0715009054	3.0533625769
C	-8.6780547878	12.3242664796	4.6494518507
C	-7.3067221193	12.4487162150	4.7291400700
C	-6.4851628188	11.4244040390	4.2687203686
C	-7.0544337760	10.2869340355	3.7335001359
H	-9.3325575421	13.1104844084	5.0024423127
H	-6.8751799175	13.3465111268	5.1512542252
H	-5.4094412958	11.5165763363	4.3287164063
H	-6.4214337705	9.4852574262	3.3729803144
