14
Azidoethyl methyl sulfide M1; source-verbatim CASSCF(16e,13o)/ANO-RCC geometry from the official Supplementary Material
N      0.139124900702      0.000000000000      0.272605619310
N      0.283104795185      0.000000000000      1.508745914561
N      0.544002164131      0.000000000000      2.618734626195
C     -1.310994522186      0.000000000000     -0.148258429160
C     -1.334821844287      0.000000000000     -1.663527033934
S     -3.046753112410      0.000000000000     -2.246172918858
C     -2.771676648664      0.000000000000     -4.026639033555
H     -1.802843808971     -0.880597480027      0.244262225503
H     -1.802843808971      0.880597480027      0.244262225503
H     -0.824222906920      0.877253075278     -2.036584791912
H     -0.824222906920     -0.877253075278     -2.036584791912
H     -3.744353261688      0.000000000000     -4.496657086121
H     -2.232983940926      0.884612902543     -4.335433785544
H     -2.232983940926     -0.884612902543     -4.335433785544
