90
SOURCE-VERBATIM PBEh-3c S0 geometry used without modification in DOI 10.1039/d5cp01869b; exact ACS Figshare geometry archive for ref. 64 DOI 10.1021/acs.jpclett.1c02299, system 16 p-AC-DBNA
C	-3.6707390338	0.2049143050	-0.3385361923
C	-4.4085483999	1.3385425157	0.0075300896
C	-3.7091854123	2.4356201819	0.5140292193
C	-2.2943792109	0.1498276801	-0.1881131243
C	-1.6471846550	1.2681996162	0.3161162286
C	-2.3325685429	2.4205539569	0.6713296390
H	-1.8129379755	3.2837391402	1.0635959977
H	-1.7450809414	-0.7405473877	-0.4610286179
H	-0.5722605673	1.2408111085	0.4362344698
B	-5.9117561283	1.3767652095	-0.1603104845
O	-4.3573152831	3.5609327238	0.8660110463
O	-4.2809423458	-0.8882404935	-0.8314369708
C	-6.5639447492	2.6766729467	0.3556403868
C	-5.7026981572	3.6801807909	0.8240236209
C	-7.9376665500	2.9622841035	0.4226176550
C	-8.4256179033	4.1600368593	0.8939141213
C	-7.5316455150	5.1393991559	1.3262398137
C	-6.1746867692	4.9040727891	1.2964240309
H	-9.4890775517	4.3534915069	0.9360277961
H	-8.6491652064	2.2140480782	0.1072411475
C	-5.6065726052	-0.9391612202	-1.0886647530
C	-6.4984957274	0.1086027215	-0.8151616278
C	-7.8360934438	-0.1076882930	-1.1855711629
C	-8.2673644113	-1.2812614999	-1.7613893293
C	-7.3501436223	-2.3060573348	-1.9931953695
C	-6.0232658943	-2.1394741751	-1.6626446662
H	-8.5612549369	0.6767816862	-1.0297155735
H	-9.3035892062	-1.4208987242	-2.0386750145
N	-8.0182378584	6.3803102055	1.8074381253
C	-8.2165905167	7.4211707415	0.9046210994
C	-8.3124180636	6.5100943056	3.1618801011
C	-8.7085005570	8.6549206806	1.3404959536
C	-8.8061522293	7.7157992044	3.6685669609
C	-7.9208514371	7.2341631542	-0.4510808679
C	-9.0498884861	8.9357149443	2.7949219611
C	-10.5336849808	9.3307641217	2.8921537111
C	-8.8838661596	9.6600846386	0.3943007964
C	-8.1079422282	8.2534796996	-1.3635318289
C	-8.5933035835	9.4815859648	-0.9458737064
H	-8.7435619637	10.2883937479	-1.6499691808
H	-9.2622122322	10.6222600292	0.7167033812
H	-7.5397367444	6.2852423759	-0.8001007407
H	-7.8705903956	8.0808090272	-2.4049892343
C	-8.1122914618	5.4268134198	4.0260590012
C	-8.3940542862	5.5347216538	5.3734749431
C	-8.8811089072	6.7239231915	5.8900164534
C	-9.0779604556	7.7898499827	5.0313052996
H	-7.7320872909	4.4894197367	3.6462985940
H	-8.2294040787	4.6812526937	6.0178854947
H	-9.1044506326	6.8221404539	6.9434569181
H	-9.4584875354	8.7179552378	5.4395432116
H	-11.1736764352	8.5221950013	2.5397663595
H	-10.7503649615	10.2153229752	2.2925153669
H	-10.8182717272	9.5600064762	3.9194794117
C	-8.1697401207	10.0929761846	3.2983374083
H	-7.1135868633	9.8314654135	3.2369691423
H	-8.3939005333	10.3403900529	4.3365151823
H	-8.3259349003	10.9967995550	2.7084285891
H	-7.7350543844	-3.9183466496	-7.8334020469
H	-6.9794350064	-1.8223596139	-6.7190914350
C	-7.7432995204	-3.8295291559	-6.7557608842
C	-7.3231296094	-2.6653207457	-6.1342220025
C	-8.1756899133	-4.8827164055	-5.9707921627
C	-7.3383015616	-2.5692426322	-4.7568705375
H	-8.5027179949	-5.7913921821	-6.4609224078
H	-7.0046475297	-1.6514314367	-4.2945284045
C	-8.2056220319	-4.8198918268	-4.5809786248
C	-7.7761138151	-3.6395180989	-3.9674336458
H	-7.7855921914	-7.4627691114	-5.1663225973
C	-7.7826406228	-7.2249621388	-4.1020248077
H	-6.7541509733	-7.0160554717	-3.8084548680
H	-10.2011767707	-6.5621501122	-5.2835603895
C	-8.6942432411	-6.0246171440	-3.7930733773
N	-7.7796824744	-3.5221895302	-2.5803011713
C	-10.1380410714	-6.3457990861	-4.2167296222
H	-8.1082534541	-8.1188773263	-3.5689653705
H	-10.7996744128	-5.5060434680	-4.0055546577
C	-8.6667757457	-5.7584557495	-2.2966781768
C	-8.2222484417	-4.5500421395	-1.7523986905
H	-10.5237716679	-7.2176662665	-3.6875784653
C	-9.0947398343	-6.7517132147	-1.4210673414
C	-8.2223256048	-4.3753450341	-0.3632185523
H	-9.4401659888	-7.6943786628	-1.8272024520
C	-9.0967215300	-6.5853474556	-0.0482298147
C	-8.6549232549	-5.3822416465	0.4767716875
H	-9.4373214077	-7.3822307427	0.5984815768
H	-8.6436094626	-5.2196184973	1.5464500174
H	-7.8809085649	-3.4459354274	0.0693816949
H	-5.4817065645	5.6599545394	1.6429651342
H	-5.3095769811	-2.9306303838	-1.8533978874
