113
SOURCE-VERBATIM PBEh-3c S0 geometry used without modification in DOI 10.1039/d5cp01869b; exact ACS Figshare geometry archive for ref. 64 DOI 10.1021/acs.jpclett.1c02299, system 22 5CzBN
C	-3.1952340807	3.0838357851	-0.0639759270
C	-1.9068303866	3.6240838972	-0.0775961382
C	-0.7775518285	2.8109303464	0.0470817383
C	-3.3607333882	1.6983735328	0.0730120806
C	-0.9376650488	1.4257025304	0.1914738879
C	-1.7412653931	5.0330032251	-0.2213000077
N	0.4890177701	3.3963550912	0.0189441075
C	1.4664639524	3.2377133361	0.9966308462
C	1.0820466639	3.9532375037	-1.1137280419
C	2.4480767490	4.1373493444	-0.8591158814
C	2.6933793529	3.6812052374	0.4858617512
C	3.2699999308	4.6430468240	-1.8581920124
C	2.7196441920	4.9503327314	-3.0892016682
C	1.3579921071	4.7561623298	-3.3257045204
C	0.5192956815	4.2554261118	-2.3444432756
H	0.9432065253	5.0070408767	-4.2927822781
H	-0.5334707212	4.1107993637	-2.5483226321
H	4.3278661502	4.7857605000	-1.6785561471
H	3.3464010367	5.3469333575	-3.8763487621
C	1.3356306236	2.7742807925	2.2954528928
C	2.4810759483	2.7093884507	3.0688010583
C	3.7177784634	3.1204977246	2.5689559756
C	3.8293217213	3.6190413396	1.2836944554
H	4.5944906625	3.0562518553	3.1990211013
H	4.7866940390	3.9533532932	0.9051466333
H	0.3808381588	2.4715307528	2.7026316232
H	2.4109635891	2.3301490301	4.0792346443
C	3.5849761598	-0.0542029158	-1.8732859490
H	4.4998094684	-0.2465990408	-2.4171941789
C	3.4144132995	-0.5773431873	-0.6044358902
H	4.1862925377	-1.1878299501	-0.1536153531
C	2.5802559697	0.7120528967	-2.4650972499
C	2.2373100168	-0.3092891037	0.0829157548
C	2.2678405848	-1.4525730208	2.4149480182
H	3.2465965370	-1.9051409651	2.3199534555
H	2.7236660895	1.1097136912	-3.4607003711
C	1.7367985344	-0.6988164950	1.3759949482
C	1.3972656464	0.9832206966	-1.8005283798
C	1.2510691840	0.4872621557	-0.5146097763
C	1.5317039888	-1.6095404352	3.5751657446
H	1.9288297360	-2.1987909697	4.3905393357
C	0.4685675381	-0.1187394964	1.5167396293
C	0.2798772602	-1.0071520664	3.7061859742
H	0.6246982388	1.5636088419	-2.2853570431
C	-0.2654359010	-0.2488203175	2.6848704011
H	-0.2829373353	-1.1344035088	4.6211706376
H	-1.2270428325	0.2256941443	2.8181640239
N	0.1759537253	0.6012432930	0.3614853673
H	-4.8853977004	-1.0815857759	4.1910770957
C	-4.3616345842	-1.4828406824	3.3339492574
H	-4.8131955101	-3.5205082272	3.8346682397
C	-4.3208798944	-2.8626158110	3.1315240289
H	-3.7750968895	0.4556919589	2.6448268676
C	-3.7475247440	-0.6077214049	2.4553482693
C	-3.6492768122	-3.3923170529	2.0449492318
C	-3.1038383843	-1.1456364291	1.3523741835
H	-3.6015371280	-4.4636286258	1.8974949789
C	-3.0317682319	-2.5300297784	1.1477129850
N	-2.3921297151	-0.5061653437	0.3397586407
C	-2.2445652322	-2.7404891835	-0.0400057367
C	-1.8664963363	-1.4760645413	-0.5109217561
H	-2.1426249655	-4.8614194706	-0.3821857454
C	-1.8578431454	-3.8788727352	-0.7360611699
C	-1.1433046697	-1.3245679375	-1.6831832640
H	-0.8811392940	-0.3531439222	-2.0770937741
C	-1.1085728041	-3.7383417849	-1.8898228558
C	-0.7622733294	-2.4707221449	-2.3584860075
H	-0.7932007068	-4.6153060114	-2.4385300908
H	-0.1809152943	-2.3743819448	-3.2655329757
H	-6.8975099640	2.9670700202	3.6379573699
C	-6.8762284562	2.3581225202	2.7442821345
H	-8.9661322564	1.8811223395	2.8476662816
C	-8.0462209348	1.7444520068	2.2955268773
H	-4.7819942285	2.6797772116	2.4393957279
C	-5.6805139234	2.2103702412	2.0637658974
C	-8.0348314209	0.9555702872	1.1596063773
C	-5.6870125780	1.4497120370	0.9052354709
H	-8.9386822048	0.4641292226	0.8230478234
C	-6.8461008481	0.8016280071	0.4573663238
N	-4.6378109194	1.1351239877	0.0469943288
C	-6.4831387822	0.0584784702	-0.7217541863
C	-5.1190415118	0.2884433875	-0.9480557058
H	-8.2555033334	-0.9263051894	-1.4390974274
C	-7.2012720367	-0.7416604344	-1.6012940341
C	-4.4655732383	-0.2378731164	-2.0508929632
H	-3.4237793572	-0.0364352444	-2.2551064989
C	-6.5519567977	-1.2919987107	-2.6913082412
C	-5.1982863948	-1.0355286044	-2.9125309328
H	-7.0959162972	-1.9222714066	-3.3816861812
H	-4.7042058349	-1.4690361508	-3.7716676095
H	-4.2591199391	6.4323941355	3.7140436352
C	-4.7442284169	6.0964065372	2.8073957938
H	-6.5306815606	7.2236836242	3.1866318599
C	-6.0309215716	6.5461969368	2.5076818954
H	-3.0702402879	4.8944404003	2.2147489130
C	-4.0668638569	5.2326654917	1.9635109134
C	-6.6673552564	6.1352897497	1.3506192111
C	-4.7142430274	4.8293417493	0.8055342365
H	-7.6687479618	6.4778091455	1.1234354585
C	-6.0078833863	5.2671225320	0.4899200094
N	-4.2926085122	3.9381133895	-0.1808189979
C	-6.3844939131	4.6216918279	-0.7424749885
C	-5.3046525280	3.8166692626	-1.1281960757
H	-8.3699164590	5.2771739507	-1.2525552320
C	-7.5240933097	4.6642610775	-1.5363592763
C	-5.3156118033	3.0875937053	-2.3059653083
H	-4.4656973891	2.4998668550	-2.6243056684
C	-7.5615993832	3.9086021652	-2.6941530950
C	-6.4644522940	3.1346197425	-3.0755746293
H	-8.4452335779	3.9230903449	-3.3176242005
H	-6.5080534185	2.5566942737	-3.9887067190
C	-2.2302692433	0.8725690413	0.2015652811
N	-1.6089571306	6.1700306186	-0.3377488540
