83
VERBATIM source coordinates: optimized [DyO2@C80]-, Table S1 of publisher ESI for DOI 10.1039/d5dt01279a (Angstrom)
Dy     0.189669    -0.702967    -0.188724
O     -1.800860    -0.087074    -0.091984
O      1.186781     0.826235     0.076165
C      1.602131    -2.499628     2.979492
C      1.340667    -1.315074     3.727393
C      2.264077    -0.232686     3.590854
C     -0.018732    -0.998291     3.990217
C      0.524249    -3.281366     2.431366
C     -1.761744    -3.203228     1.559267
C     -0.837078    -2.921136     2.627745
C     -1.095804    -1.800054     3.466244
C     -0.462170     0.372036     4.024816
C      0.449287     1.445835     3.798008
C      1.816260     1.130414     3.625127
C     -0.049557     2.608021     3.125702
C     -1.803267     0.425532     3.528725
C     -3.201852     1.318124     1.733871
C     -2.263743     1.559145     2.796359
C     -1.375319     2.660020     2.631694
C     -2.857815    -2.348288     1.280988
C     -3.047680    -1.167269     2.080578
C     -2.200282    -0.926848     3.187451
C     -3.501606    -0.000424     1.396008
C      0.793093     3.379621     2.242702
C      2.130414     3.020208     2.005700
C      2.656849     1.906510     2.735291
C      2.675018     3.273764     0.703372
C     -0.037761     3.906718     1.187675
C     -0.427543     3.883730    -1.223970
C      0.475915     4.081862    -0.139469
C      1.841096     3.800288    -0.358284
C     -3.194805     2.147546     0.499316
C     -2.244696     3.212466     0.323740
C     -1.366405     3.477448     1.412970
C     -1.771303     3.457061    -0.996790
C      3.621275     2.398661     0.123899
C      4.059150     1.230066     0.811970
C      3.605319     1.035251     2.151035
C      4.363217     0.072467     0.036847
C      3.376382     2.370861    -1.314837
C      2.734142     0.951993    -3.185380
C      3.579306     1.186642    -2.068806
C      4.119230     0.045841    -1.376007
C      0.021639     3.329056    -2.476064
C      1.378253     2.963859    -2.663855
C      2.295017     3.249095    -1.606014
C      1.638181     1.823662    -3.475948
C      4.113398    -1.240857     0.547914
C      3.561052    -1.445909     1.861152
C      3.354212    -0.299972     2.670004
C      2.703419    -2.562889     2.064662
C      3.734521    -2.080347    -0.544111
C      1.898559    -3.414554    -1.449402
C      2.781734    -3.121769    -0.364135
C      2.309854    -3.395135     0.952537
C      2.338579    -0.392286    -3.545510
C      2.796049    -1.505343    -2.789600
C      3.739698    -1.276969    -1.742822
C      1.906899    -2.617265    -2.655618
C      0.569758    -3.867306    -1.226846
C      0.059409    -4.040802     0.096804
C      0.970582    -3.833770     1.178562
C     -1.311081    -3.780558     0.310869
C     -0.260960    -3.348817    -2.283544
C     -2.147503    -1.911121    -2.826094
C     -1.616325    -3.010126    -2.060886
C     -2.157873    -3.292603    -0.753343
C      1.001628    -0.343990    -4.046971
C     -1.289661    -1.116621    -3.677914
C      0.081593    -1.420663    -3.838027
C      0.581228    -2.581587    -3.169243
C     -1.053689     2.548538    -3.029013
C     -1.729538     0.260597    -3.612967
C     -0.797597     1.349705    -3.750920
C      0.561481     1.025781    -4.002794
C     -3.480782     1.332631    -0.592607
C     -2.823469     0.333483    -2.717491
C     -3.011943     1.519339    -1.928831
C     -2.162025     2.628512    -2.122538
C     -3.125671    -2.424557    -0.169549
C     -3.108817    -1.034622    -2.241088
C     -3.479398    -1.264717    -0.898117
C     -3.276224    -0.049772    -0.076854
