82
VERBATIM source coordinates: optimized [DyO@C80]+, Table S1 of publisher ESI for DOI 10.1039/d5dt01279a (Angstrom)
Dy     0.954591    -0.016988    -0.027463
O     -0.856148    -0.003130    -0.012849
C      1.312891    -2.505507     2.962196
C      1.053357    -1.308968     3.727813
C      1.968367    -0.229186     3.605014
C     -0.296441    -0.988325     3.991444
C      0.254621    -3.295737     2.421583
C     -2.018394    -3.207191     1.551395
C     -1.100901    -2.912927     2.606008
C     -1.363509    -1.782093     3.432617
C     -0.738923     0.380957     4.042224
C      0.163690     1.466265     3.844236
C      1.534198     1.142722     3.662566
C     -0.331901     2.624391     3.172963
C     -2.073212     0.429529     3.522189
C     -3.462102     1.302422     1.716372
C     -2.531581     1.547904     2.786072
C     -1.667847     2.661452     2.656207
C     -3.093053    -2.340353     1.265961
C     -3.298973    -1.147481     2.022276
C     -2.450531    -0.908077     3.142306
C     -3.831722    -0.020669     1.349805
C      0.499402     3.397909     2.289656
C      1.837089     3.020064     2.043230
C      2.355757     1.912816     2.768634
C      2.354999     3.257387     0.718642
C     -0.329449     3.909672     1.222973
C     -0.733236     3.860946    -1.197194
C      0.165646     4.065106    -0.105976
C      1.539956     3.782085    -0.331270
C     -3.448076     2.088449     0.528801
C     -2.519416     3.143116     0.354889
C     -1.658228     3.449924     1.449873
C     -2.050413     3.405806    -0.969128
C      3.288737     2.358895     0.127519
C      3.728326     1.202435     0.815980
C      3.286906     1.011423     2.152841
C      4.037093     0.047981     0.043160
C      3.060825     2.339500    -1.300398
C      2.431263     0.907629    -3.183601
C      3.262154     1.148772    -2.056073
C      3.792974     0.022529    -1.374866
C     -0.282436     3.287478    -2.454114
C      1.068058     2.915077    -2.645893
C      1.985165     3.213549    -1.584541
C      1.337787     1.780010    -3.473900
C      3.793023    -1.250650     0.548041
C      3.247955    -1.451617     1.851288
C      3.050943    -0.303324     2.668272
C      2.407366    -2.574113     2.049019
C      3.404346    -2.088844    -0.553356
C      1.640031    -3.469396    -1.485665
C      2.486478    -3.160979    -0.384382
C      2.027398    -3.428758     0.940348
C      2.059552    -0.433301    -3.567757
C      2.507730    -1.554479    -2.823913
C      3.411084    -1.298497    -1.737101
C      1.652977    -2.676104    -2.694544
C      0.304103    -3.913983    -1.259605
C     -0.198923    -4.064315     0.071528
C      0.702234    -3.868438     1.168675
C     -1.564921    -3.772712     0.293114
C     -0.518161    -3.399851    -2.324727
C     -2.371397    -1.913355    -2.798825
C     -1.856149    -3.014876    -2.075673
C     -2.384376    -3.252224    -0.755799
C      0.725409    -0.385669    -4.087597
C     -1.543743    -1.145008    -3.686095
C     -0.173786    -1.471499    -3.879622
C      0.317024    -2.633315    -3.210519
C     -1.340812     2.490718    -2.990163
C     -1.983678     0.222584    -3.630796
C     -1.073593     1.297830    -3.757153
C      0.278909     0.983196    -4.033087
C     -3.841384     1.243710    -0.585042
C     -3.082992     0.294123    -2.703313
C     -3.287924     1.440448    -1.885371
C     -2.431204     2.554190    -2.079290
C     -3.323514    -2.364101    -0.167283
C     -3.318767    -1.015217    -2.192646
C     -3.767870    -1.206280    -0.854794
C     -4.076736    -0.048465    -0.082348
