99
SOURCE-VERBATIM PBEh-3c S0 geometry used without modification in DOI 10.1039/d5cp01869b; exact ACS Figshare geometry archive for ref. 64 DOI 10.1021/acs.jpclett.1c02299, system 25 Spiro-CN
C	-0.7918742944	1.0616062432	-1.4921798992
C	-1.1930124372	0.3190088288	-0.3808818529
C	0.0138597859	-0.2412096523	0.3445235251
C	1.1552635848	0.2819779217	-0.5041489318
C	0.6633777635	1.0347402321	-1.5712255401
C	1.5584505498	1.5901867399	-2.4740784605
C	2.9159168411	1.3689238444	-2.3103790298
C	3.4027434802	0.6121991609	-1.2384395577
C	2.5006868959	0.0724378200	-0.3164475393
H	3.6140706384	1.7803835782	-3.0274133858
H	2.8601314712	-0.5080722817	0.5246298135
C	-2.5163846425	0.1692760627	-0.0410661685
C	-3.4892332793	0.8013297604	-0.8216180538
C	-3.0936919388	1.5458739287	-1.9386627544
C	-1.7573727923	1.6694475430	-2.2815587966
H	-3.8465548933	2.0403550757	-2.5383124877
H	-1.4809564515	2.2578367837	-3.1474609482
H	-2.8050818958	-0.4190607353	0.8215697434
C	0.0716725209	0.1798658156	1.7945201256
C	0.1047156923	-0.9339325881	2.6352593053
C	0.0820343383	-2.1354038815	1.8084648842
C	0.0220611822	-1.7470967951	0.4690339804
C	0.0012960239	-2.6814730936	-0.5412677414
C	0.0397928895	-4.0322587277	-0.1922612618
C	0.0950588572	-4.4266921506	1.1478559951
C	0.1159333104	-3.4789423423	2.1547130626
H	-0.0396247273	-2.3817245471	-1.5806602209
H	0.1241992205	-5.4800189099	1.3901435918
H	0.1624873311	-3.7909790219	3.1898408721
C	0.0698595284	1.4571039149	2.3072062513
C	0.1043516133	1.6120569598	3.6938219692
C	0.1428554247	0.5000010608	4.5402266341
C	0.1436167409	-0.7788203365	4.0138581252
H	0.1693770351	-1.6353432790	4.6747092674
H	0.0382360814	2.3217504592	1.6566418686
H	0.1689905102	0.6487486641	5.6108542238
C	0.0319712871	-5.0263955182	-1.2168242258
N	0.0310362253	-5.8290635924	-2.0426698769
C	0.0905541713	2.9234057889	4.2579645460
N	0.0738126152	3.9806770060	4.7142551127
H	1.2108778812	2.1744424004	-3.3168316174
N	4.7743772730	0.3803001428	-1.0930303914
C	5.2257819926	-0.8707719819	-0.6300833171
C	6.2245734657	-0.9512299941	0.3379982765
C	6.6594865648	-2.1841108858	0.7900676534
C	6.1068004730	-3.3710082434	0.3147174627
C	4.6763972765	-2.0498136166	-1.1244478787
C	5.1055220187	-3.2766954926	-0.6452833063
H	4.6559232840	-4.1796362460	-1.0408419916
H	6.6595509494	-0.0441568039	0.7378750286
H	7.4371910031	-2.2213562420	1.5441149455
H	3.9039727905	-2.0089287774	-1.8818512927
C	6.5904591688	-4.7001886587	0.8157244152
H	6.6102926597	-4.7346397378	1.9057886017
H	7.6036701336	-4.9112887195	0.4686499683
H	5.9528264358	-5.5137998540	0.4722738704
C	5.7054500494	1.3936372113	-1.3842595432
C	6.8774559649	1.0995323135	-2.0766580614
C	5.4808609919	2.7057321513	-0.9755751134
C	7.7991041181	2.0968015942	-2.3444519165
C	7.5791530948	3.4150951319	-1.9559654189
C	6.4019532106	3.6966183603	-1.2698513739
H	6.2048699907	4.7098401443	-0.9399954692
H	4.5834100759	2.9514551649	-0.4221816725
H	7.0698620845	0.0847639988	-2.4007717934
H	8.7060420535	1.8419037072	-2.8800909269
C	8.5641370731	4.4969505456	-2.2890024011
H	8.5017857632	5.3270233809	-1.5857805944
H	8.3834561674	4.9034267908	-3.2863960909
H	9.5890219411	4.1265370337	-2.2725664339
C	-5.8278128935	0.5754205845	-1.4661941867
C	-7.0179570183	1.2907920867	-1.3742377968
H	-7.1816117299	1.9567298281	-0.5366628697
C	-7.9925212430	1.1536716004	-2.3489862471
H	-8.9108511337	1.7211405083	-2.2551358198
C	-7.8099101912	0.3225422041	-3.4489027141
C	-8.8741398978	0.1637800868	-4.4947588510
H	-9.4326324689	-0.7639514491	-4.3541646104
H	-9.5925057616	0.9823094158	-4.4635099264
H	-8.4500584909	0.1351796907	-5.4986987133
C	-6.6103108563	-0.3793511853	-3.5345379121
H	-6.4362183122	-1.0400285493	-4.3758162038
C	-5.6367306349	-0.2693423106	-2.5578518228
H	-4.7208476602	-0.8402818006	-2.6430550267
N	-4.8398328074	0.6993628145	-0.4726889953
C	-5.2124793492	0.7091164080	0.8853762413
C	-6.1545844485	-0.1949910704	1.3695018401
H	-6.6063560937	-0.9124467204	0.6964387650
C	-6.5114185281	-0.1813946167	2.7066413412
H	-7.2455055056	-0.8959061523	3.0604487513
C	-5.9337764457	0.7108748344	3.6056933151
C	-6.3394527191	0.7253160216	5.0502214822
H	-5.5739886007	1.1810205485	5.6774245502
H	-7.2597970612	1.2943522519	5.1972530746
H	-6.5197345864	-0.2816593315	5.4270507653
C	-4.9876194132	1.6027250591	3.1112554729
H	-4.5191038081	2.3131972162	3.7819442477
C	-4.6381700597	1.6163761777	1.7715772566
H	-3.9075964884	2.3307732911	1.4139848112
