43
VERBATIM source coordinates: constructed linear [DyO2@C40]-, Table S5 of publisher ESI for DOI 10.1039/d5dt01279a (Angstrom)
Dy    -0.010556     0.102875    -0.076202
O     -0.453441    -1.287780    -1.393420
O      0.432328     1.493530     1.241020
C     -1.631630     2.379870    -0.684786
C     -0.316434     2.915370    -0.685186
C     -1.891930     1.280070    -1.544590
C      0.638565     2.310370    -1.544690
C      0.371265     1.224370    -2.419690
C     -0.943334     0.687370    -2.419390
C     -1.696730    -1.445430    -1.542690
C     -0.838134    -0.728829    -2.417690
C      0.065866     2.942870     0.682113
C      1.444560     2.602870     0.681013
C      1.766870     2.401170    -0.687186
C      2.684060     1.317170    -0.683686
C      2.401560     0.222470    -1.542890
C      1.286170     0.138370    -2.417790
C     -0.371734     1.170470     2.416010
C      1.006560     0.828470     2.415710
C     -0.792635     2.206570     1.540810
C      1.859770     1.551970     1.541110
C      2.826060     0.962071     0.683913
C      1.107460    -0.587929     2.414510
C      2.059570    -1.174630     1.539410
C      2.931460    -0.454029     0.681113
C     -2.674430     0.928870     0.680313
C     -2.237030    -0.113829     1.539410
C     -1.922030     2.133170     0.683213
C     -1.121430    -0.035529     2.414410
C     -0.208035    -1.122830     2.411610
C     -2.518230    -1.211630     0.683713
C     -1.604830    -2.298930     0.680613
C     -0.475035    -2.208330     1.536010
C      0.483265    -2.814130     0.680913
C      1.797660    -2.276830     0.683213
C     -2.663830    -0.858929    -0.684086
C     -2.763530     0.557570    -0.687386
C      2.838370    -0.823029    -0.686986
C      2.092160    -2.031230    -0.684086
C      0.540265    -1.069930    -2.415390
C      0.961365    -2.105430    -1.539690
C     -1.279530    -2.499130    -0.687086
C      0.098465    -2.842030    -0.685686
