96
SOURCE-VERBATIM PBEh-3c S0 geometry used without modification in DOI 10.1039/d5cp01869b; exact ACS Figshare geometry archive for ref. 64 DOI 10.1021/acs.jpclett.1c02299, system 19 TPA-cNDI
C	-8.3652588518	6.7770476950	2.8087243450
C	-8.9252800637	-0.0460975368	6.9480264814
C	-9.0008558747	6.7606865685	1.5711596997
C	-9.4536611322	-0.2186684386	8.2218230056
C	-7.6841049877	7.9271407957	3.1882148207
C	-8.9807935036	7.8680036662	0.7480066883
C	-7.6568349636	9.0423654785	2.3696287655
C	-8.3124215111	9.0289917740	1.1405253082
H	-9.4924557919	7.8370121950	-0.2048855868
H	-7.1236770410	9.9286657215	2.6874541305
C	-8.4702682517	-1.1693667322	6.2628683034
C	-8.5283959638	-2.4221393680	6.8358852934
C	-9.0211748099	-2.5863477855	8.1326475144
C	-9.4848403584	-1.4663492082	8.8192247562
H	-9.8672755431	-1.5687176120	9.8261396467
H	-7.1707842357	7.9588236564	4.1414482212
H	-8.0864645963	-1.0671280696	5.2557101826
N	-8.3017030903	10.1615420359	0.3145399542
C	-8.4514304185	11.4421047533	0.8775167577
C	-8.1705190342	10.0193066144	-1.0780700769
C	-9.3839082758	11.6638001181	1.8898517683
C	-9.5196652346	12.9247152615	2.4464345607
C	-8.7482854213	13.9843932603	1.9914081886
C	-7.8282577731	13.7666442265	0.9761420642
C	-7.6701849866	12.5048523484	0.4272994539
H	-10.0008458971	10.8466360342	2.2414365017
H	-10.2464301197	13.0809647856	3.2328867954
H	-8.8629892543	14.9693628564	2.4233908738
H	-7.2152862090	14.5823204181	0.6154173748
H	-6.9395888970	12.3406956803	-0.3542888772
C	-7.2499945775	9.1180492965	-1.6110493332
C	-8.9567775679	10.7782391817	-1.9434243870
C	-8.8156344300	10.6405314644	-3.3143483187
C	-7.9077411633	9.7348581286	-3.8436296434
C	-7.1308792485	8.9727380778	-2.9831322921
H	-6.6273277206	8.5312535661	-0.9479729042
H	-6.4126203827	8.2678617607	-3.3811504230
H	-9.6785379829	11.4766850994	-1.5400782390
H	-9.4327036147	11.2375810428	-3.9730833454
H	-7.8062253228	9.6246219492	-4.9148094476
H	-8.1871061843	-3.2837053507	6.2773089350
N	-9.0470953305	-3.8547318935	8.7255318875
C	-10.1216483116	-4.2274092922	9.5535956786
C	-7.9734165399	-4.7435214210	8.5333910762
C	-9.8882864873	-4.8788954816	10.7632135633
C	-10.9511722561	-5.2532778565	11.5686646445
C	-12.2558847438	-4.9681597398	11.1933155138
C	-12.4886524252	-4.3116884311	9.9933227407
C	-11.4335888878	-3.9519652881	9.1715578906
H	-8.8727349004	-5.0924234923	11.0707271072
H	-10.7544577074	-5.7594879731	12.5047132030
H	-13.0827714338	-5.2549057028	11.8288714816
H	-13.5015952448	-4.0894822828	9.6840077730
H	-11.6250615486	-3.4546619932	8.2293600719
C	-6.6583447729	-4.2817976503	8.5641074262
C	-8.2139555890	-6.0986974102	8.3137554500
C	-7.1553687784	-6.9741470292	8.1373700599
C	-5.8471896602	-6.5125413120	8.1567627894
C	-5.6076059376	-5.1621306007	8.3660211454
H	-4.5922579926	-4.7885577603	8.3907555140
H	-6.4597528557	-3.2322021960	8.7398208416
H	-9.2320235952	-6.4649997128	8.2829369922
H	-7.3578086423	-8.0238545447	7.9691301495
H	-5.0232765481	-7.1978991615	8.0105199319
H	-9.5271207235	5.8717560156	1.2474275586
H	-9.8120026053	0.6399549022	8.7763028638
C	-8.9440969374	1.2829544004	6.3056340586
C	-10.2115111434	1.8730575551	6.1249162902
C	-10.3766430918	3.0684359288	5.4773372951
C	-7.8290198040	1.9598084002	5.8328552758
C	-7.9895449995	3.1689357020	5.1211211259
C	-9.2649201616	3.7393537020	4.9381915987
C	-6.8792842632	3.8377745031	4.5768133309
C	-9.4227679940	4.9523212542	4.2329105123
C	-7.0509046627	4.9932232213	3.8619907506
C	-8.3210026141	5.5701539956	3.6607107140
H	-6.1866821377	5.4709193202	3.4192737689
H	-11.0843233950	1.3511453212	6.4946376001
C	-6.4523819263	1.4846088242	6.1349533108
C	-5.5174445341	3.2883181951	4.7375354339
C	-11.7417664335	3.6185681905	5.3303553719
C	-10.7692412895	5.5776079517	4.1884887692
N	-11.8391611262	4.8427217935	4.6927992344
O	-12.7117248224	3.0381184827	5.7555024015
O	-10.9647813223	6.6840549447	3.7524377615
C	-13.1498154009	5.4704364395	4.5794203118
H	-13.9018403618	4.7777477508	4.9370765919
H	-13.3566410149	5.7248420763	3.5424829684
H	-13.1902453498	6.3830002291	5.1711867028
N	-5.4006343541	2.1364696736	5.4922370456
O	-6.2324876169	0.5884734209	6.9096781490
O	-4.5455222528	3.8171034478	4.2530711232
C	-4.0458891804	1.6396367354	5.6986894340
H	-4.0923494836	0.6760666055	6.1909809270
H	-3.4723953891	2.3273807818	6.3184189884
H	-3.5409331323	1.5369430508	4.7417022824
