94
SOURCE-VERBATIM PBEh-3c S0 geometry used without modification in DOI 10.1039/d5cp01869b; exact ACS Figshare geometry archive for ref. 64 DOI 10.1021/acs.jpclett.1c02299, system 20 4CzIPN
C	-3.2488284929	3.1257849341	-0.0473547095
C	-1.9676655801	3.6719008970	-0.0161916004
C	-0.8400682713	2.8480143713	0.0891304035
C	-3.4057270288	1.7450202960	0.0499599384
C	-1.0012787287	1.4573302940	0.2101387691
C	-1.8165206414	5.0889459252	-0.0526052369
N	0.4237380177	3.4285966831	0.0618836812
C	1.4345202382	3.2218202747	0.9986269355
C	0.9779377976	4.0555901476	-1.0574275372
C	2.3497387633	4.2336453987	-0.8345212828
C	2.6399783508	3.7050894051	0.4749793827
C	3.1378573016	4.8026855131	-1.8265359928
C	2.5483483374	5.1766393725	-3.0205240025
C	1.1824358898	4.9833929379	-3.2278539703
C	0.3768998509	4.4193195216	-2.2526502829
H	0.7368114575	5.2844011508	-4.1663691172
H	-0.6798786412	4.2774952487	-2.4367802069
H	4.1997098129	4.9431381169	-1.6705761922
H	3.1483749985	5.6234330096	-3.8014753605
C	1.3480238139	2.6931376362	2.2755665930
C	2.5174978819	2.6010744763	3.0092497712
C	3.7340515177	3.0505224085	2.4938613181
C	3.8006985805	3.6157020360	1.2333333424
H	4.6302599908	2.9647735324	3.0930592048
H	4.7419948629	3.9817954985	0.8442092323
H	0.4092022961	2.3645616258	2.6990905559
H	2.4816641870	2.1720358794	4.0013430388
C	3.3117981396	-0.1947757899	-2.1343912147
H	4.1705172704	-0.4392336083	-2.7447603066
C	3.1670939567	-0.7716799006	-0.8856851391
H	3.9017860012	-1.4763375104	-0.5177625502
C	2.3521157368	0.6937634879	-2.6205756890
C	2.0625229843	-0.4374162503	-0.1125255686
C	2.1050771480	-1.7311455357	2.1405880243
H	3.0303155047	-2.2640923256	1.9628685462
H	2.4739362407	1.1307987674	-3.6024599488
C	1.5972855610	-0.8623962528	1.1829726798
C	1.2403901289	1.0343086196	-1.8697643918
C	1.1231888088	0.4779844803	-0.6061008286
C	1.4136208710	-1.9016199297	3.3262856431
H	1.7922678775	-2.5806463192	4.0781219216
C	0.3970805479	-0.1829201832	1.4313594656
C	0.2346067940	-1.1955172437	3.5675153066
H	0.4976272628	1.7059698721	-2.2768446935
C	-0.2842019249	-0.3191476644	2.6302744254
H	-0.2910863699	-1.3323307972	4.5028548090
H	-1.1858949196	0.2354943948	2.8490858892
N	0.1121242909	0.6306062943	0.3383889779
H	-4.7910214534	-0.8484525654	4.3506108773
C	-4.2431293689	-1.2842105093	3.5260329141
H	-4.3849208182	-3.2768487365	4.3089254092
C	-4.0141862251	-2.6600899349	3.5016385952
H	-3.9778262802	0.6059584081	2.5518150338
C	-3.7900004503	-0.4588390944	2.5103974490
C	-3.3194645610	-3.2385520990	2.4548820518
C	-3.1014726492	-1.0513853181	1.4630633569
H	-3.1330115518	-4.3046902927	2.4420591754
C	-2.8544046438	-2.4300651037	1.4257739278
N	-2.4969931957	-0.4614883746	0.3495964947
C	-2.0797488733	-2.6913915677	0.2383167210
C	-1.8811129463	-1.4613287766	-0.4007253235
H	-1.7007666455	-4.8081336929	0.1534443732
C	-1.5593241969	-3.8487904852	-0.3273172625
C	-1.2165484228	-1.3615427892	-1.6114827428
H	-1.1053105184	-0.4194670559	-2.1299810465
C	-0.8566520155	-3.7551689372	-1.5148781358
C	-0.6946369611	-2.5237430275	-2.1512323054
H	-0.4368760028	-4.6453413420	-1.9631701903
H	-0.1520643688	-2.4705426962	-3.0852498647
H	-4.8609281870	5.9454153291	3.9589398395
C	-5.1732348529	5.7920085735	2.9347477208
H	-6.8249569502	7.1513550569	3.0990411537
C	-6.2871456745	6.4774244626	2.4463178472
H	-3.5905937973	4.3964829613	2.5207732055
C	-4.4554243902	4.9202911059	2.1341434649
C	-6.7074854781	6.3040686080	1.1400120988
C	-4.8855509748	4.7596959290	0.8267635177
H	-7.5731243098	6.8364014951	0.7672566713
C	-6.0020833690	5.4363951466	0.3145735753
N	-4.3632358011	3.9530742293	-0.1747886062
C	-6.1543498848	5.0197833684	-1.0577647398
C	-5.1271189864	4.1028230545	-1.3239667281
H	-7.8529875662	6.0504801116	-1.8856389220
C	-7.0528208427	5.3445095085	-2.0672724458
C	-4.9685965855	3.5048140513	-2.5638392698
H	-4.1747002057	2.7955951456	-2.7601232093
C	-6.9093027407	4.7521552604	-3.3089249081
C	-5.8779500665	3.8428714737	-3.5511971244
H	-7.6026369905	4.9935428321	-4.1029595906
H	-5.7868064362	3.3897334059	-4.5291525607
C	-2.2941639455	0.9066343769	0.2010253485
N	-1.7039708685	6.2336433640	-0.0703891403
C	-4.7139911920	1.1870206976	-0.0463596975
N	-5.7716262282	0.7437512467	-0.1371290415
