52
SOURCE-VERBATIM PBEh-3c S0 geometry used without modification in DOI 10.1039/d5cp01869b; exact ACS Figshare geometry archive for ref. 64 DOI 10.1021/acs.jpclett.1c02299, system 5 ACRXTN
N 0.0259380883 0.0624220077 -0.0731060192
C -0.0205700083 0.0581282230 1.3186562108
C 1.2286428725 0.0199459781 -0.7737625319
C 1.1593885250 0.0294294861 2.0674204231
C 1.0529736787 0.0308717553 3.4548987479
H 1.9580295811 0.0107543389 4.0493014614
C -0.1649548356 0.0572642665 4.1093920063
H -0.2048096367 0.0573041907 5.1899647717
C -1.3257190931 0.0828903706 3.3544382560
H -2.2948837652 0.1023134541 3.8350966328
C -1.2566879656 0.0835981211 1.9752901918
H -2.1760399042 0.1035996011 1.4079084340
C 2.4471383664 -0.0098013537 -0.0895371143
C 3.6177315710 -0.0468784185 -0.8410308506
H 4.5700641923 -0.0680873677 -0.3258347052
C 3.6161594337 -0.0575019486 -2.2238857964
H 4.5482406618 -0.0867035024 -2.7712395866
C 2.4012772124 -0.0307088845 -2.8882062145
H 2.3646528905 -0.0397815185 -3.9695321565
C 1.2202998645 0.0077871696 -2.1736276237
H 0.2849958441 0.0278362897 -2.7143009613
C -1.1898102289 0.0906343117 -0.7994471753
C -1.8171641930 -1.1069545753 -1.1514527814
H -1.3646837521 -2.0462466433 -0.8637705639
C -2.9979676684 -1.0727353538 -1.8569774308
H -3.5013627301 -1.9872474039 -2.1403795136
C -1.7401420587 1.3060248295 -1.1508334164
H -1.2496213544 2.2305218900 -0.8753478065
C -2.9348377841 1.3264995494 -1.8644878658
O -3.4250703581 2.5410850853 -2.1798771226
C -4.5793537934 2.6531377980 -2.8713526232
C -5.0111588297 3.9459145112 -3.1533480942
H -4.4250147045 4.7914844247 -2.8191151421
C -6.1838011815 4.1204510526 -3.8568350662
H -6.5234298124 5.1235152597 -4.0783926136
C -6.9327146926 3.0225088733 -4.2834978285
H -7.8505364395 3.1741279145 -4.8344452317
C -6.4961143176 1.7484679340 -3.9989158850
H -7.0584963999 0.8814301294 -4.3185489301
C -5.3107923396 1.5436317509 -3.2873245451
C -3.5764235438 0.1445502060 -2.2253124548
C -4.8385410280 0.1861183901 -2.9801750513
O -5.4355400290 -0.8137179853 -3.3163443568
C 2.5381492506 -0.0007386501 1.4278555906
C 3.2746893843 -1.2698776801 1.8907404696
H 4.2787066753 -1.3237364136 1.4688498830
H 3.3788184285 -1.2962960167 2.9758319173
H 2.7341916811 -2.1651427936 1.5842900933
C 3.3214992006 1.2465256480 1.8727615610
H 4.3266353569 1.2565000830 1.4498981270
H 2.8148683998 2.1570010315 1.5533573868
H 3.4260563332 1.2843207692 2.9575770065
