85
SOURCE-DERIVED crystallographic molecular core (CIF fractional coordinates Cartesianized, periodic molecule unwrapped, and rigidly recentered) for 2b, CCDC 2172310, publisher CIF DOI 10.1039/d4dt03529a; CIF riding-model H, lattice solvent/counterion excluded
Dy    -0.31264715     0.28477198     2.71831258
Ni     0.08029468    -0.06043597    -0.63191258
O      0.82972627    -0.86435841     1.07671803
O     -1.00477218     1.05643384     0.66254040
O      1.43683010     1.53675945    -0.73654139
H      1.62283465     2.03643278    -0.02543349
O     -1.29150763    -1.67367236    -0.71498470
H     -1.64545494    -2.04112513     0.00611288
O     -1.83864086    -1.44355183     1.86734908
O     -0.62996756     0.40008202     5.01935784
H     -1.47672133     0.25525992     5.21625980
H     -0.48596631     1.22408850     5.29927935
O     -1.30188291     2.58945301     2.73750329
O      1.37700797     1.88292209     1.93307070
O      0.58684271    -1.94739846     3.42232254
O      1.83769852     0.76025497     3.73515744
O     -2.70138675     0.12081669     3.11211651
N     -1.02708331     0.80101344    -2.09435000
N      1.44011509    -1.19192677    -1.61852549
C     -4.21730065    -1.41486024     2.07634382
H     -4.82353494    -0.67336722     1.86619238
H     -4.55245592    -1.89830648     2.85973235
H     -4.17128242    -2.02499794     1.31060812
C      1.80153933    -2.37361948    -1.24391227
H      2.31505664    -2.89694859    -1.84753904
C      1.46616657    -2.94623372     0.04686029
C     -1.33259938     2.31666247     0.41358691
C      0.93357242    -2.81134734     2.38654986
C      2.16700462     1.61839508     2.87814755
C     -2.85940885    -0.87808921     2.36683337
C      1.05221586    -2.16823624     1.14309686
C      1.72051153    -4.32117668     0.21773649
H      2.01962218    -4.83892032    -0.52042242
C      1.14133495    -4.15185766     2.54428174
H      1.01747791    -4.55769054     3.39389137
C     -2.36083268    -1.59897324    -1.67504608
H     -3.00618629    -0.89984504    -1.40336606
H     -2.83910107    -2.46533588    -1.71131127
C     -1.52205053     3.18909744     1.49799359
C      2.72423568     1.28941628    -1.36089675
H      3.27073404     0.71335328    -0.76899472
H      3.20221029     2.14817047    -1.47777608
C     -1.20781384    -0.01485207    -3.24447830
C      2.00842287    -0.65828999    -2.80940119
C     -1.52268403     1.98393761    -2.05228816
H     -1.89959398     2.33133518    -2.85169963
C      1.53881277    -4.92600202     1.44804516
H      1.68235544    -5.85924480     1.54890156
C     -1.55077554     2.82336943    -0.88507224
C     -1.87975733     4.50628693     1.33631841
H     -1.98065428     5.07356867     2.09076315
C      2.56432375     0.62203102    -2.69636001
C     -1.94485398     4.17800788    -1.04280413
H     -2.10890126     4.52036122    -1.91307663
C     -1.79617162    -1.27197839    -3.03022583
C      3.12697192     1.19610459    -3.83334399
H      3.50211317     2.06745278    -3.78300123
C     -2.09193120     4.99818764     0.04948915
H     -2.33943726     5.90671187    -0.07389661
C     -1.87780233     3.26563902     3.87711613
H     -2.83278610     3.41701043     3.71812239
H     -1.42797572     4.12660463     4.00773127
H     -1.76298285     2.71212036     4.67710594
C      3.48203871     2.32275330     2.98855987
H      3.54802084     2.75680274     3.86389294
H      3.55099486     2.99850209     2.28189475
H      4.20997217     1.67301896     2.89008260
C     -1.87862917    -2.15435608    -4.08308613
H     -2.30195730    -2.99527613    -3.95771558
C      2.03517310    -1.35564717    -4.00290576
H      1.66191804    -2.22760717    -4.05925547
C      2.61537147    -0.76350555    -5.12148768
H      2.64678571    -1.23602503    -5.94533444
C      3.14708956     0.50861824    -5.03473515
H      3.52748772     0.91556771    -5.80516338
C     -0.74675635     0.34842399    -4.49318902
H     -0.39428421     1.21761603    -4.64206163
C     -1.35386951    -1.83085225    -5.32259583
H     -1.37208004    -2.46637298    -6.02884033
C     -0.80303785    -0.57552974    -5.53027614
H     -0.46120135    -0.34579844    -6.38591902
C      0.94968289    -2.39216655     4.74332704
H      0.80067239    -1.66591154     5.38511178
H      1.89567850    -2.64749091     4.75386879
H      0.39980292    -3.16423447     4.99093981
