55
SOURCE-VERBATIM PBEh-3c S0 geometry used without modification in DOI 10.1039/d5cp01869b; exact ACS Figshare geometry archive for ref. 64 DOI 10.1021/acs.jpclett.1c02299, system 1 MCz-XT
C	-6.1104159219	2.7361204891	0.3097663389
C	-5.3592094542	3.7882169272	0.8398267885
C	-7.4970135087	2.8562883054	0.2736503022
C	-8.1317077179	3.9976170533	0.7534764741
C	-7.3672354156	5.0212845917	1.2717835930
C	-5.9744729141	4.9218869102	1.3176439084
H	-9.2101817882	4.0813254170	0.7206633798
N	-8.0017053314	6.1829174398	1.7618390468
C	-8.2018626103	7.3514785577	1.0342577403
C	-8.3458552509	6.4055252307	3.0911462252
C	-8.6997894169	8.3314548402	1.9085140630
C	-8.7910486238	7.7321695884	3.2115890411
C	-7.9954423587	7.6241500129	-0.3219704677
C	-9.0025880476	9.6059308489	1.4481869836
C	-8.3084612810	8.9138752867	-0.7328207495
C	-8.8058026381	9.9106869185	0.1132737296
H	-9.3878114815	10.3547292195	2.1311847122
H	-8.1587183434	9.1578039908	-1.7789363545
C	-8.3108138102	5.5473000364	4.1950256805
C	-8.7370064376	6.0945245179	5.3988355327
C	-9.1857034679	7.4107855603	5.5501997737
C	-9.2116255284	8.2315674710	4.4369684434
H	-8.7217393850	5.4547375226	6.2744685051
C	-9.6278596490	7.9210060130	6.8924987544
H	-9.5551982155	9.2566881506	4.5186587885
H	-5.3982394677	5.7395506706	1.7295586714
H	-4.2823275710	3.6888828281	0.8652119348
C	-7.7620370307	0.7476229484	-0.7073394292
C	-8.6597759705	-0.1960469686	-1.1976550301
C	-8.1721952944	-1.3808147537	-1.7068624747
C	-6.8005084842	-1.6375878257	-1.7337948198
C	-5.9218287683	-0.6969013631	-1.2460934567
C	-6.3896597705	0.5123328461	-0.7244476911
H	-9.7213616655	0.0105000255	-1.1731980325
H	-4.8544479916	-0.8723793271	-1.2559709640
H	-6.4319955344	-2.5710306753	-2.1360118527
C	-5.4573958632	1.5212632208	-0.2021880018
O	-8.2942657059	1.8894778504	-0.2206142025
O	-4.2550432327	1.3691016975	-0.1923009539
H	-9.5779789912	7.1430051277	7.6534749685
H	-10.6564709772	8.2837958238	6.8645015227
H	-9.0027000440	8.7485056987	7.2320311524
C	-7.8657956699	4.1130372038	4.1521413716
H	-8.4893639949	3.5060887114	3.4950650178
H	-7.9246563761	3.6754080400	5.1478345372
H	-6.8367963796	4.0011106005	3.8098407383
C	-7.4835780620	6.6321877943	-1.3274952100
H	-8.1415436635	5.7685384812	-1.4281723769
H	-6.4926862085	6.2521741637	-1.0778665265
H	-7.4126380810	7.0999507787	-2.3086100125
C	-9.1240046131	11.2795585933	-0.4182759167
H	-8.8781763183	11.3660255119	-1.4760804106
H	-8.5662745901	12.0543177382	0.1100309046
H	-10.1842259340	11.5144861734	-0.3104760670
H	-8.8661491481	-2.1175525140	-2.0891976232
