64
SOURCE-VERBATIM PBEh-3c S0 geometry used without modification in DOI 10.1039/d5cp01869b; exact ACS Figshare geometry archive for ref. 64 DOI 10.1021/acs.jpclett.1c02299, system 2 TMCz-BO
C	-3.2948800894	0.9065077214	-1.2367866804
C	-4.0633539588	1.3060113907	-0.1424728214
C	-3.3872534252	1.6656034836	1.0242352933
C	-1.9103774816	0.8649884683	-1.1877845138
C	-1.2868315406	1.2292438735	-0.0032602466
C	-2.0045989118	1.6306209432	1.1139582412
H	-1.4909799591	1.9099133541	2.0241034236
H	-1.3245457178	0.5558207604	-2.0430027863
B	-5.5767797663	1.3479162819	-0.2183462970
O	-4.0604094238	2.0595526943	2.1164414243
O	-3.8762327664	0.5473927022	-2.3919154652
C	-6.2473706055	1.8826166904	1.0642755947
C	-5.4088383595	2.1894382784	2.1461656470
C	-7.6193682580	2.1097840343	1.2655590618
C	-8.1255936477	2.5857690720	2.4545724250
C	-7.2567676543	2.8582594903	3.5096315863
C	-5.9017398985	2.6650044736	3.3603196415
H	-9.1886226151	2.7487144563	2.5684953366
H	-7.6424636731	3.2297496049	4.4498796465
H	-8.3094029149	1.9172489331	0.4579027635
C	-5.2200404859	0.4921490361	-2.5566452690
C	-6.1443084488	0.8476651010	-1.5631106936
C	-7.4997509508	0.6962165500	-1.9012662866
C	-7.9100695524	0.2459227205	-3.1363598867
C	-6.9564876659	-0.0769191523	-4.1000600931
C	-5.6145873895	0.0414425404	-3.8154085053
H	-8.2554085619	0.9287182714	-1.1661104513
H	-8.9637521183	0.1417916131	-3.3565163892
H	-7.2661587229	-0.4288486121	-5.0752941949
N	0.1236913672	1.1906448114	0.0672304343
C	0.8798020395	0.0910887836	0.4536550871
C	2.2348730747	0.4474893750	0.3890926276
C	2.2952363320	1.8125679718	-0.0526222909
C	0.9722874304	2.2457286057	-0.2442421863
C	0.6884063011	3.5448829046	-0.6798740905
C	1.7901769410	4.3605098733	-0.9034378368
C	3.1180303559	3.9585597301	-0.7206635772
C	3.3637903326	2.6675050953	-0.2903911355
H	4.3808104534	2.3231691628	-0.1394533844
H	1.6039747163	5.3740204317	-1.2418270831
C	3.2279103411	-0.4676615080	0.7249803332
C	2.8705440113	-1.7390757852	1.1255860459
C	1.5081406218	-2.0659620935	1.1813000584
C	0.4824807880	-1.1914040593	0.8578043961
H	1.2344145368	-3.0670504621	1.4980296234
H	4.2721911868	-0.1823574737	0.6718497172
C	-0.9434358048	-1.6531542453	0.9570650485
H	-1.5246020646	-1.0594897625	1.6630504194
H	-0.9769391287	-2.6873042514	1.2975134833
H	-1.4629194899	-1.6089696705	-0.0004083232
C	-0.6925601428	4.0885985988	-0.9118181543
H	-1.2392657993	3.5270899301	-1.6697502356
H	-0.6334705739	5.1214395987	-1.2527964044
H	-1.3009765541	4.0794512681	-0.0071763973
C	3.9016109812	-2.7653405568	1.4975498409
H	4.9111896389	-2.3642115286	1.4149642866
H	3.8448667382	-3.6432070490	0.8514738958
H	3.7704962011	-3.1120288325	2.5240883886
C	4.2503781002	4.9102308839	-0.9853338411
H	3.8882842975	5.8772585703	-1.3327824337
H	4.9291363892	4.5239628634	-1.7474002662
H	4.8424982634	5.0886390307	-0.0862064767
H	-5.2139448689	2.8814690953	4.1670729533
H	-4.8625824490	-0.2147440809	-4.5500020277
