80
SOURCE-DERIVED crystallographic molecular core (CIF fractional coordinates Cartesianized, periodic molecule unwrapped, and rigidly recentered) for 1a, CCDC 2172307, publisher CIF DOI 10.1039/d4dt03529a; CIF riding-model H, lattice solvent/counterion excluded
Tb     0.67309764     2.83014964    -0.10549885
Ni    -0.07659965    -0.50939876     0.05914714
O      0.92655401     0.81492764    -1.12746164
O      1.39253610    -0.78196116     1.53903159
H      1.37142744    -0.26306456     2.31047522
O     -0.55141005     1.21454524     0.97177471
O     -1.70540196    -0.39288756    -1.35513617
H     -1.97726461     0.34835564    -1.69343222
N     -1.46739577    -1.44623316     1.18658627
O     -0.49173981     3.59142644     1.94550137
O      2.03159600     1.86932764     1.55961233
O      0.98108716     2.90237604    -2.64915073
O     -1.50533364     2.70757564    -1.22779279
N      0.86438798    -1.99425756    -0.96538824
O     -0.67610457     4.65847924    -0.88049266
C     -1.07773963     1.33949164     2.17317590
O      3.77564540     5.49119164    -0.10356940
C     -1.67969275     0.28509164     2.88063913
O      1.80447034     4.89545564     0.44825192
C     -1.92852329    -1.01972836     2.29794668
H     -2.47547203    -1.59901572     2.77751671
N      3.14579694     2.12765564     2.13072810
N     -1.61977454     3.94913164    -1.37443062
C      2.43302209    -1.76835236     1.36795411
H      2.90801477    -1.88404640     2.20525614
H      3.06762046    -1.45429932     0.70387768
C      1.05016787     0.58559564    -2.43562546
C     -1.06545106     2.61795164     2.75972723
C     -1.60406709     2.86573564     4.00100362
H     -1.57544452     3.71808624     4.36897454
O      3.79958996     1.17078764     2.44458452
N      2.85770946     4.70039164    -0.13444052
C      1.19445665    -1.91069636    -2.19894685
H      1.49834454    -2.68267532    -2.61833106
C     -2.23394374     0.54078364     4.16822220
H     -2.62309800    -0.15356512     4.64813953
O      2.99695650     3.43511164    -0.62580589
C     -1.98894133    -2.64877636     0.62576087
C      1.85743948    -3.09426036     0.92675432
O     -2.68266784     4.36298364    -1.86065080
C      1.12899528    -0.69286436    -2.99130567
C     -2.20101622     1.79551964     4.70589425
H     -2.57411761     1.94766956     5.54428963
C      1.09368648     1.68217164    -3.29873060
C      1.01278495    -5.59846036    -0.00195196
H      0.73618111    -6.43133092    -0.30843789
O      3.46173811     3.27958764     2.37512449
C      1.69525516    -5.48511236     1.19559035
H      1.86553638    -6.24915696     1.69845521
C     -0.55223051     4.95081164     2.41757229
H     -1.45520746     5.16554020     2.66078528
H     -0.25795510     5.54428068     1.72230315
H      0.01800459     5.04929260     3.18396077
C     -2.55895844    -2.55124436    -0.65667702
C      2.12264871    -4.27255236     1.65351200
H      2.59412219    -4.22167756     2.45331847
C     -2.82172896    -1.22533636    -1.32169245
H     -3.12257407    -1.38291644    -2.22957358
H     -3.53656671    -0.77204980    -0.84744769
C      1.14875474    -3.21024436    -0.27850576
C     -2.40494033    -5.02381236     0.62061569
H     -2.34785289    -5.85346700     1.03803185
C     -2.96318323    -4.92364436    -0.58721699
H     -3.30022810    -5.68745172    -0.99700542
C      0.74667975    -4.45443636    -0.74414520
H      0.29586935    -4.52270876    -1.55448644
C      1.28837276    -0.83257236    -4.39851434
H      1.37755559    -1.67994092    -4.77303251
C     -3.05141367    -3.72162836    -1.23422427
H     -3.44598315    -3.68298460    -2.07596402
C      1.21329319     1.54246364    -4.66606407
H      1.22806975     2.28987508    -5.21825842
C      1.30955938     0.27454764    -5.20244983
H      1.39016797     0.17024112    -6.12345119
C     -1.89354116    -3.85606436     1.27791334
H     -1.50717518    -3.91426724     2.12155681
C      1.13456680     4.08620364    -3.44279584
H      1.97494974     4.05204108    -3.90729047
H      1.11473436     4.85768176    -2.87358379
H      0.41929154     4.13860732    -4.08060610
