96
SOURCE-VERBATIM PBEh-3c S0 geometry used without modification in DOI 10.1039/d5cp01869b; exact ACS Figshare geometry archive for ref. 64 DOI 10.1021/acs.jpclett.1c02299, system 26 DABNA-2
C -0.6257407249 5.1737893807 3.4383767051
C 0.1718282507 6.1071841589 2.7767388657
C -0.4508530270 7.1917509558 2.1598939451
C -1.8281725813 7.3371337388 2.1997343407
C -2.6101854064 6.4008805051 2.8598246374
C -2.0028938230 5.3186491113 3.4794926053
H -2.6031916103 4.5867500216 4.0040290841
H -0.1606334945 4.3373490277 3.9450469488
H -2.2926107868 8.1810422951 1.7064474196
H -3.6858217428 6.5140423173 2.8914821132
H 0.1483540815 7.9151937714 1.6213107274
C 1.6380813897 5.9529050201 2.7232975217
C 2.4818161493 7.0592916304 2.8622904814
C 2.1984657245 4.6998808935 2.5517846781
C 3.5896991225 4.5233990518 2.5028428845
C 4.4463560500 5.6418711137 2.5494890672
C 3.8433087853 6.8888460254 2.7710181032
H 2.0671679098 8.0376073389 3.0677607263
H 1.5355784740 3.8540792040 2.4407625721
H 4.4750682048 7.7540186285 2.9128782141
B 5.9595244400 5.4072447941 2.3895658886
C 6.4012695061 3.9640551185 2.4685383249
C 5.4505710122 2.9228336776 2.4768585301
C 5.8622517412 1.5898236249 2.5394641946
C 7.2140593910 1.3149975367 2.6282611239
C 8.1774916368 2.3060387368 2.6389729880
C 7.7715516374 3.6384983296 2.5384949787
H 5.1556938060 0.7741352560 2.5310769125
H 7.5308878658 0.2817584367 2.6911504225
H 9.2187927187 2.0322181782 2.7124776312
C 7.0813285148 6.4275336523 2.1576249570
C 6.8950123373 7.7724960696 1.8007195884
C 8.4177885478 5.9905285579 2.2749836898
C 9.4772811529 6.8940755265 2.1234173794
C 9.2396083905 8.2272996678 1.8356628664
C 7.9245800966 8.6686847009 1.6463476965
H 7.7219734386 9.6997561928 1.3906588570
H 5.8903034394 8.1292026900 1.6255674083
H 10.5012295593 6.5648726396 2.2169657481
N 10.3136548001 9.1185093775 1.7259999912
C 10.3024028277 10.1335012829 0.7524896387
C 10.7694485835 11.4087207338 1.0661514318
C 9.8372179172 9.8778613341 -0.5362330108
C 9.8274023276 10.8863567789 -1.4858314673
C 10.2997967329 12.1530307581 -1.1748697115
C 10.7751441638 12.4047628786 0.1042103222
H 11.1415558421 13.3897504089 0.3625453004
H 11.1288043408 11.6165201646 2.0657750141
H 9.4604275693 10.6733917991 -2.4813957675
H 10.2977609539 12.9358488956 -1.9213259995
H 9.4813814279 8.8881905835 -0.7922494819
C 11.4594556250 8.9440265775 2.5263957303
C 12.7318910390 9.0074391396 1.9639207946
C 11.3306520326 8.7044325441 3.8935797472
C 12.4566165738 8.5166400355 4.6764704541
C 13.7246070866 8.5864459910 4.1164533623
C 13.8540802167 8.8386553581 2.7590569516
H 12.8408253536 9.1882580205 0.9023448885
H 14.8364916601 8.8906652073 2.3081484602
H 10.3448994428 8.6599105749 4.3381941627
H 12.3410992364 8.3292050877 5.7360634183
H 14.6026482743 8.4469111847 4.7326249848
N 8.7144709096 4.6548023640 2.5185278707
N 4.1003782054 3.2332286405 2.4132193410
C 10.0830266186 4.2975103326 2.6901902567
C 10.6472084330 4.3396020087 3.9557487695
C 10.8486642569 3.9319262806 1.5921976678
C 12.1861830665 3.6106676917 1.7635841275
C 11.9865536467 4.0214674631 4.1225367773
C 12.7565264258 3.6576674166 3.0277804188
H 10.3926216702 3.9073272266 0.6108267264
H 12.7850453046 3.3290559358 0.9077375698
H 10.0356027770 4.6298860513 4.8000655720
H 12.4297094419 4.0621035132 5.1085014491
H 13.8023549701 3.4138429489 3.1588029831
C 3.1749787020 2.1519760227 2.3604451626
C 2.7533380297 1.6779745036 1.1302435917
C 2.7034076573 1.5843256727 3.5351306247
C 1.8406249369 0.6279756837 1.0487358195
C 1.3709240847 0.0635943517 2.2336611451
C 1.7998578292 0.5359579294 3.4641419344
H 3.0443359741 1.9662183026 4.4886278332
H 3.1571270221 2.1250168420 0.2301947261
H 0.6420493261 -0.7358234410 2.1919403612
H 1.4189702255 0.0906291333 4.3736295436
C 1.3803634889 0.1352459755 -0.2633829373
C 1.0665716570 1.0282225883 -1.2869069131
C 1.2486192080 -1.2308272862 -0.5071543954
C 0.8158286724 -1.6916793330 -1.7400515702
C 0.5065030427 -0.7938115763 -2.7509517950
C 0.6333303829 0.5679310635 -2.5197078907
H 0.3867321180 1.2764992267 -3.2994038425
H 1.1378173901 2.0940871209 -1.1085638175
H 1.5122513231 -1.9406848270 0.2670823664
H 0.7282107455 -2.7561255437 -1.9140433617
H 0.1686882526 -1.1533325764 -3.7138961560
