90
SOURCE-VERBATIM PBEh-3c S0 geometry used without modification in DOI 10.1039/d5cp01869b; exact ACS Figshare geometry archive for ref. 64 DOI 10.1021/acs.jpclett.1c02299, system 18 m′-AC-DBNA
C	-3.8670797837	0.2047359086	-0.3807210139
C	-4.5875135304	1.3572443395	-0.0646400401
C	-3.8742951493	2.4396682466	0.4519771553
C	-2.4979085995	0.1162278232	-0.1940596950
C	-1.8376888365	1.2228648769	0.3198726655
C	-2.5043681962	2.3943316022	0.6483094971
H	-1.9782292968	3.2494255545	1.0499332085
H	-1.9662172698	-0.7905508502	-0.4477827692
H	-0.7674617494	1.1705646010	0.4695008925
B	-6.0836885041	1.4304274082	-0.2740340869
O	-4.5061176994	3.5822564682	0.7763395639
O	-4.4923232385	-0.8764285131	-0.8807705193
C	-6.7178916346	2.7527893518	0.2102878154
C	-5.8390953127	3.7326235391	0.6946292742
C	-8.0840591213	3.0770425116	0.2336121344
C	-8.5496390296	4.2932284964	0.6832919648
C	-7.6447978666	5.2498382233	1.1365063932
C	-6.2940937567	4.9793309804	1.1485485246
H	-9.6098517653	4.5057055827	0.6876599707
H	-7.9838256804	6.2141719135	1.4925076280
H	-8.8053144366	2.3458346999	-0.0996451517
C	-5.8047663843	-0.8974451696	-1.1691870536
C	-6.6845994520	0.1684211518	-0.9310715837
C	-8.0166810176	-0.0239807000	-1.3319114776
C	-8.4555104064	-1.1960821874	-1.9078274636
C	-7.5570308512	-2.2409660628	-2.1085048348
C	-6.2352014186	-2.1010297717	-1.7467332132
H	-8.7282292665	0.7773037962	-1.1993255211
H	-9.4892912611	-1.3062190019	-2.2051279325
H	-7.8763367450	-3.1731940594	-2.5564105232
N	-5.3603729274	5.9307765367	1.6168478120
C	-4.7170871876	6.7446452746	0.6866941415
C	-4.9213087645	5.8381888169	2.9359540487
C	-3.6333992166	7.5414237367	1.0643126454
C	-3.8437736962	6.6058817152	3.3848610685
C	-5.1668063219	6.7743072519	-0.6384769071
C	-3.0768899079	7.5539716439	2.4782132335
C	-3.1777832945	8.9807429633	3.0443163908
C	-3.0426826687	8.3463310065	0.0944484685
C	-4.5548010624	7.5802302041	-1.5774293328
C	-3.4823814930	8.3789515367	-1.2159089387
H	-2.9943895174	9.0159076730	-1.9407904637
H	-2.2019671496	8.9699544978	0.3724632403
H	-6.0053336950	6.1640058144	-0.9421610682
H	-4.9227456263	7.5803709886	-2.5949865721
C	-5.5716753320	4.9751237758	3.8255606413
C	-5.1636653921	4.8723005686	5.1403318455
C	-4.0999641512	5.6310946616	5.6002465568
C	-3.4615512437	6.4824262362	4.7175880934
H	-6.4076160379	4.3775507385	3.4909663089
H	-5.6839798341	4.1945595035	5.8042112746
H	-3.7707177067	5.5615028136	6.6278918785
H	-2.6283765659	7.0717990780	5.0801380799
H	-4.2162351404	9.3089403031	3.0827915836
H	-2.6239476009	9.6923254127	2.4310500933
H	-2.7705977302	9.0379412337	4.0543299529
C	-1.6031874988	7.1133114282	2.4341144433
H	-1.5158255884	6.1030701176	2.0338952043
H	-1.1546415537	7.1201437067	3.4279934418
H	-1.0073559854	7.7752496020	1.8049691283
H	-2.3720156800	-2.9909155272	-6.3303828353
H	-4.3051132201	-1.4445298549	-6.0488663607
C	-2.9759340388	-3.0159156719	-5.4337450715
C	-4.0513019726	-2.1572725848	-5.2753198285
C	-2.6849712821	-3.9091498194	-4.4194142151
C	-4.8124076790	-2.2040142318	-4.1245845534
H	-1.8413895985	-4.5765597026	-4.5455263982
H	-5.6498812777	-1.5282304009	-4.0256484150
C	-3.4283811432	-3.9786746084	-3.2446613044
C	-4.5130044649	-3.1099702816	-3.1004449436
H	-0.8889967095	-4.7287805642	-2.5489998578
C	-1.5921968881	-4.6696195431	-1.7176978644
H	-1.5299118033	-3.6659221266	-1.2968131490
H	-2.4320865920	-6.5051390002	-3.6198533191
C	-3.0293070054	-4.9789144756	-2.1726312658
N	-5.3041100451	-3.1434260298	-1.9539066252
C	-3.0958367425	-6.3985870723	-2.7612269916
H	-1.2544454709	-5.3733816457	-0.9563369439
H	-4.1080307925	-6.6341765152	-3.0891388853
C	-3.9513429610	-4.8982376610	-0.9674961577
C	-5.0196883358	-4.0010646819	-0.8932460178
H	-2.7983642741	-7.1481706091	-2.0272107203
C	-3.7271970264	-5.7411586278	0.1172628852
C	-5.8185883697	-3.9728004507	0.2557212686
H	-2.9026937652	-6.4421038466	0.0742423928
C	-4.5126305738	-5.7168699625	1.2547797904
C	-5.5657800524	-4.8192028292	1.3165486749
H	-4.3038275575	-6.3863444486	2.0778891741
H	-6.1988210719	-4.7729162877	2.1928603876
H	-6.6490464558	-3.2846805387	0.3239770483
