39
VERBATIM source coordinates: constructed linear [DyO2@C36]-, Table S5 of publisher ESI for DOI 10.1039/d5dt01279a (Angstrom)
Dy     0.563419    -0.036346    -0.027282
O      2.528981    -0.002229    -0.050916
O     -1.402143    -0.070464    -0.003647
C      1.913914    -1.159740    -2.034453
C     -0.826186    -1.160139    -2.032653
C     -0.164786    -2.145039    -1.252153
C      1.255214    -2.144940    -1.251953
C      2.995813    -0.702640    -1.236253
C      2.998414     0.717460    -1.234253
C      2.995514     1.430260    -0.006054
C      2.995014    -1.412340    -0.006354
C      2.996314    -0.700740     1.222446
C      2.995514     0.719360     1.223246
C     -0.164786    -2.145039     1.238746
C      1.255214    -2.145239     1.238546
C      1.912014    -2.330839    -0.006753
C     -0.821486    -2.330140    -0.006753
C      1.256314     2.164059     1.238246
C      1.913214     2.349560    -0.007053
C     -0.163786     2.165760     1.237446
C      1.914014     1.178460     2.020746
C      1.253914     2.163860    -1.250953
C      1.918014     1.180460    -2.031053
C     -0.166186     2.162159    -1.253153
C     -0.821486     2.350360    -0.007453
C     -0.826385     1.176360    -2.033253
C     -0.163586     0.007960    -2.493953
C      1.256414     0.012260    -2.493653
C     -1.903986     1.431360    -0.005353
C     -1.908386     0.720460    -1.234553
C     -1.907086    -0.699640    -1.235153
C     -1.906086     0.718460     1.222747
C      1.253814     0.008761     2.481446
C     -0.166286     0.011359     2.480246
C     -0.825185     1.181560     2.018747
C      1.915014    -1.160139     2.020046
C     -0.824886    -1.159239     2.019146
C     -1.907585    -0.701640     1.222446
C     -1.904886    -1.412240    -0.006953
