103
VERBATIM source coordinates: optimized [DyO2@C100]-, Table S1 of publisher ESI for DOI 10.1039/d5dt01279a (Angstrom)
Dy    -0.781964     0.591481    -0.810936
O     -1.973979     1.623511     0.326608
O      0.668895    -0.225347     0.198386
C     -1.147344     5.101437    -0.487183
C     -2.501601     4.981614    -0.115321
C     -3.486236     4.450024    -1.005937
C     -0.754717     4.691616    -1.829832
C     -1.746171     4.174346    -2.684457
C     -3.108197     4.051620    -2.273031
C      2.792029     3.867918     1.027566
C      1.570302     4.607614     1.128289
C      0.608685     4.307977     2.112734
C      3.075427     2.877742     1.948595
C      2.149803     2.597464     2.998418
C      0.899785     3.235464     3.071660
C      3.599494     2.418976     0.815323
C      3.119038     3.668229     0.347845
C      3.676287     1.650319     1.525193
C      3.889904     1.362005     0.162486
C     -4.600476     0.689310    -2.425961
C     -4.558418     2.051973    -2.072866
C     -3.672160     2.859546    -2.831982
C     -2.655782     2.263038    -3.648196
C     -1.270942     0.241855    -3.996200
C     -2.563553     0.866056    -3.827702
C     -3.647701     0.109771    -3.317668
C      0.122142    -1.744018     3.564785
C     -1.154912    -1.182958    -3.689779
C     -0.196154     2.500909    -3.690880
C     -1.471723     3.063603    -3.558793
C      2.299058     1.210638     3.343823
C      1.210786     0.452990     3.840784
C     -0.082639     1.076923    -3.997540
C      1.305699    -0.944020     3.665347
C     -4.919624     2.423637    -0.712686
C     -4.443758     3.671886    -0.248851
C     -4.114335     3.870918     1.125534
C     -5.212554     1.370433     0.267497
C     -4.998966     1.658813     1.627957
C     -4.398175     2.886480     2.049528
C     -4.413800    -1.556535    -1.914398
C     -5.012132    -0.328859    -1.487268
C     -5.214610    -0.038675    -0.122614
C     -4.122342    -2.545982    -0.994474
C     -4.437710    -2.344407     0.383420
C     -4.915149    -1.094509     0.854138
C     -2.245474    -1.915142    -3.056247
C     -3.495766    -1.276995    -2.971593
C     -2.900974    -3.285052    -1.104446
C     -1.946916    -2.986603    -2.097460
C     -1.932505     4.301371     2.203089
C     -2.221086     3.233676     3.163361
C     -2.891715     4.608489     1.225799
C     -3.471944     2.605750     3.097462
C     -3.614924     1.217860     3.437359
C     -2.617348    -0.933504     3.759063
C     -2.524325     0.461353     3.929586
C     -1.233846     1.079182     4.082326
C     -1.125797     2.499523     3.780529
C      0.144333     3.061707     3.656269
C     -4.544040    -0.722324     2.211311
C     -4.581566     0.640201     2.563306
C     -3.642222    -1.529580     2.952325
C      0.418484     4.171211     2.776233
C     -0.568996     4.684922     1.921160
C     -0.173394     5.101278     0.580308
C      1.782289     4.049090     2.365795
C      2.165949     4.457453     1.103271
C      1.183301     4.992791     0.212470
C      2.343087     2.855536     2.923122
C      3.238496     2.048513     2.175076
C      3.278004     0.686348     2.528021
C     -1.436253    -1.734610     3.666806
C     -0.164707    -1.172628     3.780552
C     -0.054170     0.248244     4.079465
C      1.234511     0.866485     3.913793
C      1.326038     2.260849     3.740219
C      2.320582     0.110064     3.412185
C      0.629111    -2.977280     2.198409
C      0.925344    -1.908057     3.154826
C      2.174480    -1.277908     3.074367
C      1.579617    -3.281543     1.211080
C     -2.503518    -3.669951     0.233876
C     -3.478493    -3.133635     1.131799
C     -3.085151    -2.722867     2.390884
C     -1.143100    -3.779381     0.589865
C     -0.736658    -3.361457     1.927462
C     -1.717466    -2.844239     2.789331
C      1.768661    -2.730073     2.291583
C      0.402840    -2.853575     2.690540
C     -0.581028    -3.371212    -1.827211
C      2.156053    -3.125695     1.026619
C      1.178264    -3.655054     0.126760
C     -0.178424    -3.779681    -0.486554
C      3.259044     0.631745     2.460005
C      3.220471    -0.730421     2.106065
C      2.329262    -1.539884     2.857818
C      3.092933    -1.559777     2.019390
C      3.690494    -0.333039     1.591137
C      3.893778    -0.046227     0.228859
C      2.801271    -2.544997     1.099187
C      3.119711    -2.347134     0.278576
C      3.593026    -1.100348     0.748254
