63
VERBATIM source coordinates: optimized [DyO2@C60]-, Table S1 of publisher ESI for DOI 10.1039/d5dt01279a (Angstrom)
Dy    -0.695296    -1.307082    -0.869305
O      0.921141    -1.854062     0.266033
O     -1.356716     0.084671     0.181414
C     -0.917669    -3.999030    -3.019890
C      0.351810    -4.231790    -2.381320
C     -1.118480    -2.902490    -3.931190
C      1.465280    -3.350980    -2.650830
C      2.366610    -2.927610    -1.619150
C      0.070498    -4.730550    -1.004630
C      0.844064    -4.260770     0.062182
C      1.709920    -3.092090    -0.297113
C     -3.355140    -2.391130    -2.911350
C     -3.148120    -3.495510    -1.985340
C     -2.334510    -2.093160    -3.857920
C     -1.982070    -4.293240    -2.035770
C     -1.362950    -4.744410    -0.805641
C     -3.722300    -3.117160    -0.699048
C     -3.106470    -3.538630     0.489848
C     -1.913340    -4.350110     0.447500
C     -2.632460     0.341900    -3.342440
C     -3.680540     0.025889    -2.385710
C     -1.975290    -0.687639    -4.060310
C     -4.017460    -1.321610    -2.169430
C     -4.262380    -1.779900    -0.809593
C     -3.568180     0.941828    -1.263660
C     -3.824010     0.502197     0.048427
C     -4.173260    -0.883992     0.274024
C      0.190010     0.449240    -3.713330
C     -0.491988     1.503550    -2.981600
C     -0.533834    -0.628992    -4.247010
C     -1.878950     1.460930    -2.803660
C     -2.455600     1.834770    -1.522450
C      0.373584     1.926910    -1.900070
C     -0.185551     2.299330    -0.668563
C     -1.621950     2.254250    -0.473258
C      1.247110    -2.204740    -3.537780
C      1.998840    -1.074980    -2.996060
C      0.000408    -1.989220    -4.164440
C      1.475470     0.226092    -3.083810
C      1.579670     1.134020    -1.961910
C      2.668600    -1.517660    -1.786330
C      2.754540    -0.629146    -0.669460
C      2.192870     0.691480    -0.775493
C     -0.594715     1.558930     1.518180
C      0.448225     1.857120     0.553967
C      1.615020     1.079400     0.506297
C     -0.422222     0.463937     2.378450
C     -2.774740    -0.193261     2.029290
C     -2.952660     0.935427     1.131830
C     -1.879420     1.810670     0.890836
C     -1.538360    -0.422349     2.641400
C     -1.741140    -2.851200     2.257260
C     -3.010850    -2.615290     1.609150
C     -3.522550    -1.315630     1.495530
C     -1.014120    -1.771380     2.760110
C      1.094930    -2.746760     1.905300
C      0.324450    -3.889190     1.364490
C     -1.066750    -3.935260     1.546470
C      0.428707    -1.713380     2.589580
C      1.815640    -0.012414     1.428210
C      2.535280    -1.062260     0.731729
C      2.127820    -2.375970     0.961884
C      0.787731    -0.332262     2.339040
