122
SOURCE-VERBATIM PBEh-3c S0 geometry used without modification in DOI 10.1039/d5cp01869b; exact ACS Figshare geometry archive for ref. 64 DOI 10.1021/acs.jpclett.1c02299, system 13 2DAC-MES3B
N	-8.0665400011	5.8107291526	2.3760386563
C	-7.9113526912	7.0975941292	1.8967254950
C	-8.9333798054	5.8425632163	3.4518702529
C	-8.6884043938	7.9728387970	2.6737743017
C	-9.3437927319	7.1683335017	3.6704547803
C	-7.1201418752	7.5691062882	0.8558915103
C	-8.7076484603	9.3315196100	2.3856170081
C	-7.1285182188	8.9265436257	0.6025841166
C	-7.9227716413	9.8109603768	1.3486132717
H	-9.3180089213	10.0126490820	2.9658245368
H	-6.5104013897	9.3226019902	-0.1927204061
C	-9.4171432066	4.8011281776	4.2348072247
C	-10.3088335364	5.1115695122	5.2425214890
C	-10.7054385641	6.4338979367	5.4945887933
C	-10.2184779551	7.4658286409	4.7076223354
H	-10.5266914336	8.4866797799	4.8973402595
H	-6.4981166428	6.9049420735	0.2710605714
H	-9.1270369835	3.7747155915	4.0548888376
C	-7.4482491207	4.6604583051	1.8535670480
C	-6.6638148692	3.8604231575	2.6686667055
C	-6.0428919040	2.7258423934	2.1620035108
C	-6.2156956049	2.3701171233	0.8117979326
C	-7.6208478125	4.3222101471	0.5210544224
C	-7.0198095256	3.1858990779	-0.0051858464
H	-6.5212125068	4.1378426876	3.7064226638
H	-8.2473086813	4.9438290371	-0.1077196145
C	-5.1978880410	1.9136976658	3.1074259999
H	-5.3756758713	2.2148588525	4.1395220212
H	-4.1338577270	2.0367898201	2.9054056570
H	-5.4063647885	0.8453002029	3.0451154386
C	-7.2640111989	2.8790195860	-1.4589982019
H	-7.7126190233	3.7342281585	-1.9638479871
H	-7.9362274857	2.0302553670	-1.5848270034
H	-6.3475891709	2.6341528891	-1.9966155773
B	-5.5214393175	1.0849373219	0.2252489590
C	-3.9867362793	0.8602502890	0.4551431052
C	-3.0593961055	1.8874762931	0.2078383455
C	-1.7022665570	1.6635195679	0.4143100804
C	-1.2252480293	0.4546241102	0.8962440975
C	-2.1476599275	-0.5517006483	1.1548263177
C	-3.5054138812	-0.3773389462	0.9276190245
H	-0.9985368970	2.4600955003	0.1977811375
H	-1.7962011092	-1.5035476394	1.5396677762
C	-4.4204916554	-1.5360643266	1.2257991814
H	-3.8931742120	-2.3078175924	1.7862526969
H	-4.8048124283	-1.9949825216	0.3147028363
H	-5.2889534120	-1.2475404973	1.8190078992
C	-3.4725925800	3.2429383814	-0.3033297780
H	-4.1819553647	3.1850375301	-1.1293816427
H	-2.6071860840	3.7976005087	-0.6655158242
H	-3.9438893725	3.8438112641	0.4751204640
C	0.2384791378	0.2292351890	1.1336564408
H	0.8265036584	1.1134911847	0.8915803380
H	0.6160350774	-0.5950742441	0.5264665915
H	0.4361783046	-0.0237491620	2.1764617022
C	-6.3704158322	0.0432304598	-0.5825843087
C	-5.9254557768	-0.4301244043	-1.8334078591
C	-7.5958120209	-0.4336155841	-0.0851691528
C	-8.3287403094	-1.3626198243	-0.8161655604
C	-7.9048461477	-1.8176800327	-2.0549160348
C	-6.7013457170	-1.3305060606	-2.5495049812
H	-6.3545835835	-1.6682128249	-3.5207621750
H	-9.2613646018	-1.7364177680	-0.4073452328
C	-8.1547710142	0.0067579775	1.2425214848
H	-7.4098199455	-0.0012984455	2.0386741741
H	-8.9636989425	-0.6523906334	1.5570231906
H	-8.5566811680	1.0194579909	1.1974823559
C	-4.6295525170	0.0249582745	-2.4518344746
H	-4.5036315891	1.1077924122	-2.4213933805
H	-4.5779811615	-0.2730815104	-3.4988716468
H	-3.7648480790	-0.4030908643	-1.9444327336
C	-8.7122839440	-2.8045762385	-2.8446715307
H	-9.6232294544	-3.0906231700	-2.3206129861
H	-8.1438903953	-3.7151288242	-3.0407638840
H	-9.0033202173	-2.3934177582	-3.8125850533
N	-7.9075192627	11.1884651275	1.0417432535
C	-8.1091580111	11.6017547814	-0.2825555394
C	-7.7549900339	12.1238302484	2.0767891853
C	-8.9986886919	10.9163631511	-1.1103408464
C	-9.1779395956	11.3139764384	-2.4250549995
C	-8.4923322331	12.4067842888	-2.9342059532
C	-7.6123853626	13.0943415651	-2.1102278088
C	-7.4109537428	12.6938901541	-0.8004912439
H	-9.5510294972	10.0708250148	-0.7214058331
H	-9.8725108394	10.7696428833	-3.0517632614
H	-8.6404972809	12.7183334717	-3.9593218086
H	-7.0623938189	13.9440389158	-2.4936829000
H	-6.7086146493	13.2282046865	-0.1738871113
C	-8.5047197422	13.3001458484	2.0930569631
C	-6.8598580628	11.8794321684	3.1185301580
C	-6.7255231102	12.7903640987	4.1525492595
C	-7.4628363542	13.9656505819	4.1607068076
C	-8.3481506360	14.2138690357	3.1220321054
H	-9.2130809143	13.4972944974	1.2988970442
H	-8.9387665036	15.1208366167	3.1180851008
H	-6.2717475012	10.9708802357	3.1179628942
H	-6.0275454901	12.5825507981	4.9531752756
H	-7.3507032099	14.6775338222	4.9672425265
H	-10.7125867902	4.3180944225	5.8579899687
N	-11.6089505388	6.7019012949	6.5452886676
C	-12.7180865886	7.5278571486	6.3069746270
C	-11.3512804658	6.1869182177	7.8234515281
C	-13.1201360097	8.4740667047	7.2499284123
C	-14.2142536713	9.2861808048	7.0017073742
C	-14.9125740297	9.1878102601	5.8071918426
C	-14.5063822911	8.2558699430	4.8629937908
C	-13.4261399650	7.4255635749	5.1092553055
H	-12.5725313946	8.5745909594	8.1780230304
H	-14.5111307120	10.0148268835	7.7449298045
H	-15.7606414206	9.8305396488	5.6134734742
H	-15.0421222304	8.1632541332	3.9271634312
H	-13.1251723718	6.6955005648	4.3691462528
C	-10.0431814232	6.0999120906	8.3006382831
C	-12.3956691551	5.7362742457	8.6325265312
C	-12.1330484328	5.2253985553	9.8920870756
C	-10.8305540534	5.1330007765	10.3620132828
C	-9.7904361549	5.5691338764	9.5548151220
H	-8.7689029385	5.5099757366	9.9076040585
H	-9.2234888314	6.4500036112	7.6867409807
H	-13.4147083061	5.7863319915	8.2713707694
H	-12.9561319540	4.8815662918	10.5051383733
H	-10.6294544920	4.7256691465	11.3436045814
