49
SOURCE-VERBATIM PBEh-3c S0 geometry used without modification in DOI 10.1039/d5cp01869b; exact ACS Figshare geometry archive for ref. 64 DOI 10.1021/acs.jpclett.1c02299, system 8 TPA-PH2CN
C	-6.5003417688	2.9116708605	0.0349402101
C	-5.7247457345	4.0668324127	0.0741663299
C	-7.7874065739	2.9322008381	0.5856519286
C	-8.2530701009	4.1095859928	1.1522966708
C	-7.4696296998	5.2625768711	1.2065217852
C	-6.1868614289	5.2269553016	0.6610199458
H	-9.2605246159	4.1366834349	1.5486509561
N	-7.9672451574	6.4329737457	1.7846019160
C	-7.6417851464	7.6901152630	1.2378441519
C	-8.8285883256	6.3678497654	2.8967618264
C	-7.3077801389	8.7518009567	2.0756199536
C	-9.9801489652	7.1504328260	2.9413971018
C	-7.6603225386	7.8885424834	-0.1413506327
C	-7.0042917933	9.9921971321	1.5390124173
C	-7.3345271448	9.1268166572	-0.6695301689
C	-7.0098987565	10.1862775154	0.1653813046
H	-6.7639436336	11.1539052867	-0.2506847239
H	-6.7480991693	10.8087429000	2.2013296838
H	-7.9262666125	7.0721592934	-0.8006707914
H	-7.3492611563	9.2653431921	-1.7425851366
C	-8.5338532843	5.5272147558	3.9684811557
C	-9.3873951640	5.4619353416	5.0571901275
C	-10.5307412350	6.2466790061	5.1040691826
C	-10.8174023633	7.0937912809	4.0435747610
H	-7.6343881751	4.9253142661	3.9466911083
H	-9.1469103010	4.8039171134	5.8819763623
H	-11.1907754001	6.1996678296	5.9596592198
H	-11.7079564320	7.7081492685	4.0656136764
H	-5.5544832190	6.1037323812	0.6928421945
H	-4.7257363301	4.0524312348	-0.3436896204
H	-7.2884892596	8.6040623364	3.1477511556
H	-10.2167105530	7.8045024087	2.1120578608
C	-5.9493327332	1.6937122511	-0.5926527275
C	-5.7095511079	0.5523049294	0.1616665817
C	-5.1742097134	-0.5916486996	-0.4205353183
C	-4.8607205235	-0.6141121471	-1.7786584509
C	-5.0912811568	0.5109901488	-2.5416620072
C	-5.6349181090	1.6553420098	-1.9574000368
H	-5.9279916707	0.5621082336	1.2210865355
H	-4.8589106628	0.5091150412	-3.5975248959
C	-4.9376463553	-1.7481458971	0.3841302675
C	-8.6893433726	1.7311813327	0.5376968401
H	-8.6527854825	1.2308772265	-0.4299815395
H	-9.7236615548	2.0160875355	0.7236971237
H	-8.4216947553	0.9898336797	1.2928689806
N	-4.7495820995	-2.6804173637	1.0325832593
C	-5.8899113552	2.7907875886	-2.7877101507
N	-6.0858644771	3.6823621516	-3.4891206680
H	-4.4423646928	-1.5046579732	-2.2259057062
