52
VERBATIM source coordinates: optimized [DyO@C50]+, Table S1 of publisher ESI for DOI 10.1039/d5dt01279a (Angstrom)
Dy     4.565697     3.391105     3.055393
O      2.762846     3.151635     2.767582
C      6.579662     1.986363     2.009315
C      6.913092     3.356946     2.112368
C      7.023841     3.949038     3.463855
C      5.564291     1.529072     1.043454
C      6.202341     4.326940     1.264991
C      5.187581     3.881326     0.359429
C      4.872541     2.464623     0.242534
C      5.932712     5.508204     2.088293
C      6.435682     5.240078     3.437524
C      4.714692     6.201273     1.943837
C      3.711008     5.772127     0.973458
C      3.941028     4.622045     0.200536
C      4.004255     6.638524     3.131045
C      4.328533     6.076920     4.428879
C      5.543018     5.380751     4.590057
C      5.569318     4.122868     5.338063
C      4.335503     3.608059     5.848888
C      3.084977     5.573458     5.005840
C      3.087747     4.349263     5.695443
C      6.190578     1.861418     4.517148
C      4.937585     1.329004     5.082553
C      6.518346     3.230059     4.654051
C      4.022563     2.191640     5.725948
C      2.583171     2.055212     5.497119
C      4.423816     0.329437     4.156891
C      3.045224     0.209413     3.935382
C      2.095223     1.061409     4.635470
C      0.958663     3.695579     4.603576
C      2.003328     3.393904     5.487361
C      6.387464     1.208601     3.228231
C      5.314933     0.299657     3.016999
C      2.571353     0.049969     2.580412
C      3.429500     0.332789     1.453343
C      4.809000     0.452858     1.670080
C      1.355892     0.756398     2.427093
C      0.293878     3.312929     2.390320
C      0.498376     2.664037     3.679174
C      1.017337     1.371651     3.698119
C      2.010694     5.867258     4.066142
C      0.550416     4.684490     2.498521
C      0.974878     4.954670     3.865435
C      2.857583     3.667988    -0.022700
C      1.590164     3.898639     0.529606
C      1.364414     5.078948     1.356968
C      2.399013     5.990179     1.567953
C      2.617795     6.493763     2.908861
C      1.407559     1.497508     1.179145
C      2.722390     1.263113     0.585714
C      3.432903     2.328233     0.012463
C      0.887989     2.789676     1.166960
