132
SOURCE-VERBATIM PBEh-3c S0 geometry used without modification in DOI 10.1039/d5cp01869b; exact ACS Figshare geometry archive for ref. 64 DOI 10.1021/acs.jpclett.1c02299, system 23 p-2Cz2BMe
C	-3.1585066851	3.1477459490	-0.0602661500
C	-1.8863124104	3.6745418871	0.1777864588
C	-0.8010977673	2.8159686820	-0.0520035094
C	-3.3548394178	1.8516144015	-0.5088391980
N	0.5287142893	3.2462104689	0.1556693487
C	1.0923989369	3.5432064211	1.3776221706
C	1.4035442592	3.6328664784	-0.8407458694
C	2.5209925622	4.2499075497	-0.2525962625
C	2.3224930418	4.1915764224	1.1716551361
C	3.5363841871	4.7427324935	-1.0631355906
C	3.4292328157	4.6011403619	-2.4343444052
C	2.3227540156	3.9605882613	-2.9990655309
C	1.2977185995	3.4653200855	-2.2143873615
H	2.2681208997	3.8432528371	-4.0736190658
H	0.4467581046	2.9658346000	-2.6585980824
H	4.4004008063	5.2287089596	-0.6274129807
H	4.2144504316	4.9749756381	-3.0780213118
C	0.6347324274	3.2281686298	2.6497247401
C	1.4060883211	3.6297991149	3.7269118661
C	2.6067904364	4.3199361668	3.5426298846
C	3.0746770019	4.5929800285	2.2692075148
H	3.1836055494	4.6252311731	4.4051882069
H	4.0190639306	5.1041420351	2.1308022215
H	-0.2812082850	2.6722640160	2.7941509011
H	1.0739374072	3.3972818581	4.7302994020
H	-6.4560172475	0.8595102274	3.4982798188
C	-6.5055764432	0.7396645758	2.4237390081
H	-8.4052245230	-0.2606442750	2.4944295365
C	-7.6143680273	0.1072460122	1.8545805525
H	-4.6185761751	1.7165663410	2.0912202563
C	-5.4713548709	1.2231550497	1.6437005031
C	-7.7157919434	-0.0348516522	0.4831434663
C	-5.5701331554	1.0517973150	0.2699994582
H	-8.5837277421	-0.5107156709	0.0438279631
C	-6.6910036466	0.4455853535	-0.3230656038
N	-4.6844883853	1.4240962790	-0.7221024181
C	-6.4834040447	0.4977442800	-1.7462677957
C	-5.2443617215	1.1307563068	-1.9466535484
H	-8.1852722049	-0.3968177205	-2.7131114149
C	-7.2338730301	0.1023999583	-2.8471872987
C	-4.7758108749	1.4371225058	-3.2169198905
H	-3.8526318223	1.9818298230	-3.3576141835
C	-6.7554631771	0.3664575564	-4.1186059783
C	-5.5456400988	1.0418795637	-4.2975702555
H	-7.3308803129	0.0658013973	-4.9837164848
H	-5.2048501162	1.2678496166	-5.2995509718
C	-2.2698002347	0.9920027644	-0.7356859513
C	-0.9973097533	1.5197680430	-0.4999749243
B	-1.8002956155	5.2104387460	0.5436212707
C	-2.9761941562	5.8237156616	1.3903444463
C	-3.4170673184	5.2480753751	2.6025289844
C	-3.6684231053	6.9538567934	0.9116996458
C	-4.7666504652	7.4479431258	1.6097093921
C	-5.2011526848	6.8811196150	2.7955646116
C	-4.5011077568	5.7846960534	3.2807572984
H	-4.8114307938	5.3321709635	4.2167089883
H	-5.2970667559	8.3052748442	1.2101372496
C	-2.6995312554	4.0988936768	3.2533373911
H	-2.6101071185	3.2323923880	2.5991811145
H	-3.2195725043	3.7761441520	4.1548969768
H	-1.6889189399	4.3829546464	3.5489922056
C	-3.2967780627	7.6563026570	-0.3664316355
H	-2.3012438245	8.0951204558	-0.3190064626
H	-4.0030563090	8.4574495347	-0.5819530899
H	-3.3115019663	6.9829721755	-1.2233748098
C	-6.3873919279	7.4215996943	3.5363382741
H	-6.7903278008	8.3121719003	3.0559819127
H	-6.1278778049	7.6866821691	4.5623241653
H	-7.1890247317	6.6828826356	3.5876816401
C	-0.6363582906	6.0849355247	-0.0310133339
C	-0.3485183751	6.1485479394	-1.4083259936
C	0.1677518551	6.8263079358	0.8539976752
C	1.2508860689	7.5468532475	0.3666910066
C	1.5492040291	7.5969281936	-0.9862066045
C	0.7242964823	6.9043253820	-1.8592517467
H	1.8823443583	8.0809372932	1.0684948598
H	0.9324428349	6.9369122821	-2.9233147691
C	-1.2242424886	5.5100771325	-2.4525901001
H	-1.6869659206	4.5807169597	-2.1277110826
H	-0.6563204535	5.2957107353	-3.3572680997
H	-2.0346784792	6.1844203134	-2.7402452226
C	-0.0949042807	6.8520042738	2.3347229618
H	-0.1090467017	5.8523650184	2.7687988846
H	-1.0508714192	7.3233920568	2.5653967547
H	0.6838641284	7.4067767007	2.8566884766
C	2.7295240569	8.3654643021	-1.4997023652
H	3.2640641786	8.8690269932	-0.6949252871
H	2.4280421710	9.1253484573	-2.2224453602
H	3.4338653374	7.7016973162	-2.0040856591
H	-3.5190540380	-0.5418856935	2.7818926071
H	-2.1837896454	-1.5447514624	2.2519162298
C	-2.9374335686	-0.8321749143	1.9074096458
H	-5.1175899504	-2.2188795346	2.3790988287
H	-2.4040217871	0.0500627725	1.5600912840
H	-7.0180311259	-3.5894341823	2.0277548383
C	-4.9056697401	-2.1989330683	1.3158389881
C	-3.8173005728	-1.4614590552	0.8612381521
C	-6.9414339155	-3.6263587165	0.9419034315
C	-5.7374479287	-2.8823704821	0.4478372286
H	-7.8591628408	-3.1983038022	0.5347218647
H	-6.9144937225	-4.6758133216	0.6440515138
H	-2.4611239574	0.2460754735	-4.0946417959
C	-3.5266060997	-1.4107477184	-0.5123340964
H	-0.8519539157	-2.2892327459	0.7079224881
H	-0.9305635723	0.8354989249	-4.7180183006
B	-2.3562197671	-0.5467681450	-1.0899270993
C	-1.4476600310	0.5298657451	-3.8088356868
C	-5.4309768220	-2.8513058304	-0.9073074295
C	-1.1763248632	-1.1699486023	-1.9234973114
C	-0.7317542172	-0.6109258881	-3.1418929209
C	-0.8608283112	-2.9754896214	-0.1388203038
C	-4.3387757544	-2.1520457306	-1.3956241036
C	-0.4845816813	-2.2919176830	-1.4257828978
C	0.3550253330	-1.1561064913	-3.8087268471
C	0.6167030424	-2.7947433026	-2.1126547490
H	-0.1541064062	-3.7719371561	0.0921946274
C	1.0545612861	-2.2446466160	-3.3051401194
H	-1.5292805791	1.4073222159	-3.1682125565
H	3.0520285949	-2.0600852323	-4.0756360584
H	0.6680155532	-0.7169324490	-4.7501317563
H	-6.0674718162	-3.3831222255	-1.6069367214
H	-1.8553234683	-3.4169643891	-0.1848056224
H	1.1466273231	-3.6456192465	-1.6988505769
C	2.2449474433	-2.7934783092	-4.0330430116
C	-4.0699584276	-2.1900561751	-2.8747771556
H	2.6368077033	-3.6864530784	-3.5479903638
H	-3.1033025344	-2.6430639014	-3.0971635672
H	1.9950353961	-3.0570474660	-5.0617419441
H	-4.8347293179	-2.7674337031	-3.3928299866
H	-4.0760236917	-1.1946607277	-3.3193906638
H	-4.0293696755	3.7749616773	0.0932208865
H	-0.1263300310	0.8928163678	-0.6539799092
