73
SOURCE-VERBATIM PBEh-3c S0 geometry used without modification in DOI 10.1039/d5cp01869b; exact ACS Figshare geometry archive for ref. 64 DOI 10.1021/acs.jpclett.1c02299, system 6 PHOX-Meπ
N	-8.1161553487	5.8155316567	2.2411639675
C	-7.5850470206	7.0767492161	1.9889777579
C	-9.2626100535	5.6907850541	3.0200072047
C	-8.2379590152	8.2003822394	2.5045757958
C	-9.8748219227	6.8476788031	3.5114896002
C	-6.4285865990	7.2642853974	1.2421441864
C	-7.7458155375	9.4681749590	2.2784902723
C	-5.9344603335	8.5435427445	1.0141334494
C	-6.5880718935	9.6462044047	1.5288433395
H	-8.2770492478	10.3152488127	2.6926791537
H	-5.0329393576	8.6636260494	0.4290493781
C	-9.8245469991	4.4583796996	3.3296333291
C	-10.9713477694	4.3813968678	4.1117023070
C	-11.5664124294	5.5312051644	4.5931617794
C	-11.0106171892	6.7691830452	4.2889450106
H	-11.4576475086	7.6851350375	4.6529349731
H	-5.9061115342	6.4072410318	0.8368621627
H	-9.3683776482	3.5506171060	2.9559698515
C	-7.4778477624	4.6603906819	1.7285588556
C	-6.4587597072	4.0672353848	2.4730348839
C	-5.8349170086	2.9491582921	1.9421423747
C	-6.2318603957	2.3938824604	0.7254220218
C	-7.8952080964	4.1516975409	0.4988458997
C	-7.2770764302	3.0028929619	0.0300191746
B	-5.5635955518	1.1069723389	0.1652894971
C	-4.0259345630	0.8722009072	0.5051786011
C	-3.1284249139	1.9574475385	0.4623756748
C	-1.8570140000	1.8830668189	1.0189390570
C	-1.4238994278	0.7192719887	1.6147567029
C	-2.2294035193	-0.4011613439	1.5661863594
C	-3.4955345982	-0.3393924919	0.9998357913
H	-1.1918491408	2.7350315601	0.9822665540
H	-1.8527937636	-1.3291796820	1.9682744760
C	-4.2335510545	-1.6517325960	0.8812545592
F	-3.4950207108	-2.6776083200	1.3162118978
F	-4.5398156647	-1.9215106346	-0.3899499005
F	-5.3660586404	-1.6859827668	1.5835296811
C	-3.3964556302	3.2532882554	-0.2712848938
F	-4.4061252468	3.1808019908	-1.1347243453
F	-2.3171328670	3.5995198501	-0.9863684713
F	-3.6366419876	4.2746092805	0.5578003851
C	-6.5344284874	0.1313495356	-0.6306514735
C	-6.3931920304	-0.1832053028	-1.9932189765
C	-7.6641463323	-0.4020002227	0.0150809860
C	-8.5697315868	-1.2176816101	-0.6531903936
C	-8.3952319189	-1.5099695576	-1.9888943796
C	-7.3110377866	-0.9821316586	-2.6602922216
H	-7.1858184540	-1.2024815024	-3.7102613813
H	-9.4222493897	-1.6310634124	-0.1327600107
C	-8.0218927061	-0.1188125533	1.4553960830
F	-6.9849224586	0.2295491140	2.2176963975
F	-8.5747418976	-1.1898599730	2.0360950316
F	-8.9249126676	0.8659008871	1.5387091170
C	-5.3014340779	0.4208595884	-2.8348520058
F	-4.1202546827	0.4591035158	-2.2171565775
F	-5.6152266350	1.6777669465	-3.1741709426
F	-5.1133246857	-0.2511535230	-3.9734516778
H	-11.3904763714	3.4105192245	4.3380192458
O	-9.3794647572	8.0886073578	3.2413613440
H	-6.2092414785	10.6437632904	1.3550674096
H	-12.4579416156	5.4782227095	5.2024306649
C	-8.9906565344	4.8241344969	-0.2714526327
H	-9.9270594504	4.8345715990	0.2888115883
H	-9.1732335523	4.3106405153	-1.2141040945
H	-8.7404991735	5.8610764690	-0.5002798947
C	-6.0516728221	4.6370438020	3.7979334604
H	-5.6816030022	5.6588235631	3.6984523006
H	-5.2607249216	4.0404697184	4.2498054077
H	-6.8888748946	4.6641196742	4.4970016855
H	-5.0390162699	2.4840499237	2.5123817381
H	-7.6074470613	2.5875962121	-0.9152243019
H	-0.4458166347	0.6681490118	2.0722653929
H	-9.1030375745	-2.1418651446	-2.5068252436
