80
SOURCE-DERIVED crystallographic molecular core (CIF fractional coordinates Cartesianized, periodic molecule unwrapped, and rigidly recentered) for 1b, CCDC 2172306, publisher CIF DOI 10.1039/d4dt03529a; CIF riding-model H, lattice solvent/counterion excluded
Dy    -0.67597956    -2.84592838     0.12021791
Ni     0.08203701     0.50756222    -0.05427787
O     -0.91414837    -0.80577598     1.13656577
O     -1.37661038     0.77757462    -1.54006571
H     -1.69072338     0.19659882    -2.08053937
O      0.55751446    -1.21422918    -0.96484731
O      0.51387202    -3.59889838    -1.94542096
N      1.45351478     1.45022782    -1.19390520
O      1.70082501     0.39474882     1.34246050
H      1.99493403    -0.36350518     1.62556575
N     -0.84949978     2.00002802     0.96026841
O     -0.98729488    -2.89348438     2.66919466
O     -2.02193539    -1.87737118    -1.56322887
O      0.65783367    -4.68317518     0.89721314
C      1.08357494    -1.34368718    -2.17447884
O      1.52011701    -2.74394718     1.22149734
C      1.07400387    -2.62241518    -2.76256566
C      1.68073060    -0.27896118    -2.88481566
C      1.91890912     1.01297682    -2.29930252
H      2.46972325     1.58959332    -2.77643782
N     -2.81097372    -4.76507718     0.12382107
C     -1.19543647     1.92446682     2.19821046
H     -1.50371726     2.69870492     2.60877742
O     -3.76848092    -5.53654118     0.07749475
N      1.61576029    -3.97776118     1.36691050
C     -1.04843740    -0.56429718     2.44657098
C      1.96628890     2.66951082    -0.64056311
C      1.61460700    -2.85755318    -3.99793404
H      1.58892750    -3.70946608    -4.36751508
O     -1.78047450    -4.89981918    -0.48228154
C     -1.13755877     0.70650482     3.00377359
C      2.22767329    -0.54580318    -4.16522351
H      2.61001811     0.14904282    -4.65023428
C     -1.84400472     3.09751482    -0.93782363
C     -2.40382338     1.77387282    -1.37277624
H     -3.04187740     1.46520796    -0.71012979
H     -2.87664847     1.88779586    -2.21143695
C      2.20477579    -1.80075318    -4.70054980
H      2.58264124    -1.95324942    -5.53544006
C      2.52466763     2.58760882     0.66172105
C     -1.09280407    -1.66865318     3.31132884
C     -1.13939235     3.21112082     0.26022633
O     -2.93910247    -3.52069518     0.66172105
C     -2.09425483     4.27320482    -1.66360255
H     -2.55048253     4.22342954    -2.47243425
O      2.60319354    -4.41897518     1.74138153
C     -1.27946362     0.85181482     4.40771827
H     -1.34780838     1.69987040     4.78315444
N     -3.11771246    -2.15742318    -2.13716042
C     -1.31592542    -0.24725718     5.20427351
H     -1.41263134    -0.14041470     6.12354200
C      0.58460975    -4.97115318    -2.41254462
H      0.23781233    -5.55691100    -1.73682386
H      1.49880485    -5.19855012    -2.59652443
H      0.06443923    -5.06217008    -3.21426009
C     -0.73394732     4.46871282     0.72477631
H     -0.28344450     4.54078658     1.53565409
C     -1.21382059    -1.51541718     4.68567616
H     -1.22489060    -2.25932512     5.24451306
C      1.86849805     3.85048482    -1.32258940
H      1.49231974     3.88255870    -2.17272874
O     -3.81178072    -1.20894518    -2.43699462
C     -1.00095574     5.59684682    -0.01001051
H     -0.72432147     6.43219438     0.29416035
C     -1.67946888     5.48324082    -1.20033941
H     -1.85877815     6.24860180    -1.69778107
O     -3.44882388    -3.30669318    -2.38294726
C      2.36531179     5.03410082    -0.68688943
H      2.31788177     5.85412478    -1.12355354
C      3.02146915     3.74480482     1.21506313
H      3.44143343     3.70969264     2.04371221
C      2.78667888     1.26925082     1.35790260
H      3.54220987     0.83540800     0.92998901
H      3.03228532     1.44557790     2.27911422
C      2.91177569     4.94955682     0.57035526
H      3.21147984     5.72374208     0.99081804
C     -1.08978436    -4.07815718     3.47861831
H     -1.97439237    -4.14053480     3.84495651
H     -0.44947297    -4.03429998     4.19272557
H     -0.91206904    -4.85139132     2.93733394
