15
[UO2(CO3)3]5- B3LYP/CPCM geometry, verbatim ACS SI DOI 10.1021/jp809108h.s001
U 0.000000 0.000000 0.000000
O 0.000000 0.000000 1.897508
O 0.000000 0.000000 -1.897508
O 1.101597 2.302729 0.000000
O -1.101597 2.302729 0.000000
O 2.545020 -0.197353 0.000000
O -2.545020 -0.197353 0.000000
O 1.443423 -2.105376 0.000000
O -1.443423 -2.105376 0.000000
O 3.697230 -2.134597 0.000000
O -3.697230 -2.134597 0.000000
O 0.000000 4.269194 0.000000
C 0.000000 2.997271 0.000000
C 2.595713 -1.498635 0.000000
C -2.595713 -1.498635 0.000000
