149
SOURCE-DERIVED publisher CIF complex-1; exact fractional coordinates symmetry-expanded, periodic molecule unwrapped and rigidly recentered; lattice components excluded; one reciprocal ordered H2O/MeCN realization selected from 0.5-occupancy source alternatives
Dy -2.2397809093  0.3652231620 -2.1768698128
Dy  1.9765337387 -0.3559202280  2.2558740472
Ni -1.0574561293 -1.0569872430  0.7852930272
Ni  0.7942089587  1.0662901770 -0.7062887928
C  -1.7810131453  1.9528628970  0.5508715972
C   1.5177659747 -1.9435599630 -0.4718673628
C  -2.9039713453  2.5310624970 -6.0428545828
C   2.6407241747 -2.5217595630  6.1218588172
C  -2.8095570253  3.7404633270 -6.6860040828
C   2.5463098547 -3.7311603930  6.7650083172
C  -2.5620770653  4.9193480670 -5.9824772828
C   2.2988298947 -4.9100451330  6.0614815172
C  -2.4404828653  4.8695586570 -4.6121750828
C   2.1772356947 -4.8602557230  4.6911793172
C  -3.1972279453  1.3393288770 -8.0773070828
C   2.9339807747 -1.3300259430  8.1563113172
C  -2.4433439053  6.2122666170 -6.7490064828
C   2.1800967347 -6.2029636830  6.8280107172
C  -0.6280140253 -1.9066194330  3.3983175672
C   0.3647668547  1.9159223670 -3.3193133328
C  -0.5908205053 -1.8857400030  4.8014335172
C   0.3275733347  1.8950429370 -4.7224292828
C  -0.9341453053 -3.0148353330  5.5102105172
C   0.6708981347  3.0241382670 -5.4312062828
C  -1.3203857053 -4.1728406430  4.8618108172
C   1.0571385347  4.1821435770 -4.7828065828
C  -1.7466806653  2.1070494570  1.9400745172
C   1.4834334947 -2.0977465230 -1.8610702828
C  -1.3804675453 -4.1969322930  3.4731329172
C   1.1172203747  4.2062352270 -3.3941286828
C  -1.0128239053 -3.0822919530  2.7420425672
C   0.7495767347  3.0915948870 -2.6630383328
C  -1.0857804253 -4.0154418630  0.5461464172
C   0.8225332547  4.0247447970 -0.4671421828
C  -1.2231103453 -3.9576219030 -0.8924083828
C   0.9598631747  3.9669248370  0.9714126172
C  -1.5049227853 -2.7803432730 -1.6074856228
C   1.2416756147  2.7896462070  1.6864898572
C  -1.5864624253 -2.8510121130 -3.0187393828
C   1.3232152547  2.8603150470  3.0977436172
C  -1.4376883453 -4.0459579530 -3.6750143828
C   1.1744411747  4.0552608870  3.7540186172
C  -1.1759031853 -5.2328732430 -2.9951134828
C   0.9126560147  5.2421761770  3.0741177172
C  -1.0643226253 -5.1686288430 -1.6011853828
C   0.8010754547  5.1779317770  1.6801896172
C  -1.7681384653 -1.5886096530 -5.0584420828
C   1.5048912947  1.5979125870  5.1374463172
C  -2.2988613853  3.2329325670  2.5280969172
C   2.0356142147 -3.2236296330 -2.4490926828
C  -1.0500174253 -6.5081245830 -3.7406418828
C   0.7867702547  6.5174275170  3.8196461172
C   3.7679739347  0.4383011670 -1.6484371828
C   5.0954964947 -0.1543534230 -1.8925714828
C  -2.8896661453  4.2014168970  1.7510673172
C   2.6264189747 -4.1921139630 -1.6720630828
C  -2.9397343453  4.0745342070  0.3702647172
C   2.6764871747 -4.0652312730 -0.2912604828
C  -2.3718179053  2.9582877570 -0.2390209928
C   2.1085707347 -2.9489848230  0.3180252272
C  -2.4361913053  3.6987044670 -2.4595930828
C   2.1729441347 -3.6894015330  2.5385973172
C  -2.5520634253  3.6392783970 -3.9191486828
C   2.2888162547 -3.6299754630  3.9981529172
C  -2.7652109053  2.4379081170 -4.6174252828
C   2.5019637347 -2.4286051830  4.6964295172
H  -3.5468184229 -0.0129996819  1.2771055122
H  -2.7859677505 -0.3448220079  2.4203103112
H  -2.9154298105  3.7756050138 -7.6282312258
H   2.6521826399 -3.7663020798  7.7072354602
H  -2.2807080865  5.6691283983 -4.1270828538
H   2.0174609159 -5.6598254643  4.2060870882
H  -3.9756454033  1.8681245334 -8.3478498888
H   3.7123982327 -1.8588215994  8.4268541232
H  -3.2930012593  0.4219991505 -8.4090409698
H   3.0297540887 -0.4126962165  8.4880452042
H  -2.3839630201  1.7383990287 -8.4514625858
H   2.1207158495 -1.7290960947  8.5304668202
H  -2.3239670113  6.9541770093 -6.1181424508
H   2.0607198407 -6.9448740753  6.1971466852
H  -3.2576531101  6.3576195720 -7.2728976898
H   2.9944059395 -6.3483166380  7.3519019242
H  -1.6704768649  6.1674561480 -7.3490518408
H   1.4072296943 -6.1581532140  7.4280560752
H  -0.3307233589 -1.0955981274  5.2594609652
H   0.0674761883  1.1049010614 -5.1804567308
H  -0.9051915805 -2.9974411617  6.4593679242
H   0.6419444099  3.0067440957 -6.3803636898
H  -1.5430747537 -4.9489611783  5.3626273952
H   1.2798275831  4.9582641123 -5.2836231608
H  -1.3453196689  1.4383776807  2.4827614402
H   1.0820724983 -1.4290747467 -2.4037572058
H  -1.6755838213 -4.9804730565  3.0256846222
H   1.4123366507  4.9897759905 -2.9466803878
H  -1.0092905209 -4.8731206641  0.9479442232
H   0.7460433503  4.8824235981 -0.8689399888
H  -1.5171537313 -4.0644442791 -4.6211529248
H   1.2539065607  4.0737472131  4.7001571592
H  -0.8756799529 -5.9632678266 -1.1173794528
H   0.6124327823  5.9725707606  1.1963836872
H  -0.8818168837 -1.8728911230 -5.3668650818
H   0.6185697131  1.8821940570  5.4458693162
H  -1.9423185805 -0.6743957799 -5.3679151218
H   1.6790714099  0.6836987139  5.4469193562
H  -2.4491375113 -2.1913506138 -5.4233047318
H   2.1858903407  2.2006535478  5.5023089662
H  -2.2698361345  3.3363178677  3.4717941162
H   2.0065889639 -3.3270149337 -3.3927898818
H  -0.7533418825 -7.2154393659 -3.1287573238
H   0.4900947119  7.2247422999  3.2077615582
H  -0.3938522065 -6.4030046835 -4.4598405298
H   0.1306050359  6.4123076175  4.5388447642
H  -1.9190011045 -6.7504223376 -4.1217801518
H   1.6557539339  6.7597252716  4.2007843862
H   5.4836108759 -0.4499900907 -1.0437978998
H   5.0048730527 -0.9220418808 -2.4960557218
H   5.6813945711  0.5155711191 -2.3046071788
H  -3.2673806461  4.9672262061  2.1665943962
H   3.0041334755 -4.9579232721 -2.0875901618
H  -3.3605504137  4.7455830261 -0.1544665218
H   3.0973032431 -4.7362800921  0.2334707562
H  -2.3698723981  4.5630968079 -2.0718395618
H   2.1066252275 -4.5537938739  2.1508437962
N  -2.4133029853  2.7029162670 -1.6521123228
N   2.1500558147 -2.6936133330  1.7311165572
N  -1.0600310653 -2.9811070230  1.3221259772
N   0.7967838947  2.9904099570 -1.2431217428
N  -4.8952551853 -0.4306043430 -1.3281749828
N   4.6320080147  0.4399072770  1.4071792172
N   2.7294164147  0.9474380370 -1.4646801828
O  -1.2202493053  0.8639203170 -0.0568390528
O   0.9570021347 -0.8546173830  0.1358432872
O  -3.0026772253 -0.6683086230  1.6224374172
O  -2.8195706653  1.2670539270 -4.0399032828
O   2.5563234947 -1.2577509930  4.1189075172
O  -3.1056746653  1.3216616670 -6.6550279028
O   2.8424274947 -1.3123587330  6.7340321372
O  -0.2718145453 -0.8128585230  2.6745774972
O   0.0085673747  0.8221614570 -2.5955732628
O  -1.6737241453 -1.5757607730 -1.0535895228
O   1.4104769747  1.5850637070  1.1325937572
O  -1.8124845853 -1.6255501830 -3.6185747328
O   1.5492374147  1.6348531170  3.6975789672
O  -4.2229107853  0.4704233670 -0.7322772828
O   3.9596636147 -0.4611204330  0.8112815172
O  -4.3659627853 -0.9333167730 -2.3454012328
O   4.1027156147  0.9426197070  2.4244054672
O  -5.9996166253 -0.7967974230 -0.9344099828
O   5.7363694547  0.8061003570  1.0134142172
