150
SOURCE-DERIVED publisher CIF complex-3; exact fractional coordinates symmetry-expanded, periodic molecule unwrapped and rigidly recentered; lattice components excluded
Dy -1.5828940295  2.5446325919 -0.6905377560
Dy  1.5828940295 -2.5446325919  0.6905377560
Ni -0.9972718848 -0.2980633706  1.2533273690
Ni  0.9972718848  0.2980633706 -1.2533273690
C  -1.8411517997 -0.5147393059 -1.7243315515
C   1.8411517997  0.5147393059  1.7243315515
C  -2.3151727110  5.3367770945 -5.9928908243
C   2.3151727110 -5.3367770945  5.9928908243
C  -1.9744650758  6.2966166546 -5.0267283985
C   1.9744650758 -6.2966166546  5.0267283985
C  -1.7538999541  5.9303433092 -3.7156996624
C   1.7538999541 -5.9303433092  3.7156996624
C  -1.9066549847  4.5766919171 -3.2930036012
C   1.9066549847 -4.5766919171  3.2930036012
C  -2.6160904201  5.7786444053 -7.4005358029
C   2.6160904201 -5.7786444053  7.4005358029
C  -1.5173275056  8.2035244577 -2.9977873044
C   1.5173275056 -8.2035244577  2.9977873044
C  -0.9862702733 -2.7044573371  2.6703655934
C   0.9862702733  2.7044573371 -2.6703655934
C  -1.2239859983 -4.0490476249  2.9709494592
C   1.2239859983  4.0490476249 -2.9709494592
C  -1.5818650122 -4.4247441647  4.2578241347
C   1.5818650122  4.4247441647 -4.2578241347
C  -1.7085569173 -3.4770317398  5.2602176514
C   1.7085569173  3.4770317398 -5.2602176514
C  -2.0702322056 -1.8709432185 -1.5579369116
C   2.0702322056  1.8709432185  1.5579369116
C  -1.4910419492 -2.1446457267  4.9837878463
C   1.4910419492  2.1446457267 -4.9837878463
C  -1.1216327939 -1.7406761457  3.6982550631
C   1.1216327939  1.7406761457 -3.6982550631
C  -0.8152188361  0.5742206087  4.1035065250
C   0.8152188361 -0.5742206087 -4.1035065250
C  -0.6935133021  1.9737468240  3.7505888611
C   0.6935133021 -1.9737468240 -3.7505888611
C  -0.4369872045  2.8820688025  4.8026323914
C   0.4369872045 -2.8820688025 -4.8026323914
C  -0.2345641800  4.2253338859  4.5812201689
C   0.2345641800 -4.2253338859 -4.5812201689
C  -0.2308214359  4.6914284013  3.2581144025
C   0.2308214359 -4.6914284013 -3.2581144025
C  -0.4972591022  3.8291389832  2.2288830406
C   0.4972591022 -3.8291389832 -2.2288830406
C  -0.7980994703  2.4672790791  2.4234574180
C   0.7980994703 -2.4672790791 -2.4234574180
C  -0.0025233063 -5.1866224056 -5.7204866959
C   0.0025233063  5.1866224056  5.7204866959
C  -2.7308938235 -2.5821725187 -2.5495952902
C   2.7308938235  2.5821725187  2.5495952902
C  -0.1285837656 -5.4528151757 -0.5649366406
C   0.1285837656  5.4528151757  0.5649366406
C  -3.9343887025 -1.1312332051  1.9578208044
C   3.9343887025  1.1312332051 -1.9578208044
C  -3.1894354794 -1.9367517604 -3.6915456018
C   3.1894354794  1.9367517604  3.6915456018
C  -3.0192455768 -0.5686187486 -3.8176834741
C   3.0192455768  0.5686187486  3.8176834741
C  -2.3333408747  0.1596925063 -2.8568886173
C   2.3333408747 -0.1596925063  2.8568886173
C  -2.2613981430  2.2019418558 -4.0216510973
C   2.2613981430 -2.2019418558  4.0216510973
C  -2.1733816902  3.6159399159 -4.2766106263
C   2.1733816902 -3.6159399159  4.2766106263
C  -2.3776241528  4.0219525645 -5.6185028843
C   2.3776241528 -4.0219525645  5.6185028843
H  -1.8937095615  7.2083897893 -5.2792993593
H   1.8937095615 -7.2083897893  5.2792993593
H  -2.6804052646  4.9928237602 -7.9827425969
H   2.6804052646 -4.9928237602  7.9827425969
H  -1.8974396350  6.3635432494 -7.7197048765
H   1.8974396350 -6.3635432494  7.7197048765
H  -3.4655810817  6.2666496316 -7.4153637124
H   3.4655810817 -6.2666496316  7.4153637124
H  -0.9925798491  8.4452070580 -3.7891682636
H   0.9925798491 -8.4452070580  3.7891682636
H  -1.2044950637  8.7205026064 -2.2270043914
H   1.2044950637 -8.7205026064  2.2270043914
H  -2.4638942208  8.4008215590 -3.1612297814
H   2.4638942208 -8.4008215590  3.1612297814
H  -1.1390002192 -4.7075034376  2.2923008687
H   1.1390002192  4.7075034376 -2.2923008687
H  -1.7421455814 -5.3405435089  4.4537001476
H   1.7421455814  5.3405435089 -4.4537001476
H  -1.9450763222 -3.7451208811  6.1403916213
H   1.9450763222  3.7451208811 -6.1403916213
H  -1.7769691965 -2.3107135056 -0.7688103314
H   1.7769691965  2.3107135056  0.7688103314
H  -1.5931590487 -1.4967823200  5.6703938579
H   1.5931590487  1.4967823200 -5.6703938579
H  -0.8105042719  0.3584145256  5.0283923449
H   0.8105042719 -0.3584145256 -5.0283923449
H  -0.4023682335  2.5538755429  5.6940379995
H   0.4023682335 -2.5538755429 -5.6940379995
H  -0.0443121070  5.6049953356  3.0762343258
H   0.0443121070 -5.6049953356 -3.0762343258
H  -0.4409761559 -5.9948920070 -5.3812831709
H   0.4409761559  5.9948920070  5.3812831709
H  -0.5755689218 -4.7623675732 -6.3931236092
H   0.5755689218  4.7623675732  6.3931236092
H  -0.8555394851  5.4280193218  6.1287842533
H   0.8555394851 -5.4280193218 -6.1287842533
H  -2.8702926227 -3.5163716820 -2.4465916405
H   2.8702926227  3.5163716820  2.4465916405
H  -0.1012089123 -5.5936567657  0.4048488942
H   0.1012089123  5.5936567657 -0.4048488942
H  -1.0583757583 -5.4764208072 -0.8723104812
H   1.0583757583  5.4764208072  0.8723104812
H  -0.3818312998  6.1600806688  1.0118001815
H   0.3818312998 -6.1600806688 -1.0118001815
H  -3.6173726630 -2.4313850983 -4.3808353980
H   3.6173726630  2.4313850983  4.3808353980
H  -3.3782436785 -0.1219272472 -4.5755708025
H   3.3782436785  0.1219272472  4.5755708025
H  -2.4285836370  1.6539112455 -4.7796055203
H   2.4285836370 -1.6539112455  4.7796055203
H  -3.6114419400  0.6273931870 -0.0466173370
H   3.6114419400 -0.6273931870  0.0466173370
H  -4.1281905648  1.3106938707 -1.1323423630
H   4.1281905648 -1.3106938707  1.1323423630
H  -3.7707200035  3.3654925506  0.9088099507
H   3.7707200035 -3.3654925506 -0.9088099507
H  -3.6907599084  4.3267165052 -0.0808892653
H   3.6907599084 -4.3267165052  0.0808892653
H  -2.5619686231  3.3630659168 -6.2764594963
H   2.5619686231 -3.3630659168  6.2764594963
N  -2.1412968075  1.5844452819 -2.8971453851
N   2.1412968075 -1.5844452819  2.8971453851
N  -0.9308524239 -0.4013457773  3.2728752173
N   0.9308524239  0.4013457773 -3.2728752173
N  -3.0376961527 -0.6829730893  1.3539692883
N   3.0376961527  0.6829730893 -1.3539692883
O  -1.0979303141  0.1833767366 -0.7970840013
O   1.0979303141 -0.1833767366  0.7970840013
O  -1.7831924160  4.2840466089 -2.0101546025
O   1.7831924160 -4.2840466089  2.0101546025
O  -1.3620285494  6.8029919704 -2.7307507451
O   1.3620285494 -6.8029919704  2.7307507451
O  -0.5957559283 -2.3181534445  1.4317990393
O   0.5957559283  2.3181534445 -1.4317990393
O  -1.0824243808  1.7185884200  1.3714138877
O   1.0824243808 -1.7185884200 -1.3714138877
O  -0.4493859624  4.1720572662  0.8802813213
O   0.4493859624 -4.1720572662 -0.8802813213
O  -3.7401880732  1.4372627498 -0.3569433406
O   3.7401880732 -1.4372627498  0.3569433406
O  -3.1998876267  3.8858083603  0.4951582432
O   3.1998876267 -3.8858083603 -0.4951582432
S  -5.2137714114 -1.7202832130  2.7919410320
S   5.2137714114  1.7202832130 -2.7919410320
