172
SOURCE-DERIVED publisher CIF complex-2; exact fractional coordinates symmetry-expanded, periodic molecule unwrapped and rigidly recentered; lattice components excluded
Dy -1.1881844542 -1.1035157208 -2.6673738631
Dy  1.1881844542  1.1035157208  2.6673738631
Ni -0.5503423248 -1.2619689269  0.7633299524
Ni  0.5503423248  1.2619689269 -0.7633299524
C  -1.6733348458  1.5511648100  1.2263333662
C   1.6733348458 -1.5511648100 -1.2263333662
C  -2.2312594693 -6.7626964453 -4.4416714402
C   2.2312594693  6.7626964453  4.4416714402
C  -3.4006202175 -5.9877087173 -4.6353030243
C   3.4006202175  5.9877087173  4.6353030243
C  -3.4820253967 -4.6735551780 -4.2533087427
C   3.4820253967  4.6735551780  4.2533087427
C  -2.3495084246 -4.0370321780 -3.6566073304
C   2.3495084246  4.0370321780  3.6566073304
C  -2.1582992588 -8.2013573846 -4.9224573464
C   2.1582992588  8.2013573846  4.9224573464
C  -5.6784552697 -4.4094574922 -5.0844756107
C   5.6784552697  4.4094574922  5.0844756107
C  -2.4605482375 -2.9630448129 -0.2818854354
C   2.4605482375  2.9630448129  0.2818854354
C  -3.7214605914 -3.4278273193 -0.6665141604
C   3.7214605914  3.4278273193  0.6665141604
C  -4.1555707574 -4.6811356977 -0.3266709719
C   4.1555707574  4.6811356977  0.3266709719
C  -3.3147016232 -5.5498628991  0.3925320549
C   3.3147016232  5.5498628991 -0.3925320549
C  -2.9122490607  1.1755530574  0.7297408001
C   2.9122490607 -1.1755530574 -0.7297408001
C  -2.0591357068 -5.1318222592  0.7560852333
C   2.0591357068  5.1318222592 -0.7560852333
C  -1.6186316684 -3.8353906267  0.4267798181
C   1.6186316684  3.8353906267 -0.4267798181
C  -0.5772758216  3.9416276342 -1.3541038673
C   0.5772758216 -3.9416276342  1.3541038673
C  -1.8166564302  3.3686838056 -1.8744064233
C   1.8166564302 -3.3686838056  1.8744064233
C  -2.8622652753  4.2667384963 -2.1734157403
C   2.8622652753 -4.2667384963  2.1734157403
C  -4.0752949973  3.8516221020 -2.6700083064
C   4.0752949973 -3.8516221020  2.6700083064
C  -4.2666017317  2.4763732160 -2.9005220971
C   4.2666017317 -2.4763732160  2.9005220971
C  -3.2501330215  1.5866296043 -2.6370777649
C   3.2501330215 -1.5866296043  2.6370777649
C  -1.9939249467  1.9979362538 -2.1273129822
C   1.9939249467 -1.9979362538  2.1273129822
C  -5.1797806172  4.8215762729 -3.0058998299
C   5.1797806172 -4.8215762729  3.0058998299
C  -4.0393458262  1.9332233631  0.9997712405
C   4.0393458262 -1.9332233631 -0.9997712405
C  -4.5282485735 -0.3113632972 -3.4129213231
C   4.5282485735  0.3113632972  3.4129213231
C  -1.1559490943 -1.0478428105 -5.9288146952
C   1.1559490943  1.0478428105  5.9288146952
C  -0.2505468235  1.3374240993  5.9946757783
C   0.2505468235 -1.3374240993 -5.9946757783
C  -1.1144605319  0.9640274407  4.9935873161
C   1.1144605319 -0.9640274407 -4.9935873161
C  -2.0174672423 -1.3507167152 -7.1788580513
C   2.0174672423  1.3507167152  7.1788580513
C  -2.6260853787  1.0382196133  5.2082944468
C   2.6260853787 -1.0382196133 -5.2082944468
C  -3.1401185848 -1.7619739256  2.6423466516
C   3.1401185848  1.7619739256 -2.6423466516
C  -3.9439119300  3.0705820168  1.7966903453
C   3.9439119300 -3.0705820168 -1.7966903453
C  -2.7307779780  3.4443526079  2.2919656898
C   2.7307779780 -3.4443526079 -2.2919656898
C  -1.5723691175  2.7300603996  2.0008597027
C   1.5723691175 -2.7300603996 -2.0008597027
C  -0.0182005562  4.2759722501  2.8833982155
C   0.0182005562 -4.2759722501 -2.8833982155
C  -1.1917175410 -4.7977273591 -3.4748307412
C   1.1917175410  4.7977273591  3.4748307412
C  -1.1498468814 -6.1575581404 -3.8568250228
C   1.1498468814  6.1575581404  3.8568250228
H  -4.1568813114 -6.3935811007 -5.0435231892
H   4.1568813114  6.3935811007  5.0435231892
H  -2.1996689270 -8.2221355403 -5.9008895960
H   2.1996689270  8.2221355403  5.9008895960
H  -2.9109992920 -8.7082540609 -4.5522785431
H   2.9109992920  8.7082540609  4.5522785431
H  -1.3156594448 -8.6033525280 -4.6224996298
H   1.3156594448  8.6033525280  4.6224996298
H  -5.4221108719 -4.7805279836 -5.9537497013
H   5.4221108719  4.7805279836  5.9537497013
H  -6.3539335076 -3.7109924330 -5.2129047226
H   6.3539335076  3.7109924330  5.2129047226
H  -6.0475474501 -5.1209080654 -4.5205598455
H   6.0475474501  5.1209080654  4.5205598455
H  -4.2906149122 -2.8608132904 -1.1740528385
H   4.2906149122  2.8608132904  1.1740528385
H  -5.0261888814 -4.9665780292 -0.5790111254
H   5.0261888814  4.9665780292  0.5790111254
H  -3.6144974253 -6.4201101443  0.6264706219
H   3.6144974253  6.4201101443 -0.6264706219
H  -2.9890588786  0.3918724264  0.1992429484
H   2.9890588786 -0.3918724264 -0.1992429484
H  -1.4839963729 -5.7202512144  1.2317339750
H   1.4839963729  5.7202512144 -1.2317339750
H  -0.4776223280  4.8856599363 -1.3932780395
H   0.4776223280 -4.8856599363  1.3932780395
H  -2.7226366934  5.1947683159 -2.0261371864
H   2.7226366934 -5.1947683159  2.0261371864
H  -5.0969394524  2.1619489847 -3.2376649812
H   5.0969394524 -2.1619489847  3.2376649812
H  -5.2334288715  4.9309832523 -3.9788260930
H   5.2334288715 -4.9309832523  3.9788260930
H  -6.0322049753  4.4751035921 -2.6691784568
H   6.0322049753 -4.4751035921  2.6691784568
H  -4.9914446625  5.6882013736 -2.5898948850
H   4.9914446625 -5.6882013736  2.5898948850
H  -4.8802341080  1.6756226113  0.6398404217
H   4.8802341080 -1.6756226113 -0.6398404217
H  -4.4080998838 -1.2661578734 -3.5976748333
H   4.4080998838  1.2661578734  3.5976748333
H  -5.2851541879 -0.1889514632 -2.8030213497
H   5.2851541879  0.1889514632  2.8030213497
H  -4.7050002264  0.1637052041 -4.2522022765
H   4.7050002264 -0.1637052041  4.2522022765
H  -0.5917666878  1.7987813892  6.7506029450
H   0.5917666878 -1.7987813892 -6.7506029450
H  -2.9616564083 -1.4034469876 -6.9203269560
H   2.9616564083  1.4034469876  6.9203269560
H  -1.7383734028 -2.2055288059 -7.5694274460
H   1.7383734028  2.2055288059  7.5694274460
H  -1.8994983605 -0.6363464468 -7.8392603032
H   1.8994983605  0.6363464468  7.8392603032
H  -2.9919729376  0.1307589394  5.2728646526
H   2.9919729376 -0.1307589394 -5.2728646526
H  -2.8153410121  1.5259866239  6.0365502549
H   2.8153410121 -1.5259866239 -6.0365502549
H  -3.0411571937  1.5038694970  4.4523804523
H   3.0411571937 -1.5038694970 -4.4523804523
H  -3.7027679840 -1.2578610444  2.0171800791
H   3.7027679840  1.2578610444 -2.0171800791
H  -3.4101708112 -1.5571781122  3.5618068874
H   3.4101708112  1.5571781122 -3.5618068874
H  -3.2466264625 -2.7215353273  2.4761659668
H   3.2466264625  2.7215353273 -2.4761659668
H  -4.7190764711  3.5836386342  1.9947082776
H   4.7190764711 -3.5836386342 -1.9947082776
H  -2.6743170568  4.2116266349  2.8492426578
H   2.6743170568 -4.2116266349 -2.8492426578
H  -0.7171458476  4.9007009213  2.7318123468
H   0.7171458476 -4.9007009213 -2.7318123468
H  -1.5995648784 -0.7792066962  2.9865630160
H   1.5995648784  0.7792066962 -2.9865630160
H  -0.3586838812 -6.6607046934 -3.7060558315
H   0.3586838812  6.6607046934  3.7060558315
N  -0.2503778391  3.0775025677  2.5461894703
N   0.2503778391 -3.0775025677 -2.5461894703
N  -0.3884262417 -3.2597986328  0.8482907496
N   0.3884262417  3.2597986328 -0.8482907496
O  -0.5438809104  0.8273057656  0.9734268073
O   0.5438809104 -0.8273057656 -0.9734268073
O  -2.4317618325 -2.7772520021 -3.3444257968
O   2.4317618325  2.7772520021  3.3444257968
O  -4.5322872289 -3.8497720526 -4.4508919918
O   4.5322872289  3.8497720526  4.4508919918
O  -2.0549484798 -1.7145987967 -0.5545503192
O   2.0549484798  1.7145987967  0.5545503192
O  -1.0734754288  1.0556816773 -1.9349986197
O   1.0734754288 -1.0556816773  1.9349986197
O  -3.3339189483  0.2145958288 -2.8069993592
O   3.3339189483 -0.2145958288  2.8069993592
O  -1.7148145227 -0.5848903558 -4.9343123413
O   1.7148145227  0.5848903558  4.9343123413
O  -0.7414477769  0.5038930469  3.8792177910
O   0.7414477769 -0.5038930469 -3.8792177910
O  -1.7980078521 -1.4012420045  2.4579356190
O   1.7980078521  1.4012420045 -2.4579356190
