152
SOURCE-DERIVED publisher CIF complex-4; exact fractional coordinates symmetry-expanded, periodic molecule unwrapped and rigidly recentered; lattice components excluded
Dy -2.0444326934  1.1663525370 -1.9744646237
Dy  2.0444326934 -1.1663525370  1.9744646237
Ni -0.9285316475 -1.3017942700  0.0708592097
Ni  0.9285316475  1.3017942700 -0.0708592097
C  -1.7844731914  1.4285907860  1.2133276978
C   1.7844731914 -1.4285907860 -1.2133276978
C  -2.7105449085  4.9377971300 -4.4471239984
C   2.7105449085 -4.9377971300  4.4471239984
C  -3.0704693509  6.2709146500 -4.4512665368
C   3.0704693509 -6.2709146500  4.4512665368
C  -3.4325353198  6.9334640340 -3.2532008227
C   3.4325353198 -6.9334640340  3.2532008227
C  -3.3411679892  6.2353314380 -2.0721413189
C   3.3411679892 -6.2353314380  2.0721413189
C  -2.5986509710  4.8472102910 -6.8489241634
C   2.5986509710 -4.8472102910  6.8489241634
C  -3.9682926717  8.3486484690 -3.3070538220
C   3.9682926717 -8.3486484690  3.3070538220
C  -0.5485980498 -3.2177748260  2.0560072219
C   0.5485980498  3.2177748260 -2.0560072219
C  -0.6607455243 -3.8388522270  3.3120684738
C   0.6607455243  3.8388522270 -3.3120684738
C  -1.0402711631 -5.1707168170  3.4099631973
C   1.0402711631  5.1707168170 -3.4099631973
C  -1.3033338999 -5.9309947410  2.2698930209
C   1.3033338999  5.9309947410 -2.2698930209
C  -1.7936322027  0.9160171230  2.5156109572
C   1.7936322027 -0.9160171230 -2.5156109572
C  -1.1763168407 -5.3449993800  1.0164481091
C   1.1763168407  5.3449993800 -1.0164481091
C  -0.8159585755 -3.9977237510  0.9026373169
C   0.8159585755  3.9977237510 -0.9026373169
C  -0.7507155447 -3.8484997880 -1.4695109942
C   0.7507155447  3.8484997880  1.4695109942
C  -0.7909167787 -3.1645253010 -2.7469390232
C   0.7909167787  3.1645253010  2.7469390232
C  -1.0572296143 -1.7896852120 -2.8834247624
C   1.0572296143  1.7896852120  2.8834247624
C  -1.0515725567 -1.2355142730 -4.1822195684
C   1.0515725567  1.2355142730  4.1822195684
C  -0.8215499545 -2.0005533310 -5.3061556478
C   0.8215499545  2.0005533310  5.3061556478
C  -0.5736731921 -3.3850409810 -5.1742485037
C   0.5736731921  3.3850409810  5.1742485037
C  -0.5588798817 -3.9359543020 -3.9099021750
C   0.5588798817  3.9359543020  3.9099021750
C  -1.1701595436  0.8126503980 -5.4334841969
C   1.1701595436 -0.8126503980  5.4334841969
C  -2.4093237047  1.6264284330  3.5368556896
C   2.4093237047 -1.6264284330 -3.5368556896
C  -0.3448386744 -4.2347781070 -6.4034922701
C   0.3448386744  4.2347781070  6.4034922701
C  -3.8593000450 -0.7185553550  0.2472441346
C   3.8593000450  0.7185553550 -0.2472441346
C  -5.2179095723 -0.9295487670  0.8849770216
C   5.2179095723  0.9295487670 -0.8849770216
C  -3.0584660526  2.8268606660  3.2712971747
C   3.0584660526 -2.8268606660 -3.2712971747
C  -3.1222378605  3.3069834420  1.9722843403
C   3.1222378605 -3.3069834420 -1.9722843403
C  -2.4788339437  2.6263918660  0.9314170575
C   2.4788339437 -2.6263918660 -0.9314170575
C  -2.8357340989  4.2595861210 -0.7245081653
C   2.8357340989 -4.2595861210  0.7245081653
C  -2.9313521840  4.8707653750 -2.0331142465
C   2.9313521840 -4.8707653750  2.0331142465
C  -2.6442391691  4.1816538750 -3.2333602440
C   2.6442391691 -4.1816538750  3.2333602440
H  -3.0751939075  6.7512378948 -5.2708568600
H   3.0751939075 -6.7512378948  5.2708568600
H  -3.5577364079  6.6751975731 -1.2585031693
H   3.5577364079 -6.6751975731  1.2585031693
H  -3.5006325585  5.2256828561 -6.9080970542
H   3.5006325585 -5.2256828561  6.9080970542
H  -2.4697551452  4.1957994547 -7.5696822413
H   2.4697551452 -4.1957994547  7.5696822413
H  -1.9368762010  5.5648635364 -6.9350453567
H   1.9368762010 -5.5648635364  6.9350453567
H  -4.8896046255  8.3366078117 -3.6406153754
H   4.8896046255 -8.3366078117  3.6406153754
H  -3.4105022927  8.8862932613 -3.9074384548
H   3.4105022927 -8.8862932613  3.9074384548
H  -3.9510467674  8.7388860468 -2.4083846208
H   3.9510467674 -8.7388860468  2.4083846208
H  -0.4751875842 -3.3429550623  4.1008295901
H   0.4751875842  3.3429550623 -4.1008295901
H  -1.1221816891 -5.5711031278  4.2676212682
H   1.1221816891  5.5711031278 -4.2676212682
H  -1.5667638078 -6.8402460420  2.3499530264
H   1.5667638078  6.8402460420 -2.3499530264
H  -1.3782008241  0.0819416220  2.7006516071
H   1.3782008241 -0.0819416220 -2.7006516071
H  -1.3344258101 -5.8606928387  0.2344240684
H   1.3344258101  5.8606928387 -0.2344240684
H  -0.6892606798 -4.7964916846 -1.4823310605
H   0.6892606798  4.7964916846  1.4823310605
H  -0.8296610728 -1.5978115118 -6.1664954673
H   0.8296610728  1.5978115118  6.1664954673
H  -0.3868289164 -4.8655531862 -3.8166950607
H   0.3868289164  4.8655531862  3.8166950607
H  -0.2800419373  0.6687388582 -5.8172576764
H   0.2800419373 -0.6687388582  5.8172576764
H  -1.3166241246  1.7722444264 -5.2987208815
H   1.3166241246 -1.7722444264  5.2987208815
H  -1.8504147320  0.4611534158 -6.0451626975
H   1.8504147320 -0.4611534158  6.0451626975
H  -2.3871943277  1.2893652044  4.4247978966
H   2.3871943277 -1.2893652044 -4.4247978966
H  -0.1305627335 -5.1516096345 -6.1315891305
H   0.1305627335  5.1516096345  6.1315891305
H  -0.4003264752  3.8652514621  6.9218546423
H   0.4003264752 -3.8652514621 -6.9218546423
H  -1.1556225813 -4.2382361938 -6.9538175966
H   1.1556225813  4.2382361938  6.9538175966
H  -5.6341983472 -0.0602032865  1.0620378344
H   5.6341983472  0.0602032865 -1.0620378344
H  -5.1106812353 -1.4180160568  1.7278745741
H   5.1106812353  1.4180160568 -1.7278745741
H  -5.7870523001 -1.4468083882  0.2777681019
H   5.7870523001  1.4468083882 -0.2777681019
H  -3.4579546524  3.3178839330  3.9796058345
H   3.4579546524 -3.3178839330 -3.9796058345
H  -3.6059612013  4.1033206914  1.7870692677
H   3.6059612013 -4.1033206914 -1.7870692677
H  -3.0276787833  4.8238055586  0.0153928006
H   3.0276787833 -4.8238055586 -0.0153928006
H  -4.5896397228  0.1127637000 -3.0131516232
H   4.5896397228 -0.1127637000  3.0131516232
H  -4.1859533305  0.9522268000 -3.8787241227
H   4.1859533305 -0.9522268000  3.8787241227
N  -2.5193600926  3.0332182370 -0.4404172416
N   2.5193600926 -3.0332182370  0.4404172416
N  -0.7914323190 -3.2705231790 -0.3161410893
N   0.7914323190  3.2705231790  0.3161410893
O  -1.1149063923  0.7854618170  0.2154119974
O   1.1149063923 -0.7854618170 -0.2154119974
O  -2.3425012518  2.9116840270 -3.2876493000
O   2.3425012518 -2.9116840270  3.2876493000
O  -2.4353730565  4.1951855190 -5.5795631830
O   2.4353730565 -4.1951855190  5.5795631830
O  -0.2172420545 -1.9250016520  1.9256262761
O   0.2172420545  1.9250016520 -1.9256262761
O  -1.3088896898 -0.9646308070 -1.8724273618
O   1.3088896898  0.9646308070  1.8724273618
O  -1.2630226143  0.1356923190 -4.1780770300
O   1.2630226143 -0.1356923190  4.1780770300
O  -2.9351567528 -1.5208064340  0.5679638190
O   2.9351567528  1.5208064340 -0.5679638190
O  -3.7459444625  0.2449478150 -0.5653474789
O   3.7459444625 -0.2449478150  0.5653474789
O  -3.9979664653  0.5729648890 -3.2340143290
O   3.9979664653 -0.5729648890  3.2340143290
