164
SOURCE-DERIVED publisher CIF complex-5; exact fractional coordinates symmetry-expanded, periodic molecule unwrapped and rigidly recentered; lattice components excluded
Dy -1.2684154694  1.0448302370 -2.4825528044
Dy  1.2684154694 -1.0448302370  2.4825528044
Ni -0.4799339938  1.2582451202  0.8541556215
Ni  0.4799339938 -1.2582451202 -0.8541556215
C  -1.6420295599 -1.5506089997  1.3113494133
C   1.6420295599  1.5506089997 -1.3113494133
C  -3.5449834475  4.3620053748 -4.4996121371
C   3.5449834475 -4.3620053748  4.4996121371
C  -3.5744959125  5.6938211224 -4.8434560158
C   3.5744959125 -5.6938211224  4.8434560158
C  -2.4728693150  6.5521110392 -4.5861659411
C   2.4728693150 -6.5521110392  4.5861659411
C  -1.3854298426  6.0211063496 -3.9648756223
C   1.3854298426 -6.0211063496  3.9648756223
C  -5.6823281488  3.9393679803 -5.4362902895
C   5.6823281488 -3.9393679803  5.4362902895
C  -2.5487282374  7.9860218571 -5.0284203092
C   2.5487282374 -7.9860218571  5.0284203092
C  -2.4489343114  2.9574074591 -0.1482085684
C   2.4489343114 -2.9574074591  0.1482085684
C  -3.7198034303  3.3992813688 -0.5027234641
C   3.7198034303 -3.3992813688  0.5027234641
C  -4.1317258559  4.6804424686 -0.1588795853
C   4.1317258559 -4.6804424686  0.1588795853
C  -3.2718375375  5.5374833344  0.5122088124
C   3.2718375375 -5.5374833344 -0.5122088124
C  -2.9061857118 -1.1572153328  0.8619810339
C   2.9061857118  1.1572153328 -0.8619810339
C  -1.9961688158  5.1251917170  0.8370819944
C   1.9961688158 -5.1251917170 -0.8370819944
C  -1.5708279382  3.8288563516  0.5169514866
C   1.5708279382 -3.8288563516 -0.5169514866
C  -0.6868527246 -3.9666460251 -1.2888217109
C   0.6868527246  3.9666460251  1.2888217109
C  -1.9201430014 -3.4173434749 -1.7998448548
C   1.9201430014  3.4173434749  1.7998448548
C  -2.1248462055 -2.0566057306 -2.0547635925
C   2.1248462055  2.0566057306  2.0547635925
C  -3.3165899809 -1.6540214964 -2.7080669621
C   3.3165899809  1.6540214964  2.7080669621
C  -4.3192545395 -2.5775027002 -2.9914417449
C   4.3192545395  2.5775027002  2.9914417449
C  -4.1408838540 -3.9358357842 -2.6890962653
C   4.1408838540  3.9358357842  2.6890962653
C  -2.9557940668 -4.3377726240 -2.1259037054
C   2.9557940668  4.3377726240  2.1259037054
C  -4.5836932865  0.2148084414 -3.5498916307
C   4.5836932865 -0.2148084414  3.5498916307
C  -4.0186557670 -1.9073608080  1.2105675868
C   4.0186557670  1.9073608080 -1.2105675868
C  -5.2284915336 -4.9285900603 -3.0258261328
C   5.2284915336  4.9285900603  3.0258261328
C  -1.3109147696  0.6615975521  3.6494877887
C   1.3109147696 -0.6615975521 -3.6494877887
C  -2.3147411677  0.8271203769  4.7912865997
C   2.3147411677 -0.8271203769 -4.7912865997
C  -3.0800039263 -0.4939809260  4.9145961287
C   3.0800039263  0.4939809260 -4.9145961287
C  -3.2809021471  1.9686184264  4.4818271089
C   3.2809021471 -1.9686184264 -4.4818271089
C  -1.5752719266  1.1210077518  6.0884079905
C   1.5752719266 -1.1210077518 -6.0884079905
C  -3.9163375657 -3.0260296357  2.0037798450
C   3.9163375657  3.0260296357 -2.0037798450
C  -2.6634211540 -3.4138176400  2.4638192413
C   2.6634211540  3.4138176400 -2.4638192413
C  -1.5107303460 -2.6986982711  2.1116756828
C   1.5107303460  2.6986982711 -2.1116756828
C  -0.0828296121  4.1993774246 -2.9961844191
C   0.0828296121 -4.1993774246  2.9961844191
C  -1.3057895942  4.6586441760 -3.5854616871
C   1.3057895942 -4.6586441760  3.5854616871
C  -2.3960927950  3.7850439472 -3.8534227788
C   2.3960927950 -3.7850439472  3.8534227788
H  -4.3496418659  6.0483722190 -5.2633605319
H   4.3496418659 -6.0483722190  5.2633605319
H  -0.6475992031  6.5892344241 -3.7769234441
H   0.6475992031 -6.5892344241  3.7769234441
H  -5.3912750991  4.2484370242 -6.3197556375
H   5.3912750991 -4.2484370242  6.3197556375
H  -6.1045831864  4.6807058261 -4.9539603244
H   6.1045831864 -4.6807058261  4.9539603244
H  -6.3275862861  3.2092397284 -5.5422772009
H   6.3275862861 -3.2092397284  5.5422772009
H  -1.8284017931  8.4978411449 -4.6050417843
H   1.8284017931 -8.4978411449  4.6050417843
H  -3.4149227493  8.3637960402 -4.7663875602
H   3.4149227493 -8.3637960402  4.7663875602
H  -2.4541450529  8.0333188762 -6.0028027214
H   2.4541450529 -8.0333188762  6.0028027214
H  -4.3064429006  2.8257019063 -0.9814252834
H   4.3064429006 -2.8257019063  0.9814252834
H  -5.0072205629  4.9720022927 -0.3836586285
H   5.0072205629 -4.9720022927  0.3836586285
H  -3.5620256549  6.4104581444  0.7482279935
H   3.5620256549 -6.4104581444 -0.7482279935
H  -3.0027565480 -0.3816203982  0.3215770234
H   3.0027565480  0.3816203982 -0.3215770234
H  -1.4033672322  5.7222381277  1.2792296524
H   1.4033672322 -5.7222381277 -1.2792296524
H  -0.6123317995 -4.9125840852 -1.2417625263
H   0.6123317995  4.9125840852  1.2417625263
H  -5.1289512244 -2.2857505173 -3.3930039685
H   5.1289512244  2.2857505173  3.3930039685
H  -2.8228687667 -5.2617707811 -1.9479941398
H   2.8228687667  5.2617707811  1.9479941398
H  -4.7697797520 -0.2369246609 -4.3997077053
H   4.7697797520  0.2369246609  4.3997077053
H  -5.3233287157  0.0573108430 -2.9272733631
H   5.3233287157 -0.0573108430  2.9272733631
H  -4.4870106012  1.1774213841 -3.7063643089
H   4.4870106012 -1.1774213841  3.7063643089
H  -4.8737655555 -1.6424366294  0.8941956483
H   4.8737655555  1.6424366294 -0.8941956483
H  -5.0206700659 -5.7927879775 -2.6135454655
H   5.0206700659  5.7927879775  2.6135454655
H  -6.0865721618 -4.6012187438 -2.6849701388
H   6.0865721618  4.6012187438  2.6849701388
H  -5.2826197530 -5.0354914562 -3.9988094561
H   5.2826197530  5.0354914562  3.9988094561
H  -3.4963449771 -0.7121883651  4.0548441516
H   3.4963449771  0.7121883651 -4.0548441516
H  -3.7742755255 -0.4070427937  5.6010389341
H   3.7742755255  0.4070427937 -5.6010389341
H  -2.4590258918 -1.2090932377  5.1675585132
H   2.4590258918  1.2090932377 -5.1675585132
H  -2.7963364485  2.8200888041  4.4960788448
H   2.7963364485 -2.8200888041 -4.4960788448
H  -3.9926229931  1.9859984180  5.1550378534
H   3.9926229931 -1.9859984180 -5.1550378534
H  -3.6741905446  1.8315119771  3.5943304878
H   3.6741905446 -1.8315119771 -3.5943304878
H  -0.9628099282  0.3829235848  6.2892839558
H   0.9628099282 -0.3829235848 -6.2892839558
H  -2.2219322108  1.2170379175  6.8183529750
H   2.2219322108 -1.2170379175 -6.8183529750
H  -1.0650531367  1.9521332267  5.9923214114
H   1.0650531367 -1.9521332267 -5.9923214114
H  -4.6904582538 -3.5267037741  2.2326731580
H   4.6904582538  3.5267037741 -2.2326731580
H  -2.5872597423 -4.1759316425  3.0263833970
H   2.5872597423  4.1759316425 -3.0263833970
H  -0.6034726240 -4.8490126155  2.8956160129
H   0.6034726240  4.8490126155 -2.8956160129
N  -0.1993265334 -2.9947518496  2.5823860961
N   0.1993265334  2.9947518496 -2.5823860961
N  -0.3296028475  3.2602090087  0.8856944049
N   0.3296028475 -3.2602090087 -0.8856944049
O  -0.5209480599 -0.8555076203  0.9639485290
O   0.5209480599  0.8555076203 -0.9639485290
O  -2.4085792499  2.5387740746 -3.5617483162
O   2.4085792499 -2.5387740746  3.5617483162
O  -4.5513733197  3.4724517402 -4.6976187845
O   4.5513733197 -3.4724517402  4.6976187845
O  -2.0545660846  1.6898623447 -0.4232836714
O   2.0545660846 -1.6898623447  0.4232836714
O  -1.2689893039 -1.0905091375 -1.7844311637
O   1.2689893039  1.0905091375  1.7844311637
O  -3.3554709023 -0.3081343206 -2.9843277336
O   3.3554709023  0.3081343206  2.9843277336
O  -1.5338014771  1.3000066464  2.5906857759
O   1.5338014771 -1.3000066464 -2.5906857759
O  -0.3359627516 -0.1406373067  3.8368234191
O   0.3359627516  0.1406373067 -3.8368234191
