22
SOURCE-VERBATIM B3LYP/6-31++G(d,p) gas-phase optimized reactant A geometry from exact publisher coordinate ZIP DOI 10.1039/d5cp04622j
C 1.49665100 0.34270900 -0.12200600
C 1.95311500 1.62070200 -0.38882800
C 3.35876400 1.58557400 -0.21246300
C 3.69752800 0.29479100 0.15145300
N 2.55712200 -0.47087900 0.21523600
H 1.33729100 2.45909700 -0.67788700
H 4.04670900 2.40855200 -0.34221000
H 4.65875200 -0.14602000 0.37115800
N 0.17132900 -0.12762200 -0.15470300
C -1.89736800 -0.19369000 -0.08503100
N -0.17930700 -1.36655900 -0.55412800
N -1.48298100 -1.41677400 -0.49754200
N -0.87626400 0.63497200 0.14639000
C -3.33350400 0.19070300 0.10656900
O -4.24790500 -0.59211400 -0.10339700
C 2.52253100 -1.88368000 0.58762100
H 1.76501700 -2.05785800 1.35504800
H 2.29628500 -2.51313100 -0.27519700
H 3.50146600 -2.14622800 0.99135400
N -3.50869000 1.47554100 0.52913700
H -2.72624000 2.08797300 0.70476100
H -4.45080800 1.80112300 0.68552800
