73
VERBATIM from the Supporting Information of 10.1021/jacs.6c00579 (figshare 10.6084/m9.figshare.31032451, Cartessian_Coordinates.xyz, block '2-trans'); DFT-optimized geometry used for the CASSCF(6,18)/CASPT2 calculations
  V     -1.942444   -0.662321   -1.180073
  O     -3.189751   -1.115771   -2.026740
  V     -0.600522    1.881100   -0.034777
  V      1.207274    0.155156   -1.868659
  O      2.057468    0.292816   -3.185226
  O     -2.122413    1.318429   -1.126826
  O     -0.558622   -0.422842   -2.600106
  O      0.468739    1.982310   -1.648917
  O     -1.069161   -2.441974   -0.759120
  O      1.471666   -1.784250   -1.325806
  O      2.574162    0.588942   -0.477863
  O     -0.059205   -0.047318    0.100292
  C     -2.556869    2.020240   -2.262282
  H     -2.403520    3.106269   -2.132071
  H     -3.635351    1.850713   -2.420709
  H     -2.013928    1.693383   -3.164669
  C     -0.586574   -1.347557   -3.658971
  H      0.236738   -1.145047   -4.363605
  H     -1.540564   -1.261357   -4.206411
  H     -0.493946   -2.387876   -3.301337
  C      0.686786    3.066280   -2.508362
  H      1.760410    3.310135   -2.573915
  H      0.157343    3.965152   -2.145551
  H      0.321558    2.846163   -3.525547
  C     -1.929067   -3.535320   -0.530643
  H     -2.557528   -3.357977    0.357238
  H     -1.340382   -4.454181   -0.379303
  H     -2.585744   -3.670352   -1.403841
  C      2.203115   -2.721504   -2.088575
  H      1.527506   -3.469613   -2.533766
  H      2.936650   -3.243076   -1.453934
  H      2.737417   -2.203241   -2.897407
  C      3.864359    0.052278   -0.637998
  H      3.899789   -1.021503   -0.383415
  H      4.574455    0.581293    0.019619
  H      4.198414    0.175873   -1.681524
  V      1.825584    0.567390    1.373995
  O      3.092809    0.936939    2.231851
  V      0.538533   -2.207020    0.260614
  O      0.931228   -3.703008    0.405031
  V     -1.327891   -0.250077    2.068938
  O     -2.154336   -0.471604    3.389125
  O      1.960240   -1.451840    1.297600
  O      0.443449    0.313646    2.793139
  O     -0.554418   -2.109070    1.812711
  O      0.998037    2.339717    1.000506
  O     -1.631241    1.656720    1.586173
  O     -2.684675   -0.695894    0.673383
  C      2.481400   -2.098982    2.436141
  H      2.528402   -3.186301    2.266038
  H      3.497237   -1.723654    2.634580
  H      1.854092   -1.897282    3.319572
  C      0.471516    1.233762    3.855942
  H     -0.357711    1.035017    4.554754
  H      1.421448    1.137046    4.409056
  H      0.390133    2.274570    3.498269
  C     -0.819241   -3.129399    2.747321
  H     -1.903551   -3.306638    2.822776
  H     -0.327370   -4.064678    2.438744
  H     -0.446336   -2.844907    3.743900
  C      1.802609    3.451829    0.706240
  H      2.552488    3.209123   -0.064811
  H      1.185902    4.294351    0.345697
  H      2.330365    3.787855    1.614775
  C     -2.371643    2.635882    2.261193
  H     -1.752576    3.161468    3.009144
  H     -2.762371    3.386000    1.550245
  H     -3.232069    2.185894    2.782136
  C     -3.981269   -0.176134    0.833540
  H     -4.685784   -0.722045    0.183382
  H     -4.310606   -0.295665    1.879141
  H     -4.029954    0.894136    0.567357

