73
VERBATIM from the Supporting Information of 10.1021/jacs.6c00579 (figshare 10.6084/m9.figshare.31032451, Cartessian_Coordinates.xyz, block '2-cis'); DFT-optimized geometry used for the CASSCF(6,18)/CASPT2 calculations
  V     -2.075034   -0.677668   -1.232992
  O     -3.301058   -0.984620   -2.171038
  V     -0.627198    1.810997   -0.038410
  V      1.091734   -0.018223   -1.836677
  O      1.962201    0.098650   -3.122533
  O     -2.114573    1.332444   -1.188240
  O     -0.576235   -0.515722   -2.614697
  O      0.489652    1.799287   -1.707151
  O     -1.390206   -2.477863   -0.826611
  O      1.322053   -1.870807   -1.469537
  O      2.454575    0.354589   -0.579744
  O     -0.128705   -0.108378    0.024417
  C     -2.508769    2.075172   -2.311119
  H     -2.298525    3.149694   -2.162831
  H     -3.593345    1.965050   -2.478050
  H     -1.981981    1.739423   -3.220583
  C     -0.608515   -1.392049   -3.719367
  H      0.098277   -1.048520   -4.492045
  H     -1.625047   -1.412043   -4.139605
  H     -0.327375   -2.411735   -3.407328
  C      0.852111    2.867465   -2.545641
  H      1.947610    2.985735   -2.577491
  H      0.414474    3.808182   -2.172421
  H      0.487541    2.700314   -3.572339
  C     -2.329147   -3.466538   -0.475272
  H     -2.741007   -3.292754    0.532243
  H     -1.845192   -4.457357   -0.491268
  H     -3.158659   -3.468516   -1.201668
  C      2.557824   -2.505912   -1.704657
  H      2.405013   -3.595580   -1.726171
  H      3.277385   -2.266734   -0.904300
  H      2.973583   -2.180229   -2.671753
  C      3.803507    0.665088   -0.837712
  H      4.465207    0.004937   -0.255704
  H      4.020908    1.707286   -0.552072
  H      4.025190    0.541362   -1.908936
  V      1.718832    0.309319    1.339814
  O      3.032674    0.655311    2.134584
  V      0.302714   -2.435933    0.216909
  O      0.664431   -3.967117    0.213486
  V     -1.475962   -0.332485    2.028918
  O     -2.363380   -0.460744    3.320314
  O      1.836004   -1.663128    1.223904
  O      0.338029    0.132079    2.756174
  O     -0.823428   -2.197236    1.819691
  O      0.988862    2.157771    0.972178
  O     -1.663897    1.619066    1.552669
  O     -2.839615   -0.641115    0.587441
  C      2.589514   -2.371075    2.172490
  H      2.502001   -3.455452    1.996151
  H      3.655233   -2.094224    2.094047
  H      2.262055   -2.160481    3.204811
  C      0.415087    1.045205    3.823632
  H     -0.425224    0.889508    4.519859
  H      1.356203    0.893055    4.379378
  H      0.392136    2.091130    3.472257
  C     -0.579985   -2.914120    3.004754
  H     -1.536605   -3.132392    3.509827
  H     -0.083470   -3.871386    2.778824
  H      0.054666   -2.344846    3.704067
  C      1.775470    3.313011    0.870023
  H      2.469383    3.264557    0.013166
  H      1.137876    4.206716    0.744907
  H      2.373346    3.452097    1.786000
  C     -2.324577    2.636461    2.254888
  H     -1.664797    3.094787    3.011927
  H     -2.659704    3.431162    1.564102
  H     -3.213978    2.238240    2.768910
  C     -4.091774   -0.016124    0.733901
  H     -4.827168   -0.491561    0.063135
  H     -4.447608   -0.125820    1.771409
  H     -4.046771    1.058563    0.486896

