73
VERBATIM from the Supporting Information of 10.1021/jacs.6c00579 (figshare 10.6084/m9.figshare.31032451, Cartessian_Coordinates.xyz, block '2-all-IV'); DFT-optimized geometry used for the CASSCF(6,18)/CASPT2 calculations
  V     -2.052038   -0.662144   -1.233857
  O     -3.330129   -0.909758   -2.111585
  V     -0.604733    1.724947   -0.048949
  V      1.179180    0.059169   -1.977222
  O      1.978697    0.280082   -3.311200
  O     -2.111114    1.483134   -1.107065
  O     -0.637710   -0.468224   -2.624699
  O      0.416148    1.895886   -1.653700
  O     -1.305825   -2.428721   -0.846396
  O      1.400627   -1.835815   -1.488911
  O      2.484867    0.544088   -0.537192
  O     -0.152998   -0.000844    0.046667
  C     -2.499049    2.139014   -2.296381
  H     -2.369652    3.227652   -2.191504
  H     -3.562878    1.931533   -2.486492
  H     -1.902154    1.775725   -3.146739
  C     -0.660034   -1.425804   -3.661362
  H      0.002488   -1.101628   -4.480840
  H     -1.683702   -1.523847   -4.058181
  H     -0.322862   -2.412790   -3.305193
  C      0.681792    3.033616   -2.433970
  H      1.762904    3.243650   -2.462468
  H      0.169757    3.920658   -2.023433
  H      0.331417    2.883597   -3.467768
  C     -2.227012   -3.432860   -0.474921
  H     -2.682395   -3.221878    0.505309
  H     -1.711102   -4.405215   -0.426500
  H     -3.027397   -3.498858   -1.230171
  C      2.583776   -2.539023   -1.788043
  H      2.334795   -3.563791   -2.112261
  H      3.250134   -2.608524   -0.912451
  H      3.131226   -2.043639   -2.605413
  C      3.863381    0.302141   -0.689531
  H      4.165449   -0.661143   -0.246087
  H      4.442467    1.099893   -0.193439
  H      4.134832    0.293795   -1.757292
  V      1.763732    0.430766    1.319727
  O      3.005071    0.908172    2.153061
  V      0.432657   -2.415113    0.160323
  O      0.794643   -3.940191    0.176128
  V     -1.426142   -0.380322    2.075533
  O     -2.290711   -0.539800    3.375538
  O      1.917632   -1.526510    1.193678
  O      0.380517    0.167045    2.744040
  O     -0.704527   -2.192038    1.783126
  O      0.851342    2.346179    0.924733
  O     -1.615803    1.558595    1.545158
  O     -2.774816   -0.672871    0.622168
  C      2.455144   -2.173084    2.326437
  H      2.369044   -3.265658    2.218038
  H      3.524757   -1.921633    2.426012
  H      1.941225   -1.868737    3.252584
  C      0.435683    1.063545    3.830472
  H     -0.367033    0.838659    4.551193
  H      1.403394    0.964050    4.349796
  H      0.330541    2.113157    3.505926
  C     -0.684125   -3.092847    2.864038
  H     -1.713385   -3.322362    3.188554
  H     -0.200946   -4.036096    2.564667
  H     -0.137833   -2.683613    3.730459
  C      1.761283    3.391146    0.654485
  H      2.479331    3.086482   -0.121851
  H      1.220753    4.291905    0.323472
  H      2.309980    3.634316    1.577021
  C     -2.238829    2.625195    2.215825
  H     -1.491424    3.363916    2.553702
  H     -2.957434    3.134816    1.550836
  H     -2.784703    2.252054    3.095344
  C     -4.046628   -0.092141    0.801088
  H     -4.781169   -0.593877    0.149640
  H     -4.372870   -0.210528    1.846951
  H     -4.047220    0.983586    0.554096

