25
3,4-diethyl-germacyclopent-3-ene (4) | VERBATIM reactant coordinates from ACS SI for DOI 10.1021/acs.jpca.5b04304 | CASSCF(6,6)/6-311G(d) computational geometry
Ge     0.00080900     2.76423100    -0.12226600
C     -0.00404800     1.34834800    -1.52419900
C     -0.00744200     0.05066000    -0.72613500
C      0.00524600     0.08565600     0.62824800
C      0.00431500     1.43711700     1.33202900
H      1.25203300     3.66402900    -0.14419600
H     -1.24804500     3.66691100    -0.13705700
H      0.86357000     1.41617400    -2.17356500
H     -0.87888000     1.40680000    -2.16517700
H      0.87791200     1.52960400     1.97040700
H     -0.86128400     1.53900500     1.97893000
C     -0.00338900    -1.12866900     1.53318100
H      0.66106600    -0.94040900     2.37258500
H      0.40471600    -1.99213300     1.02166300
C     -1.39689000    -1.47409000     2.06844200
H     -2.08467400    -1.69113300     1.25818900
H     -1.81814700    -0.65802200     2.64553000
H     -1.35699800    -2.34536000     2.71517700
C      0.00368000    -1.22558300    -1.55083700
H     -0.66061700    -1.09383400    -2.40082500
H     -0.40333900    -2.05404600    -0.98297700
C      1.39787700    -1.60411400    -2.06215800
H      1.81401500    -0.83142400    -2.70018500
H      1.36146000    -2.52185600    -2.64139500
H      2.08805900    -1.75643800    -1.23904700
