19
3,4-dimethyl-1-germacyclopent-3-ene (3) | VERBATIM reactant coordinates from ACS SI for DOI 10.1021/acs.jpca.5b04304 | CASSCF(6,6)/6-311G(d) computational geometry
Ge    -0.00880800     2.58496900     0.00000500
C      0.07936100     1.14929600    -1.38319800
C      0.07895600    -0.14203600    -0.57696800
C      0.03296600    -0.09492600     0.77269000
C     -0.02884000     1.24910200     1.48310900
H      1.21942600     3.51489700     0.01354100
H     -1.28304200     3.44732800    -0.07903200
H      0.97388700     1.22179200    -1.99514900
H     -0.76832600     1.18056200    -2.06149800
H      0.81664400     1.37048900     2.15404700
H     -0.92543300     1.32341300     2.09199300
C      0.02972000    -1.28720900     1.69760200
H     -0.89049400    -1.31561400     2.27602600
H      0.84458400    -1.21122000     2.41273600
H      0.12867200    -2.23648800     1.19186700
C      0.13958900    -1.39550200    -1.41635100
H     -0.67664800    -1.40729800    -2.13376700
H      0.08355500    -2.31003000    -0.84442600
H      1.06160700    -1.42121300    -1.99179100
