19
3,4-dimethyl-1-silacyclopent-3-ene (2) | VERBATIM reactant coordinates from ACS SI for DOI 10.1021/acs.jpca.5b04304 | CASSCF(6,6)/6-311G(d) computational geometry
Si     0.00000000     2.65422100     0.00000000
C      0.07863900     1.35972200    -1.41351200
C      0.08030800     0.01996700    -0.68808700
C      0.02912400     0.01220800     0.66180400
C     -0.02411100     1.34338700     1.40008400
H      1.18071400     3.54493300     0.04838700
H     -1.21651800     3.49589300    -0.04021600
H      0.96997900     1.46602200    -2.02762600
H     -0.76890600     1.42931900    -2.09155700
H      0.82004200     1.44135300     2.07872500
H     -0.91885000     1.40725300     2.01492200
C      0.02170300    -1.20923800     1.54424800
H     -0.87243900    -1.22250500     2.16198800
H      0.86964000    -1.18713100     2.22373800
H      0.05984300    -2.14352700     1.00285900
C      0.13974100    -1.19117400    -1.58503000
H     -0.70665700    -1.19742400    -2.26682900
H      0.13965200    -2.13209000    -1.05387200
H      1.03510100    -1.16037300    -2.20032200
