25
3,4-dimethyl-1,1-dimethyl-germacyclopent-3-ene (6) | VERBATIM reactant coordinates from ACS SI for DOI 10.1021/acs.jpca.5b04304 | CASSCF(6,6)/6-311G(d) computational geometry
Ge     0.05712600    -2.53386400     0.31639100
C     -0.00627900    -1.08689400     1.65390800
C      0.00642000     0.19558200     0.84260300
C     -0.00046600     0.11968400    -0.52262900
C      0.00735400    -1.27300200    -1.19681900
H     -0.87738400    -1.38985700    -1.81686700
H      0.86426600    -1.36041900    -1.85899100
H     -0.91280100    -1.13818800     2.25298700
H      0.82454700    -1.11053400     2.35320000
C      0.00845100     1.46289800     1.65025100
H     -0.86628500     1.50294900     2.29384700
H      0.01513100     2.36305100     1.05589500
H      0.87633800     1.49678400     2.30229400
C     -0.00743100     1.28641300    -1.47271200
H      0.88529800     1.27716600    -2.09204700
H     -0.05557400     2.24934600    -0.98587400
H     -0.85585300     1.21659400    -2.14803000
C      1.70119700    -3.60382500     0.39293500
H      1.73775900    -4.31646900    -0.42393200
H      1.75802300    -4.16213600     1.32301300
H      2.58150700    -2.97423900     0.32790600
C     -1.50001900    -3.72680400     0.40257800
H     -1.45258600    -4.48736200    -0.37020100
H     -2.42606400    -3.17704900     0.27459700
H     -1.54158300    -4.23552400     1.36070900
