31
3,4-dimethyl-1,1-diethyl-germacyclopent-3-ene (8) | VERBATIM reactant coordinates from ACS SI for DOI 10.1021/acs.jpca.5b04304 | CASSCF(6,6)/6-311G(d) computational geometry
Ge    -0.01494700    -2.69510000    -0.12800000
C      0.00016800    -1.37107200     1.37317600
C      0.00048000    -0.01540200     0.67363300
C      0.00263300     0.04680500    -0.67530400
C     -0.00015200    -1.23955200    -1.50152600
H     -0.87276600    -1.26619000    -2.14714100
H      0.87732900    -1.26938500    -2.14073300
H     -0.86746900    -1.45093400     2.02092700
H      0.88083900    -1.46741300     1.99918800
C     -0.00014400     1.17254300     1.60697400
H     -0.87094300     1.13870900     2.25532600
H      0.00068900     2.13293300     1.11240900
H      0.87170100     1.13810800     2.25421300
C      0.00016100     1.31397700    -1.49209100
H     -0.88270600     1.35223800    -2.12323600
H      0.85940600     1.33345300    -2.15561400
H      0.02129000     2.22352500    -0.90679600
C      1.61592600    -3.82348400    -0.18790700
H      2.47364600    -3.15833500    -0.13769400
H      1.65841700    -4.43711300     0.70743900
C      1.71901000    -4.71540000    -1.43480900
H      1.70198200    -4.12967200    -2.34880000
H      0.89843000    -5.42368400    -1.49272000
H      2.63739700    -5.29584100    -1.44781400
C     -1.66126600    -3.79857500    -0.17345500
H     -1.71036700    -4.32317400    -1.12320000
H     -2.51075400    -3.12120400    -0.16034800
C     -1.77617900    -4.80529400     0.98164900
H     -0.96462300    -5.52584500     0.96887700
H     -2.70261400    -5.37066000     0.94003400
H     -1.74994100    -4.31294700     1.94884100
