19
1,2-dimethylcyclopentene (1) | VERBATIM reactant coordinates from ACS SI for DOI 10.1021/acs.jpca.5b04304 | CASSCF(6,6)/6-311G(d) computational geometry
C      2.41540800     0.01895100     0.49751400
C      1.33419100     1.09187900     0.28557100
C      0.06496400     0.29534000     0.07092100
C      0.34245500    -1.00891000    -0.19429900
C      1.86872400    -1.23864100    -0.19304300
H      3.38721900     0.32126600     0.12438400
H      2.52642600    -0.17362500     1.56048100
H      1.54248300     1.70921500    -0.58795200
H      1.25820700     1.77190700     1.12995000
H      2.22812300    -1.32790700    -1.21761400
H      2.14401200    -2.15670800     0.31728500
C     -0.59820300    -2.13181400    -0.52039900
H     -0.47023200    -2.95641200     0.17588600
H     -0.39869000    -2.52466300    -1.51440800
H     -1.63752100    -1.83154600    -0.48786500
C     -1.26994500     0.98008800     0.12204800
H     -1.44019800     1.41811500     1.10220500
H     -2.09404200     0.31054700    -0.08772700
H     -1.31362700     1.79325800    -0.59833400
