31
3,4-dipropyl-germacyclopent-3-ene (5) | VERBATIM reactant coordinates from ACS SI for DOI 10.1021/acs.jpca.5b04304 | CASSCF(6,6)/6-311G(d) computational geometry
Ge    -0.01952100     2.62707600    -0.60899500
C      0.00238300     1.02283000    -1.78881800
C     -0.00692200    -0.15017100    -0.81754300
C      0.00285800     0.09323300     0.51066700
C     -0.00355700     1.52669100     1.01801600
H     -1.28618300     3.49189300    -0.75245300
H      1.20950800     3.54432200    -0.75639900
H     -0.87336200     1.71386800     1.63954600
H      0.86506300     1.71995600     1.64115700
H     -0.85937500     0.98736500    -2.44956500
H      0.88164200     0.99808300    -2.42534700
C     -0.00356200    -1.52865900    -1.43741100
H     -0.66672500    -1.52100800    -2.29868100
H     -0.41909000    -2.25840900    -0.75199700
C      1.38467600    -1.99965600    -1.88575500
H      2.05895000    -1.98720200    -1.03394400
H      1.79522400    -1.29862600    -2.60717900
C      0.00229500    -0.98515700     1.57566600
H      0.65598600    -0.66861200     2.38496100
H      0.43117100    -1.90434600     1.19155300
C     -1.38735200    -1.28076500     2.15038000
H     -1.82172100    -0.36647200     2.54522500
H     -2.04455000    -1.60554800     1.34817800
C      1.35987300    -3.39642000    -2.49875500
H      0.98750800    -4.13069500    -1.79017600
H      2.35178000    -3.71089400    -2.80572900
H      0.71813900    -3.43365800    -3.37440100
C     -1.35750700    -2.33872100     3.24852900
H     -0.73389200    -2.02634400     4.08117000
H     -0.96216000    -3.28087000     2.87997200
H     -2.35165000    -2.53132100     3.63845700
