37
3,4-diethyl-1,1-diethyl-germacyclopent-3-ene (9) | VERBATIM reactant coordinates from ACS SI for DOI 10.1021/acs.jpca.5b04304 | CASSCF(6,6)/6-311G(d) computational geometry
Ge     0.19525200     2.51016300     0.03855800
C     -0.04036400     1.16102000    -1.38104800
C     -0.02893700    -0.15867300    -0.63561800
C      0.01142500    -0.16668100     0.69513700
C      0.03981700     1.14526200     1.45806100
H      0.75758100     1.18709900    -2.11932000
H     -0.96886900     1.29574500    -1.92953600
H      0.87090900     1.16666300     2.15863600
H     -0.86278200     1.27896200     2.05182300
C     -0.05013500    -1.44205200     1.51832000
H     -0.70195600    -1.26857500     2.37007500
H     -0.50673800    -2.24280700     0.95232900
C      0.04890800    -1.40674700    -1.49818100
H      0.79917700    -1.22840700    -2.26352900
H      0.40929700    -2.25333900    -0.92822000
C     -1.25358700     3.84533100     0.14023200
H     -1.10862200     4.42535600     1.04910100
H     -2.19053100     3.30986300     0.27574000
C      1.97573300     3.41886200    -0.05492800
H      2.02165100     3.97338100    -0.98821100
H      2.73980700     2.64958300    -0.12007400
C      2.28130100     4.36024600     1.14322500
H      1.56671800     5.17484500     1.20471800
H      2.24424600     3.82147500     2.08385300
H      3.27017000     4.80010100     1.05604500
C     -1.36355800     4.78652100    -1.06200100
H     -1.52010600     4.23783600    -1.98430500
H     -0.46554300     5.38559600    -1.18758000
H     -2.19695800     5.47243800    -0.95053400
C      1.31921600    -1.90595000     2.02548100
H      1.97766100    -2.14515900     1.19865000
H      1.22928500    -2.79168400     2.64743600
H      1.81151400    -1.13948800     2.61478300
C     -1.27297500    -1.77204900    -2.17885800
H     -1.15669300    -2.63545800    -2.82764500
H     -1.64349900    -0.95491600    -2.78572300
H     -2.03565300    -2.00588400    -1.44324800
