131
N,N-bis(trimethylsilyl)-substituted 1,3-diphospha-2,4-diazacyclopentane-1,3-diyl 3N(SiMe3)2 | VERBATIM coordinates from ACS SI for DOI 10.1021/jacs.5b05596 | PBE1PBE/6-31G(d,p) computational geometry
C     -0.27154200     1.01430800    -0.08523000
P      0.37348500     0.19901700    -1.55245400
P      0.11976100    -1.41662200     0.93564300
N      0.53693600    -1.31814000    -0.66906900
N     -0.38191700     0.20354100     1.05805300
C      1.00534600    -2.48678100    -1.37009900
C      0.16105100    -3.60593500    -1.53067800
C      0.63167500    -4.70501900    -2.25865300
H     -0.03202400    -5.55623700    -2.38148000
C      1.89637500    -4.71564700    -2.82456700
H      2.23975600    -5.57725400    -3.38937600
C      2.71790500    -3.61163500    -2.65535600
H      3.72044400    -3.60318800    -3.07352700
C      2.30028400    -2.48949100    -1.93344900
C     -1.23508600    -3.73861100    -1.01119500
C     -2.31145400    -3.24786400    -1.77062500
C     -3.61481300    -3.54333100    -1.36580300
H     -4.44379200    -3.15935900    -1.95661700
C     -3.88067200    -4.32766900    -0.24618600
C     -2.79749400    -4.80748400     0.49032800
H     -2.98111800    -5.42032800     1.37080900
C     -1.48007300    -4.53425900     0.12589200
C     -2.07771300    -2.47150400    -3.03603100
H     -1.57256600    -3.09023000    -3.78678000
H     -1.44377500    -1.59590800    -2.86270900
H     -3.02329500    -2.12692500    -3.46158100
C     -5.29013800    -4.66403500     0.15360000
H     -5.50918800    -5.72329100    -0.02401000
H     -6.01783800    -4.07691100    -0.41297800
H     -5.45973800    -4.47645900     1.21904800
C     -0.35031800    -5.12137700     0.92807000
H     -0.72979800    -5.62433500     1.82105200
H      0.36393300    -4.35637200     1.25036300
H      0.21819700    -5.85343400     0.34426400
C      3.30708200    -1.39838700    -1.77257800
C      3.58539200    -0.52786200    -2.84313300
C      4.60242800     0.41375400    -2.69677000
H      4.81164100     1.09049200    -3.52314300
C      5.35805900     0.51040800    -1.52857100
C      5.09385300    -0.39196900    -0.50185900
H      5.69237700    -0.35836200     0.40567800
C      4.08804800    -1.35344000    -0.60610100
C      2.82225500    -0.60530800    -4.13604800
H      2.96958500    -1.56773400    -4.63791700
H      3.14198700     0.18336200    -4.82189700
H      1.74645400    -0.49211400    -3.96708600
C      6.41095000     1.57141000    -1.37799900
H      5.96293200     2.51390200    -1.04070000
H      6.91699300     1.77355000    -2.32680400
H      7.16802900     1.28458200    -0.64254400
C      3.88578400    -2.34727300     0.50385500
H      3.80662900    -3.36792600     0.11600200
H      2.97304000    -2.13974600     1.07259000
H      4.71783900    -2.31269000     1.21078100
C     -0.80826500     0.67329400     2.35749000
C      0.11626600     0.66597200     3.42661800
C     -0.31341100     1.04213600     4.70345300
H      0.41462500     1.03855400     5.50966000
C     -1.62229300     1.42766500     4.94067000
H     -1.94225100     1.71440800     5.93805600
C     -2.51721600     1.44199800     3.88333700
H     -3.55220300     1.72803100     4.04727500
C     -2.14286000     1.06703000     2.58759700
C      1.57163400     0.34836600     3.31383300
C      2.45179900     1.36161900     2.89444500
C      3.82586900     1.11861100     2.92300900
H      4.50225700     1.90353600     2.59123800
C      4.35137100    -0.08289700     3.39218300
C      3.46120200    -1.06081500     3.83624000
H      3.85132300    -2.00115400     4.22151800
C      2.08059400    -0.86556200     3.81578000
C      1.93134500     2.71898200     2.51696300
H      1.14598500     2.67047100     1.75618700
H      2.73489400     3.35610100     2.14061300
H      1.49037800     3.21280000     3.39146200
C      5.83651900    -0.30642900     3.46453400
H      6.11470600    -1.29650200     3.08801600
H      6.19462500    -0.24570000     4.49895400
H      6.38225800     0.44243100     2.88393300
C      1.17502700    -1.92458800     4.38465800
H      1.72036300    -2.85965000     4.53759000
H      0.32027400    -2.13246200     3.73446200
H      0.76467500    -1.61622400     5.35293900
C     -3.25194600     1.08770900     1.58797800
C     -3.78399800     2.32999400     1.18172900
C     -4.93489800     2.34430400     0.39696900
H     -5.34102400     3.30383700     0.08264000
C     -5.58115300     1.17025900     0.00710800
C     -5.05135900    -0.04082900     0.43907500
H     -5.55102200    -0.96977400     0.17034800
C     -3.90345200    -0.10432400     1.23408800
C     -3.13172000     3.62385900     1.58146600
H     -3.14483200     3.77175900     2.66629800
H     -3.64702900     4.47386800     1.12601400
H     -2.08538800     3.62223800     1.25697000
C     -6.79977100     1.21618800    -0.87077900
H     -6.51733900     1.25899900    -1.92988500
H     -7.41113600     2.09929600    -0.66260200
H     -7.42517900     0.32912700    -0.73532600
C     -3.42528900    -1.44177600     1.72157100
H     -2.93582000    -1.36910500     2.69646900
H     -2.71193500    -1.89281200     1.02251900
H     -4.26084200    -2.14072800     1.81159700
N     -0.58593300     2.27574600    -0.08981100
N     -0.31583600     2.77260000    -1.43416200
Si     0.98661900     3.97406700    -1.32002600
Si    -1.72743500     2.90644300    -2.51135400
C      2.62566000     3.13107200    -0.93989500
H      2.52877000     2.33466200    -0.19829900
H      3.03798800     2.67528800    -1.84508600
H      3.35268200     3.86136100    -0.56373700
C      1.21173900     4.89527700    -2.95114800
H      0.34215200     5.49590900    -3.23457600
H      2.05568000     5.58444300    -2.82617600
H      1.45506000     4.22539300    -3.78047300
C      0.56913100     5.25453300    -0.00053500
H      0.38371600     4.78154600     0.96698400
H      1.38625100     5.97494100     0.11839000
H     -0.33251400     5.81166800    -0.27660400
C     -1.13848500     2.91678900    -4.30469700
H     -1.99542700     2.69281100    -4.95104500
H     -0.72117300     3.87143700    -4.63187300
H     -0.38777900     2.13712000    -4.47030800
C     -2.70625400     4.48821100    -2.18635200
H     -2.09636800     5.38303300    -2.35114300
H     -3.57520200     4.55242100    -2.85151200
H     -3.06895500     4.51535400    -1.15497200
C     -2.85541100     1.41908600    -2.31406900
H     -2.97724300     1.11833800    -1.27154400
H     -3.84888700     1.66674600    -2.70633900
H     -2.47117300     0.56541000    -2.87843800
