117
tert-butyl-substituted 1,3-diphospha-2,4-diazacyclopentane-1,3-diyl 3tBu | VERBATIM coordinates from ACS SI for DOI 10.1021/jacs.5b05596 | PBE1PBE/6-31G(d,p) computational geometry
C     -0.06183100    -1.16202100    -1.13914900
P     -0.05721700     0.49125000    -1.88996200
P      0.04660200     0.42110900     1.05505900
N     -0.09775600     1.29869200    -0.34845700
N      0.18356200    -1.06679900     0.27132900
C     -0.31511500     2.72260800    -0.31478300
C      0.70275600     3.59067700     0.12561900
C      0.45707400     4.96941700     0.10856300
H      1.24995100     5.63258500     0.44279100
C     -0.75146800     5.48740700    -0.32946600
H     -0.91828500     6.56048800    -0.33644700
C     -1.74743200     4.61883400    -0.75295200
H     -2.70916700     5.00269400    -1.08093800
C     -1.55635300     3.23516800    -0.75281200
C      2.05584100     3.18016900     0.61229500
C      3.10166100     2.97478900    -0.30661300
C      4.39514200     2.77823800     0.17756900
H      5.20233800     2.63340100    -0.53790600
C      4.68525600     2.78290000     1.54128100
C      3.63535700     2.99495900     2.43241200
H      3.83859200     3.01077600     3.50129300
C      2.32659600     3.20131600     1.99391100
C      2.85515100     3.00791100    -1.78864700
H      2.34458800     3.92994000    -2.08658000
H      2.22218500     2.17160400    -2.10560900
H      3.79632100     2.94505500    -2.34042000
C      6.08406000     2.54002300     2.03339300
H      6.82752900     2.95486900     1.34638800
H      6.28871500     1.46592300     2.12272300
H      6.24553800     2.98495500     3.01923100
C      1.24158900     3.47317400     3.00050900
H      1.62204100     3.36402900     4.01915600
H      0.39569200     2.78794800     2.88201500
H      0.84042800     4.48707700     2.89652800
C     -2.70719100     2.38477600    -1.18078700
C     -3.01568200     2.26546400    -2.55204400
C     -4.11848600     1.50605700    -2.93127100
H     -4.34660600     1.40659400    -3.99068500
C     -4.93829600     0.87388600    -1.99401300
C     -4.64352000     1.04795900    -0.64703600
H     -5.28472100     0.59109000     0.10411800
C     -3.54517800     1.79970400    -0.21946700
C     -2.18711100     2.94974000    -3.60388200
H     -2.24169300     4.04040700    -3.51689100
H     -2.53110300     2.67586000    -4.60444900
H     -1.13132600     2.67267800    -3.52219500
C     -6.09673600     0.02481400    -2.43597600
H     -5.75406800    -0.96502800    -2.76049000
H     -6.62583600     0.47594200    -3.28119100
H     -6.81593000    -0.12489000    -1.62593100
C     -3.31922200     1.97529500     1.25764300
H     -2.70262500     2.84989300     1.47821700
H     -2.83370100     1.09720500     1.69590600
H     -4.27570500     2.09817000     1.77538100
C      0.44177600    -2.24398400     1.06216400
C     -0.50541300    -2.70179800     1.99894100
C     -0.20458200    -3.84101000     2.75558900
H     -0.94499900    -4.19263000     3.46874300
C      0.99903500    -4.51130400     2.60769700
H      1.21374400    -5.39251000     3.20517000
C      1.93315000    -4.03454600     1.69877800
H      2.89403200    -4.52923300     1.59048200
C      1.68148000    -2.90336100     0.91980300
C     -1.82422300    -2.05588600     2.27991800
C     -2.94733800    -2.36986300     1.49549600
C     -4.19278000    -1.85356400     1.86254400
H     -5.05855000    -2.09912700     1.25071400
C     -4.36121100    -1.05957400     2.99330600
C     -3.23619700    -0.77663000     3.76924600
H     -3.34461700    -0.16368500     4.66218400
C     -1.97332100    -1.26575300     3.43919300
C     -2.83912700    -3.30538900     0.32608500
H     -1.99703100    -3.05686600    -0.32941900
H     -3.76016500    -3.29699700    -0.26357100
H     -2.67583700    -4.33303300     0.67408700
C     -5.71409500    -0.53433600     3.38534900
H     -5.68819600     0.54684600     3.55875200
H     -6.06617700    -0.99930900     4.31335900
H     -6.46039600    -0.73409100     2.61172100
C     -0.80935300    -0.97697000     4.34903400
H     -1.08828400    -0.24712700     5.11339300
H      0.05348300    -0.58132100     3.80359400
H     -0.46665000    -1.88409000     4.85879900
C      2.76597700    -2.44453400     0.00271500
C      3.07725800    -3.20838900    -1.14072100
C      4.11370500    -2.79272300    -1.97239500
H      4.34007500    -3.38103500    -2.85991900
C      4.87392500    -1.65571800    -1.69335300
C      4.58956500    -0.95308300    -0.52823300
H      5.19070400    -0.08428000    -0.26693100
C      3.55328800    -1.33026300     0.33047600
C      2.33485300    -4.47710200    -1.44984400
H      2.67156500    -5.30258200    -0.81145100
H      2.50170900    -4.77968500    -2.48768000
H      1.26278200    -4.34251500    -1.28830100
C      5.96108100    -1.20605200    -2.62861200
H      5.54907200    -0.61052900    -3.45218300
H      6.48378000    -2.05720100    -3.07559200
H      6.70065800    -0.58591300    -2.11405500
C      3.35476100    -0.55107400     1.60028100
H      2.70202000    -1.07086300     2.30509400
H      2.92875400     0.43772200     1.40116900
H      4.31533600    -0.38215900     2.09811200
N     -0.25435500    -2.32226200    -1.64993500
C     -0.61166000    -2.50100200    -3.06321000
C     -1.94736500    -1.81597500    -3.39393300
H     -1.91574900    -0.73263500    -3.24283400
H     -2.21507400    -2.00055700    -4.44000700
H     -2.74354200    -2.21802900    -2.75952200
C      0.49659100    -2.00435000    -3.99944900
H      1.45523300    -2.45724100    -3.72889400
H      0.26551900    -2.26565600    -5.03797500
H      0.61978900    -0.91632500    -3.95667900
C     -0.80136800    -4.00519100    -3.28472400
H     -1.53761300    -4.40164300    -2.57876800
H     -1.15616300    -4.20255000    -4.30199500
H      0.13506200    -4.54826800    -3.13927600
