121
2,6-dimethylphenyl-substituted 1,3-diphospha-2,4-diazacyclopentane-1,3-diyl 3Dmp | VERBATIM coordinates from ACS SI for DOI 10.1021/jacs.5b05596 | PBE1PBE/6-31G(d,p) computational geometry
P     -0.41240900     1.00859300     0.90177300
P     -0.19799200    -0.25157400    -1.76577600
N     -0.70089300     1.05683800    -0.73610800
N      0.37725100    -0.49064300     0.85235100
N      1.00622400    -2.36395600    -0.41273400
C     -1.34815300     2.19868100    -1.33464200
C     -2.60286900     2.03257700    -1.95875600
C     -0.71003600     3.45548000    -1.33162800
C     -3.19225400     3.13589100    -2.58162000
H     -4.16192000     2.99964300    -3.05181000
C     -1.34863100     4.52956500    -1.96274700
H     -0.84760200     5.49346300    -1.96134800
C     -2.57577700     4.37862600    -2.58973100
H     -3.04994800     5.22446700    -3.07868200
C     -3.37958500     0.75753800    -1.95415400
C     -4.17064600     0.44052900    -0.83799900
C     -4.93856200    -0.72465200    -0.86459900
H     -5.55123700    -0.96573100     0.00149300
C     -3.41862900    -0.05450000    -3.10351200
C     -4.23196500     1.34770200     0.35965200
H     -5.10365600     1.11452300     0.97530200
H     -4.29276500     2.39932800     0.06345600
H     -3.34945000     1.23597300     0.99944200
C     -4.19354600    -1.21213800    -3.08202700
H     -4.20956200    -1.84704700    -3.96550400
C     -4.94962100    -1.57436500    -1.96733200
C      0.62197900     3.75386700    -0.72127100
C     -2.66735100     0.31658700    -4.35198800
H     -2.74669800    -0.47535800    -5.10068100
H     -1.60474700     0.48097700    -4.14906500
H     -3.05730700     1.23979100    -4.79504900
C      1.79640000     3.55205400    -1.47091600
C      1.74844200     2.92643300    -2.83673800
H      1.10062400     3.49820700    -3.51041500
H      1.35065200     1.90662400    -2.79771100
H      2.74627400     2.88286500    -3.27995700
C      3.01337100     3.99093700    -0.94999000
H      3.91693700     3.83799400    -1.53679100
C      0.68438100     4.41220700     0.52120500
C      1.92463600     4.83377500     1.00326800
H      1.96763800     5.34395700     1.96340600
C     -0.55957100     4.70459300     1.31579500
H     -0.30697000     5.14641200     2.28295800
H     -1.14764300     3.79994200     1.50294800
H     -1.21820800     5.40259000     0.78776900
C      3.10089100     4.63562500     0.28347300
C      4.42820700     5.08656900     0.82487900
H      4.94822000     4.26536700     1.33346000
H      4.31090800     5.89623100     1.55036900
H      5.08659900     5.43894400     0.02531700
C     -5.74704500    -2.84829400    -1.95896300
H     -6.20294500    -3.04256400    -2.93452100
H     -6.54471100    -2.81676400    -1.21138700
H     -5.10889200    -3.70863100    -1.72417300
C      2.18849000    -1.40200600     2.27807000
C      0.82704600    -1.07642700     2.08990700
C     -0.10281600    -1.29733300     3.12843000
C      2.57314700    -1.98941400     3.48707100
H      3.62427500    -2.22353000     3.62616800
C      0.33759100    -1.88792900     4.31854000
H     -0.39319400    -2.06510600     5.10254400
C      1.66289900    -2.24535200     4.50078700
H      1.98775200    -2.70386500     5.43006300
C      3.29793800    -1.10782700     1.32446300
C      4.03615800    -2.17431400     0.76549800
C      3.72628300     0.21586500     1.12834300
C      5.58616400    -0.57748700    -0.23588300
C      5.16048500    -1.88623200    -0.00344900
H      5.71805300    -2.71232500    -0.44057200
C      4.85685300     0.45587500     0.34111000
H      5.18023000     1.48505900     0.19440500
C      3.64302200    -3.60915500     0.98489000
H      4.07609000    -4.24595000     0.20924200
H      2.55659400    -3.71524800     0.95284300
H      3.99439600    -3.98267000     1.95395600
C      3.03688500     1.38560700     1.77194000
H      2.31225700     1.85055100     1.09339900
H      3.76156600     2.16165400     2.03356100
H      2.50797800     1.09905300     2.68427500
C      6.78400000    -0.30035300    -1.10012500
H      7.58918500    -1.01680300    -0.90996900
H      7.17720100     0.70583700    -0.92985500
H      6.52779000    -0.37818100    -2.16368800
C     -2.01524500     0.15487000     3.85290900
C     -1.55646600    -0.94442300     3.09612800
C     -4.32090300    -0.48400000     3.38491400
C     -3.38700900     0.36881800     3.97415700
H     -3.73539500     1.22034700     4.55564700
C     -2.48104500    -1.80827500     2.48485700
C     -3.84593500    -1.55739200     2.63608300
H     -4.55508600    -2.23463600     2.16473700
C     -1.05715300     1.08663300     4.54424400
H     -0.50552900     0.58020400     5.34318800
H     -1.59116400     1.93171400     4.98615400
H     -0.30725700     1.48607100     3.85253400
C     -5.79470900    -0.26056600     3.57813000
H     -6.12467200    -0.63475000     4.55460100
H     -6.38294700    -0.77839000     2.81526900
H     -6.04810900     0.80350800     3.53908500
C     -2.02013500    -3.02376700     1.73581600
H     -1.18468900    -2.80741700     1.06596800
H     -2.83519500    -3.44891500     1.14445100
H     -1.67010000    -3.79727800     2.43040200
C      0.49974200    -1.17854800    -0.38606900
C      2.09847700    -2.50669200    -2.63238800
C      1.23445300    -3.01458000    -1.63141000
C      2.31365000    -3.26698500    -3.78681300
H      2.97965700    -2.86814800    -4.54929300
C      0.65841700    -4.29825300    -1.80142900
C      1.72261600    -4.50689300    -3.96873700
H      1.91001900    -5.07993900    -4.87230900
C      0.90405700    -5.01728900    -2.96591500
H      0.44602800    -5.99690100    -3.08330700
C      2.83157800    -1.20140200    -2.49953600
H      3.84116600    -1.29433100    -2.91283200
H      2.92248400    -0.88232700    -1.46054100
H      2.32395800    -0.39819500    -3.04898300
C     -0.22630700    -4.87395600    -0.73577200
H      0.22179000    -4.75786800     0.25585500
H     -0.41310000    -5.93625600    -0.91746900
H     -1.19543700    -4.36375600    -0.70339800
