91
phenyl-substituted Z,Z tetraradicaloid model 10Ph | VERBATIM coordinates from ACS SI for DOI 10.1021/jacs.5b05596 | PBE1PBE/6-31G(d,p) computational geometry
P      8.52214000     0.55537000     0.33868000
P      6.22036000    -1.16399000    -0.44911000
P     -8.50675000     0.48052000     0.12949000
P     -6.07715000    -1.22231000     0.40122000
N      7.92336000    -0.82149000    -0.39118000
N      6.98497000     1.11688000     0.77369000
N      4.66965000     0.76603000     0.82818000
N     -4.77816000     0.86397000    -0.90907000
N     -7.07911000     1.10143000    -0.53667000
N     -7.76961000    -0.92110000     0.65825000
C      8.85350000    -1.73644000    -0.97678000
C      8.67158000    -2.15869000    -2.29428000
C      9.58178000    -3.04283000    -2.86072000
C     10.67377000    -3.49870000    -2.12552000
C     10.84890000    -3.07436000    -0.81212000
C      9.93605000    -2.20118000    -0.22934000
C      6.89358000     2.38528000     1.42665000
C      6.22116000     2.51085000     2.64322000
C      6.18732000     3.74513000     3.27870000
C      6.82418000     4.85040000     2.71639000
C      7.49066000     4.72060000     1.50327000
C      7.51834000     3.49129000     0.85063000
C      3.56352000    -0.01865000     0.45528000
C      2.85032000     0.30326000    -0.71765000
C      1.71206000    -0.42977000    -1.03729000
C      1.25743000    -1.47526000    -0.23083000
C      1.97027000    -1.76641000     0.92961000
C      3.11391000    -1.05370000     1.29402000
C      3.32097000     1.43252000    -1.58764000
C      3.84605000    -1.36433000     2.56764000
C      0.02030000    -2.25581000    -0.60814000
C     -1.24329000    -1.42744000    -0.69201000
C     -2.10244000    -1.53517000    -1.78341000
C     -3.28780000    -0.80409000    -1.86656000
C     -3.62479000     0.06403000    -0.81259000
C     -2.76075000     0.20491000     0.29181000
C     -1.58878000    -0.54454000     0.33239000
C     -4.18902000    -0.91620000    -3.06227000
C     -3.10210000     1.16865000     1.39144000
C     -5.86575000     0.37617000    -0.43526000
C     -7.14795000     2.35266000    -1.22433000
C     -6.29656000     3.40242000    -0.87621000
C     -6.41752000     4.62231000    -1.52875000
C     -7.38350000     4.80598000    -2.51699000
C     -8.22725000     3.75633000    -2.86192000
C     -8.10488000     2.52488000    -2.22439000
C     -8.56949000    -1.89104000     1.33997000
C     -8.55336000    -3.22034000     0.91569000
C     -9.33801000    -4.15844000     1.57530000
C    -10.14323000    -3.77686000     2.64620000
C    -10.15402000    -2.45007000     3.06485000
C     -9.36133000    -1.50478000     2.42179000
C      5.82960000     0.35576000     0.46591000
H      9.44007000    -3.36974000    -3.88630000
H     11.38285000    -4.18748000    -2.57434000
H      5.66072000     3.84360000     4.22321000
H      6.79362000     5.81133000     3.22112000
H      7.98052000     5.57811000     1.05197000
H      1.15293000    -0.17042000    -1.93438000
H      1.62548000    -2.56993000     1.57860000
H      4.27031000     1.19001000    -2.08025000
H      3.49810000     2.33363000    -0.99159000
H      2.58715000     1.66005000    -2.36522000
H      4.85769000    -1.73994000     2.37235000
H      3.31503000    -2.12248000     3.14953000
H      3.95251000    -0.46593000     3.18577000
H      0.17854000    -2.75087000    -1.57476000
H     -0.12203000    -3.06289000     0.12274000
H     -1.84335000    -2.20548000    -2.60168000
H     -0.91510000    -0.42498000     1.17847000
H     -3.70767000    -1.48141000    -3.86502000
H     -4.45881000     0.07548000    -3.43959000
H     -5.12822000    -1.42447000    -2.81201000
H     -4.02326000     0.87944000     1.91094000
H     -3.26411000     2.17554000     0.99068000
H     -2.29917000     1.21654000     2.13147000
H     -5.75254000     5.43778000    -1.26061000
H     -7.47159000     5.76393000    -3.02064000
H     -8.97544000     3.88609000    -3.63804000
H     -9.32565000    -5.19211000     1.24339000
H    -10.75613000    -4.51372000     3.15615000
H    -10.76864000    -2.14754000     3.90716000
H      5.72405000     1.64765000     3.06774000
H      8.00495000     3.38932000    -0.11532000
H     10.04062000    -1.89630000     0.80771000
H      7.82659000    -1.78132000    -2.86170000
H     11.69002000    -3.43559000    -0.22835000
H     -9.33155000    -0.47535000     2.76639000
H     -7.93524000    -3.50021000     0.06833000
H     -8.73497000     1.68828000    -2.51305000
H     -5.54553000     3.24744000    -0.11174000
