106
phenyl-substituted mono-PCtBu addition product 11'Ph with one remaining cyclopentanediyl biradicaloid moiety | VERBATIM coordinates from ACS SI for DOI 10.1021/jacs.5b05596 | PBE1PBE/6-31G(d,p) computational geometry
P      7.57604300     0.63667000     0.68321700
P      5.36038300     0.06497100    -0.97086400
P     -9.24481300     0.74509000     0.34916600
P     -6.97060800    -1.04439900    -0.35695200
N      6.55510000     1.26545600    -0.56257200
N      6.20242000     0.05774500     1.59617900
N      4.01182600    -0.72202100     1.41728400
N     -5.39684700     1.21900300     0.05068400
N     -7.70893200     1.45644000     0.33412500
N     -8.66375200    -0.75835700    -0.08548800
C      6.97437500     2.25372600    -1.47883700
C      6.03813600     2.87673600    -2.31443100
C      6.44177500     3.86214200    -3.20566500
C      7.77525100     4.25884300    -3.27412600
C      8.70495100     3.64707000    -2.44071600
C      8.31554200     2.64491900    -1.55797700
C      6.32363900    -0.12758500     3.00222800
C      5.97043900    -1.33857600     3.60073300
C      6.12549800    -1.49981300     4.97264300
C      6.64344300    -0.46962200     5.75344500
C      7.00100600     0.73388200     5.15307600
C      6.83590100     0.90997400     3.78365500
C      2.83782300    -0.98537700     0.69840000
C      2.05684900     0.04990300     0.14438600
C      0.87128500    -0.28665900    -0.50735100
C      0.42898600    -1.60481500    -0.61359800
C      1.18764300    -2.60044200     0.00049600
C      2.37226000    -2.31304900     0.67498800
C      2.44856100     1.49231200     0.29993900
C      3.12872800    -3.38389300     1.40610500
C     -0.83701600    -1.94337700    -1.36812300
C     -2.03987700    -1.10783000    -0.99627400
C     -2.74549800    -0.39191800    -1.96039700
C     -3.87222200     0.36661300    -1.64057700
C     -4.30751400     0.40429500    -0.30403000
C     -3.59740600    -0.29634400     0.69239100
C     -2.47967200    -1.04037400     0.32724300
C     -4.61054300     1.14556200    -2.69027500
C     -4.04361800    -0.21743800     2.12364800
C     -6.56197600     0.68206600     0.03089600
C     -7.61375900     2.85687200     0.60660800
C     -6.77724600     3.32531200     1.62074400
C     -6.73880200     4.68544200     1.89778500
C     -7.53181000     5.57826800     1.17839600
C     -8.36135000     5.10663200     0.16735500
C     -8.39713700     3.74649800    -0.12773600
C     -9.59953100    -1.83029300    -0.23013000
C     -9.59487600    -2.59966500    -1.39430000
C    -10.51081500    -3.63542600    -1.53295800
C    -11.43450300    -3.90035600    -0.52431400
C    -11.43314700    -3.13007200     0.63432100
C    -10.51076900    -2.10057700     0.79125800
C      5.07300800    -0.28307100     0.87003200
H      5.69992700     4.33278500    -3.84455600
H      8.08393800     5.03423500    -3.96808300
H      5.84494300    -2.44274700     5.43294600
H      6.76591800    -0.60395600     6.82396600
H      7.40195700     1.54628000     5.75194800
H      0.25983500     0.51008300    -0.92571800
H      0.84049000    -3.63181400    -0.03191800
H      3.23362500     1.79054100    -0.40627600
H      2.83066000     1.69120400     1.30601300
H      1.58794300     2.14225100     0.12216700
H      4.16517200    -3.46856400     1.06217200
H      2.64877000    -4.35844000     1.28370900
H      3.17616400    -3.15401800     2.47694600
H     -0.65597100    -1.83630100    -2.44579200
H     -1.06489300    -3.00523800    -1.20802000
H     -2.41142700    -0.42081500    -2.99645800
H     -1.92644800    -1.57298200     1.09844100
H     -4.05299700     1.16477800    -3.63062800
H     -4.78441700     2.17451900    -2.35941200
H     -5.59601300     0.70937400    -2.89429700
H     -5.03981600    -0.65463100     2.26006100
H     -4.10413300     0.82490300     2.45582100
H     -3.35008500    -0.74934700     2.78003000
H     -6.08581100     5.05089700     2.68461400
H     -7.49657600     6.64002800     1.40306400
H     -8.97494600     5.79569800    -0.40499100
H    -10.50725800    -4.23260800    -2.43968700
H    -12.14935600    -4.70925200    -0.63961500
H    -12.14076000    -3.33913700     1.43074700
H      5.56749600    -2.13798100     2.99070600
H      7.09931300     1.85261100     3.31330300
H      9.05967000     2.16739100    -0.92576500
H      4.99257000     2.59060900    -2.25357700
H      9.75061400     3.93830100    -2.48197700
H    -10.47382500    -1.52115700     1.70903100
H     -8.88235900    -2.37030900    -2.18050300
H     -9.01523400     3.37243100    -0.93904000
H     -6.16139000     2.62364000     2.16957700
P      8.04267600    -1.32041000    -0.40994100
C      6.57355000    -1.34734900    -1.23968600
C      6.19094400    -2.38771700    -2.28317500
C      7.19195000    -3.54387000    -2.33237600
H      6.88918500    -4.26576500    -3.09839800
H      8.19910400    -3.19278800    -2.57986300
H      7.24253300    -4.06720800    -1.37232200
C      4.79094800    -2.94857900    -1.99360700
H      4.77513500    -3.49779200    -1.04864300
H      4.02945500    -2.16291600    -1.94433800
H      4.49999400    -3.64121700    -2.79082600
C      6.17476100    -1.68385600    -3.65450600
H      5.89916400    -2.40539200    -4.43171600
H      5.44698200    -0.86684200    -3.68117000
H      7.16025400    -1.27479700    -3.89617600
